Ir48 C4 N2 F4                           
    1.000000000000000     
    10.9622135000000007    0.0000000000000000    0.0000000000000000
     0.0000000000000000   10.9622135000000007    0.0000000000000000
     0.0000000000000000    0.0000000000000000   16.7325000400000015
   Ir   C    N    F 
    48     4     2     4
Selective dynamics
Direct
 -0.0005987352049449  0.2491878527881466  0.4112369760447542   T   T   T
  0.0000054387657614  0.4999973010006670  0.4114672406081106   T   T   T
  0.0006027490699828  0.7508178785115616  0.4112346820532957   T   T   T
  0.0000001961367599 -0.0000051007910008  0.4113114579621751   T   T   T
  0.2495606237765328  0.2495660824981504  0.4116000853947570   T   T   T
  0.2493646899934454  0.4998585823513632  0.4118694356219567   T   T   T
  0.2513084210766862  0.7486902844793598  0.4129511019902188   T   T   T
  0.2491835870522897 -0.0006054827872228  0.4112372234813460   T   T   T
  0.4998555020270603  0.2493662260711308  0.4118734953781982   T   T   T
  0.4999935474798143  0.5000044986172075  0.4119672580210758   T   T   T
  0.5001414908067129  0.7506343557868916  0.4118699968199609   T   T   T
  0.5000000869284048 -0.0000032898353484  0.4114645465397394   T   T   T
  0.7486951589655976  0.2513054654619863  0.4129532955902461   T   T   T
  0.7506375857787794  0.5001441548938105  0.4118741011406424   T   T   T
  0.7504394989939505  0.7504413925724239  0.4115972676731160   T   T   T
  0.7508166361334417  0.0005964506417335  0.4112323384402513   T   T   T
  0.1249913200229901  0.1249981598869066  0.5244123221879994   T   T   T
  0.1231616524071236  0.3745330232373915  0.5238103648895108   T   T   T
  0.1241140684923074  0.6246128261505677  0.5250524760549208   T   T   T
  0.1253210876195058  0.8746809977050760  0.5247546351217319   T   T   T
  0.3745351562462559  0.1231650950466313  0.5238218084342436   T   T   T
  0.3720956124826147  0.3720968222541794  0.5245845072081790   T   T   T
  0.3749177824891905  0.6250832528011699  0.5325090443452558   T   T   T
  0.3753859600411107  0.8758862453620259  0.5250539938075310   T   T   T
  0.6246220092988153  0.1241079790579422  0.5250549372934614   T   T   T
  0.6250866725300434  0.3749182463747173  0.5325227848865268   T   T   T
  0.6279054672932440  0.6279043161026064  0.5245851388527031   T   T   T
  0.6254675276116315  0.8768360263075569  0.5238223032584696   T   T   T
  0.8746784834517101  0.1253202072227675  0.5247581163637935   T   T   T
  0.8758919236165492  0.3753804024230789  0.5250513262200464   T   T   T
  0.8768363651525937  0.6254652901743178  0.5238161780338029   T   T   T
  0.8750015501835124  0.8750064081337126  0.5244098540636559   T   T   T
  0.1250000002280558  0.1250000002280558  0.2988196616194330   F   F   F
  0.1250000002280558  0.3749999997719442  0.2988196616194330   F   F   F
  0.1250000002280558  0.6249999993158326  0.2988196616194330   F   F   F
  0.1250000002280558  0.8749999988597210  0.2988196616194330   F   F   F
  0.3749999997719442  0.1250000002280558  0.2988196616194330   F   F   F
  0.3749999997719442  0.3749999997719442  0.2988196616194330   F   F   F
  0.3749999997719442  0.6249999993158326  0.2988196616194330   F   F   F
  0.3749999997719442  0.8749999988597210  0.2988196616194330   F   F   F
  0.6249999993158326  0.1250000002280558  0.2988196616194330   F   F   F
  0.6249999993158326  0.3749999997719442  0.2988196616194330   F   F   F
  0.6249999993158326  0.6249999993158326  0.2988196616194330   F   F   F
  0.6249999993158326  0.8749999988597210  0.2988196616194330   F   F   F
  0.8749999988597210  0.1250000002280558  0.2988196616194330   F   F   F
  0.8749999988597210  0.3749999997719442  0.2988196616194330   F   F   F
  0.8749999988597210  0.6249999993158326  0.2988196616194330   F   F   F
  0.8749999988597210  0.8749999988597210  0.2988196616194330   F   F   F
  0.5302330033355586  0.3767044697352347  0.6493925136324417   T   T   T
  0.6233037481628116  0.4697552567156922  0.6493965701530293   T   T   T
  0.4697681423159708  0.6232997484171775  0.6493932878975263   T   T   T
  0.3766985654465353  0.5302512348448629  0.6493962123010771   T   T   T
  0.5934152825242178  0.5934117089171161  0.6430888675577727   T   T   T
  0.4065851505383844  0.4065990203131684  0.6430877556469976   T   T   T
  0.2739491343588883  0.5511506128485949  0.6930424989725519   T   T   T
  0.4488760069827010  0.7260663356695288  0.6930393485426701   T   T   T
  0.5511208990806800  0.2739385548427227  0.6930396232956618   T   T   T
  0.7260516719697094  0.4488577316594065  0.6930450738063714   T   T   T
 
  0.00000000E+00  0.00000000E+00  0.00000000E+00
  0.00000000E+00  0.00000000E+00  0.00000000E+00
  0.00000000E+00  0.00000000E+00  0.00000000E+00
  0.00000000E+00  0.00000000E+00  0.00000000E+00
  0.00000000E+00  0.00000000E+00  0.00000000E+00
  0.00000000E+00  0.00000000E+00  0.00000000E+00
  0.00000000E+00  0.00000000E+00  0.00000000E+00
  0.00000000E+00  0.00000000E+00  0.00000000E+00
  0.00000000E+00  0.00000000E+00  0.00000000E+00
  0.00000000E+00  0.00000000E+00  0.00000000E+00
  0.00000000E+00  0.00000000E+00  0.00000000E+00
  0.00000000E+00  0.00000000E+00  0.00000000E+00
  0.00000000E+00  0.00000000E+00  0.00000000E+00
  0.00000000E+00  0.00000000E+00  0.00000000E+00
  0.00000000E+00  0.00000000E+00  0.00000000E+00
  0.00000000E+00  0.00000000E+00  0.00000000E+00
  0.00000000E+00  0.00000000E+00  0.00000000E+00
  0.00000000E+00  0.00000000E+00  0.00000000E+00
  0.00000000E+00  0.00000000E+00  0.00000000E+00
  0.00000000E+00  0.00000000E+00  0.00000000E+00
  0.00000000E+00  0.00000000E+00  0.00000000E+00
  0.00000000E+00  0.00000000E+00  0.00000000E+00
  0.00000000E+00  0.00000000E+00  0.00000000E+00
  0.00000000E+00  0.00000000E+00  0.00000000E+00
  0.00000000E+00  0.00000000E+00  0.00000000E+00
  0.00000000E+00  0.00000000E+00  0.00000000E+00
  0.00000000E+00  0.00000000E+00  0.00000000E+00
  0.00000000E+00  0.00000000E+00  0.00000000E+00
  0.00000000E+00  0.00000000E+00  0.00000000E+00
  0.00000000E+00  0.00000000E+00  0.00000000E+00
  0.00000000E+00  0.00000000E+00  0.00000000E+00
  0.00000000E+00  0.00000000E+00  0.00000000E+00
  0.00000000E+00  0.00000000E+00  0.00000000E+00
  0.00000000E+00  0.00000000E+00  0.00000000E+00
  0.00000000E+00  0.00000000E+00  0.00000000E+00
  0.00000000E+00  0.00000000E+00  0.00000000E+00
  0.00000000E+00  0.00000000E+00  0.00000000E+00
  0.00000000E+00  0.00000000E+00  0.00000000E+00
  0.00000000E+00  0.00000000E+00  0.00000000E+00
  0.00000000E+00  0.00000000E+00  0.00000000E+00
  0.00000000E+00  0.00000000E+00  0.00000000E+00
  0.00000000E+00  0.00000000E+00  0.00000000E+00
  0.00000000E+00  0.00000000E+00  0.00000000E+00
  0.00000000E+00  0.00000000E+00  0.00000000E+00
  0.00000000E+00  0.00000000E+00  0.00000000E+00
  0.00000000E+00  0.00000000E+00  0.00000000E+00
  0.00000000E+00  0.00000000E+00  0.00000000E+00
  0.00000000E+00  0.00000000E+00  0.00000000E+00
  0.00000000E+00  0.00000000E+00  0.00000000E+00
  0.00000000E+00  0.00000000E+00  0.00000000E+00
  0.00000000E+00  0.00000000E+00  0.00000000E+00
  0.00000000E+00  0.00000000E+00  0.00000000E+00
  0.00000000E+00  0.00000000E+00  0.00000000E+00
  0.00000000E+00  0.00000000E+00  0.00000000E+00
  0.00000000E+00  0.00000000E+00  0.00000000E+00
  0.00000000E+00  0.00000000E+00  0.00000000E+00
  0.00000000E+00  0.00000000E+00  0.00000000E+00
  0.00000000E+00  0.00000000E+00  0.00000000E+00
