Automatic kpoint scheme
0
Monkhorst
1 1 1
