Ir  C  H Br                             
    1.000000000000000     
    10.9622135000000007    0.0000000000000000    0.0000000000000000
     0.0000000000000000   10.9622135000000007    0.0000000000000000
     0.0000000000000000    0.0000000000000000   23.8135916099999996
   Ir   C    H    Br
    64     6     2     4
Selective dynamics
Direct
  0.0000000000000000  0.2499999995438884  0.3149461921926360   F   F   F
  0.7499999986316652  0.7499999986316652  0.3149461921926360   F   F   F
  0.0000000000000000  0.4999999990877768  0.3149461921926360   F   F   F
  0.0000000000000000  0.7499999986316652  0.3149461921926360   F   F   F
  0.0000000000000000  0.0000000000000000  0.3149461921926360   F   F   F
  0.2499999995438884  0.2499999995438884  0.3149461921926360   F   F   F
  0.2499999995438884  0.4999999990877768  0.3149461921926360   F   F   F
  0.7499999986316652  0.0000000000000000  0.3149461921926360   F   F   F
  0.2499999995438884  0.7499999986316652  0.3149461921926360   F   F   F
  0.2499999995438884  0.0000000000000000  0.3149461921926360   F   F   F
  0.4999999990877768  0.2499999995438884  0.3149461921926360   F   F   F
  0.4999999990877768  0.4999999990877768  0.3149461921926360   F   F   F
  0.4999999990877768  0.7499999986316652  0.3149461921926360   F   F   F
  0.4999999990877768  0.0000000000000000  0.3149461921926360   F   F   F
  0.7499999986316652  0.2499999995438884  0.3149461921926360   F   F   F
  0.7499999986316652  0.4999999990877768  0.3149461921926360   F   F   F
  0.9995695282907420  0.2506374451183651  0.4771320775265593   T   T   T
 -0.0000890262738466  0.4999563876888951  0.4780991095135376   T   T   T
  0.0004936489831598  0.7493561583637495  0.4771574889038163   T   T   T
  0.0000677386876428 -0.0000291038555527  0.4763654442808281   T   T   T
  0.2508011507075767  0.2507355566044547  0.4778569107889830   T   T   T
  0.2484711207279300  0.5010759993512723  0.4796189973281352   T   T   T
  0.2517796764998508  0.7482363638296977  0.4791835082484198   T   T   T
  0.2506583159069907  0.9995400606590414  0.4771576153051741   T   T   T
  0.5011834816410858  0.2485773692342062  0.4796426092404510   T   T   T
  0.4999054095572582  0.5001031301529454  0.4786568855189627   T   T   T
  0.4989416673568732  0.7515464739549892  0.4796085357472364   T   T   T
  0.5000849322009007  0.0001414927496043  0.4781004292908783   T   T   T
  0.7483142701938876  0.2516685350831266  0.4791401141999186   T   T   T
  0.7514439148570973  0.4988082934216463  0.4796502007069057   T   T   T
  0.7492372175715367  0.7492142908304724  0.4778512643525591   T   T   T
  0.7493833904872146  0.0004449825840816  0.4771235018673539   T   T   T
  0.1227667547670103  0.1226911663251573  0.5545888883451802   T   T   T
  0.1280528662627303  0.3738699333514890  0.5575713983613151   T   T   T
  0.1253740429809850  0.6256184694239446  0.5578661775577973   T   T   T
  0.1229885662671307  0.8770355671390520  0.5549102386758823   T   T   T
  0.3738274104362130  0.1282047607128105  0.5575927424954562   T   T   T
  0.3713401483190646  0.3716841456504424  0.5579878614199925   T   T   T
  0.3707744951441504  0.6292597309366179  0.5661112245313249   T   T   T
  0.3743994195130471  0.8746083890691961  0.5578429873726986   T   T   T
  0.6257784800180467  0.1255704664947507  0.5578975520501152   T   T   T
  0.6290535114144918  0.3709043287114260  0.5662538076046554   T   T   T
  0.6283389667932681  0.6286582772782277  0.5579703335461411   T   T   T
  0.6261447316864889  0.8719508469224471  0.5575703714001818   T   T   T
  0.8770980167860459  0.1229016346756729  0.5548737540972395   T   T   T
  0.8744147035644273  0.3742800418190075  0.5578647738067749   T   T   T
  0.8718235338672926  0.6261771062889252  0.5575899797947230   T   T   T
  0.8773181137650584  0.8772473622618665  0.5545786387419140   T   T   T
  0.1250000002280558  0.1250000002280558  0.3963225717718615   F   F   F
  0.1250000002280558  0.3749999997719442  0.3963225717718615   F   F   F
  0.1250000002280558  0.6249999993158326  0.3963225717718615   F   F   F
  0.1250000002280558  0.8749999988597210  0.3963225717718615   F   F   F
  0.3749999997719442  0.1250000002280558  0.3963225717718615   F   F   F
  0.3749999997719442  0.3749999997719442  0.3963225717718615   F   F   F
  0.3749999997719442  0.6249999993158326  0.3963225717718615   F   F   F
  0.3749999997719442  0.8749999988597210  0.3963225717718615   F   F   F
  0.6249999993158326  0.1250000002280558  0.3963225717718615   F   F   F
  0.6249999993158326  0.3749999997719442  0.3963225717718615   F   F   F
  0.6249999993158326  0.6249999993158326  0.3963225717718615   F   F   F
  0.6249999993158326  0.8749999988597210  0.3963225717718615   F   F   F
  0.8749999988597210  0.1250000002280558  0.3963225717718615   F   F   F
  0.8749999988597210  0.3749999997719442  0.3963225717718615   F   F   F
  0.8749999988597210  0.6249999993158326  0.3963225717718615   F   F   F
  0.8749999988597210  0.8749999988597210  0.3963225717718615   F   F   F
  0.6009853988079855  0.6042157248621858  0.6451990909029361   T   T   T
  0.6154511016321342  0.4720267580015566  0.6376125006068821   T   T   T
  0.5279725136030295  0.3845915210167438  0.6376281265221813   T   T   T
  0.3959138022081239  0.3990307862267866  0.6452113585390533   T   T   T
  0.3812977220530774  0.5315593437192906  0.6386960670345306   T   T   T
  0.4685479299779681  0.6187651781872258  0.6386890802384483   T   T   T
  0.6591400258800856  0.6612968231978230  0.6713692251788447   T   T   T
  0.3387391844785345  0.3409218956823445  0.6713795267913575   T   T   T
  0.0025146628355689  0.3358354352541912  0.6445782030010357   T   T   T
  0.6639473919367910  0.9972864337470080  0.6446149461066719   T   T   T
  0.9973060446784655  0.6638699319518618  0.6446737520745068   T   T   T
  0.3361651425374823  0.0025882765829683  0.6446128668361640   T   T   T
 
  0.00000000E+00  0.00000000E+00  0.00000000E+00
  0.00000000E+00  0.00000000E+00  0.00000000E+00
  0.00000000E+00  0.00000000E+00  0.00000000E+00
  0.00000000E+00  0.00000000E+00  0.00000000E+00
  0.00000000E+00  0.00000000E+00  0.00000000E+00
  0.00000000E+00  0.00000000E+00  0.00000000E+00
  0.00000000E+00  0.00000000E+00  0.00000000E+00
  0.00000000E+00  0.00000000E+00  0.00000000E+00
  0.00000000E+00  0.00000000E+00  0.00000000E+00
  0.00000000E+00  0.00000000E+00  0.00000000E+00
  0.00000000E+00  0.00000000E+00  0.00000000E+00
  0.00000000E+00  0.00000000E+00  0.00000000E+00
  0.00000000E+00  0.00000000E+00  0.00000000E+00
  0.00000000E+00  0.00000000E+00  0.00000000E+00
  0.00000000E+00  0.00000000E+00  0.00000000E+00
  0.00000000E+00  0.00000000E+00  0.00000000E+00
  0.00000000E+00  0.00000000E+00  0.00000000E+00
  0.00000000E+00  0.00000000E+00  0.00000000E+00
  0.00000000E+00  0.00000000E+00  0.00000000E+00
  0.00000000E+00  0.00000000E+00  0.00000000E+00
  0.00000000E+00  0.00000000E+00  0.00000000E+00
  0.00000000E+00  0.00000000E+00  0.00000000E+00
  0.00000000E+00  0.00000000E+00  0.00000000E+00
  0.00000000E+00  0.00000000E+00  0.00000000E+00
  0.00000000E+00  0.00000000E+00  0.00000000E+00
  0.00000000E+00  0.00000000E+00  0.00000000E+00
  0.00000000E+00  0.00000000E+00  0.00000000E+00
  0.00000000E+00  0.00000000E+00  0.00000000E+00
  0.00000000E+00  0.00000000E+00  0.00000000E+00
  0.00000000E+00  0.00000000E+00  0.00000000E+00
  0.00000000E+00  0.00000000E+00  0.00000000E+00
  0.00000000E+00  0.00000000E+00  0.00000000E+00
  0.00000000E+00  0.00000000E+00  0.00000000E+00
  0.00000000E+00  0.00000000E+00  0.00000000E+00
  0.00000000E+00  0.00000000E+00  0.00000000E+00
  0.00000000E+00  0.00000000E+00  0.00000000E+00
  0.00000000E+00  0.00000000E+00  0.00000000E+00
  0.00000000E+00  0.00000000E+00  0.00000000E+00
  0.00000000E+00  0.00000000E+00  0.00000000E+00
  0.00000000E+00  0.00000000E+00  0.00000000E+00
  0.00000000E+00  0.00000000E+00  0.00000000E+00
  0.00000000E+00  0.00000000E+00  0.00000000E+00
  0.00000000E+00  0.00000000E+00  0.00000000E+00
  0.00000000E+00  0.00000000E+00  0.00000000E+00
  0.00000000E+00  0.00000000E+00  0.00000000E+00
  0.00000000E+00  0.00000000E+00  0.00000000E+00
  0.00000000E+00  0.00000000E+00  0.00000000E+00
  0.00000000E+00  0.00000000E+00  0.00000000E+00
  0.00000000E+00  0.00000000E+00  0.00000000E+00
  0.00000000E+00  0.00000000E+00  0.00000000E+00
  0.00000000E+00  0.00000000E+00  0.00000000E+00
  0.00000000E+00  0.00000000E+00  0.00000000E+00
  0.00000000E+00  0.00000000E+00  0.00000000E+00
  0.00000000E+00  0.00000000E+00  0.00000000E+00
  0.00000000E+00  0.00000000E+00  0.00000000E+00
  0.00000000E+00  0.00000000E+00  0.00000000E+00
  0.00000000E+00  0.00000000E+00  0.00000000E+00
  0.00000000E+00  0.00000000E+00  0.00000000E+00
  0.00000000E+00  0.00000000E+00  0.00000000E+00
  0.00000000E+00  0.00000000E+00  0.00000000E+00
  0.00000000E+00  0.00000000E+00  0.00000000E+00
  0.00000000E+00  0.00000000E+00  0.00000000E+00
  0.00000000E+00  0.00000000E+00  0.00000000E+00
  0.00000000E+00  0.00000000E+00  0.00000000E+00
  0.00000000E+00  0.00000000E+00  0.00000000E+00
  0.00000000E+00  0.00000000E+00  0.00000000E+00
  0.00000000E+00  0.00000000E+00  0.00000000E+00
  0.00000000E+00  0.00000000E+00  0.00000000E+00
  0.00000000E+00  0.00000000E+00  0.00000000E+00
  0.00000000E+00  0.00000000E+00  0.00000000E+00
  0.00000000E+00  0.00000000E+00  0.00000000E+00
  0.00000000E+00  0.00000000E+00  0.00000000E+00
  0.00000000E+00  0.00000000E+00  0.00000000E+00
  0.00000000E+00  0.00000000E+00  0.00000000E+00
  0.00000000E+00  0.00000000E+00  0.00000000E+00
  0.00000000E+00  0.00000000E+00  0.00000000E+00
