Rh  C  N  F                             
    1.000000000000000     
    10.8856652999999994    0.0000000000000000    0.0000000000000000
     0.0000000000000000   15.3946555000000007    0.0000000000000000
     0.0000000000000000    0.0000000000000000   22.0821244799999974
   Rh   C    N    F 
    64     4     2     4
Selective dynamics
Direct
  0.2500000004593161  0.2500000003247891  0.3396412336499992   F   F   F
  0.0000000018372788  0.7500000016239383  0.3396412336499992   F   F   F
  0.2500000004593161  0.5000000012991492  0.3396412336499992   F   F   F
  0.2500000004593161  0.7500000016239383  0.3396412336499992   F   F   F
  0.2500000004593161  0.0000000019487274  0.3396412336499992   F   F   F
  0.5000000009186394  0.2500000003247891  0.3396412336499992   F   F   F
  0.5000000009186394  0.5000000012991492  0.3396412336499992   F   F   F
  0.0000000018372788  0.0000000019487274  0.3396412336499992   F   F   F
  0.5000000009186394  0.7500000016239383  0.3396412336499992   F   F   F
  0.5000000009186394  0.0000000019487274  0.3396412336499992   F   F   F
  0.7500000013779555  0.2500000003247891  0.3396412336499992   F   F   F
  0.7500000013779555  0.5000000012991492  0.3396412336499992   F   F   F
  0.7500000013779555  0.7500000016239383  0.3396412336499992   F   F   F
  0.7500000013779555  0.0000000019487274  0.3396412336499992   F   F   F
  0.0000000018372788  0.2500000003247891  0.3396412336499992   F   F   F
  0.0000000018372788  0.5000000012991492  0.3396412336499992   F   F   F
  0.2499397360990363  0.2502412811295078  0.4587976048781899   T   T   T
  0.2504303857316419  0.4999857502063791  0.4583230027064804   T   T   T
  0.2511610279641501  0.7486023316436757  0.4593794080518656   T   T   T
  0.2501372166939987  0.0000968617576445  0.4591204131340733   T   T   T
  0.5001393838858735  0.2507138676131964  0.4584276925343923   T   T   T
  0.5000083160055258  0.5000030912647007  0.4571788432286280   T   T   T
  0.4998634215016826  0.7492701985795394  0.4584296268596072   T   T   T
  0.4999878651944414  0.0000110683715036  0.4590984742825681   T   T   T
  0.7488155285341173  0.2513671525918331  0.4593710957154078   T   T   T
  0.7495597893723861  0.5000081297976490  0.4583257909821430   T   T   T
  0.7500574624626426  0.7497605517894382  0.4587931355598989   T   T   T
  0.7499204287030822  0.9999333244304350  0.4591115458333803   T   T   T
  0.9991812400016743  0.2500450515361854  0.4589790556138964   T   T   T
  0.0000172748996875  0.4999970972793425  0.4589888437353754   T   T   T
  0.0008443229042531  0.7499349918659431  0.4589660073098261   T   T   T
  0.0000106397790094  0.0000000420768616  0.4591827739743762   T   T   T
  0.1247896699120394  0.1254328772925399  0.5150086993094947   T   T   T
  0.1217369440443414  0.3745750341613927  0.5150312505217024   T   T   T
  0.1248244563785384  0.6247094847877186  0.5151963285019598   T   T   T
  0.1255888622187637  0.8746881928140529  0.5149966426323029   T   T   T
  0.3751348004657470  0.1253249255550849  0.5150535548839750   T   T   T
  0.3705270185761185  0.3738431724421935  0.5164107093589059   T   T   T
  0.3789469013473744  0.6197197377820882  0.5189678172972929   T   T   T
  0.3748828029860984  0.8744706233474246  0.5149420492358412   T   T   T
  0.6251215543758034  0.1255332996873416  0.5149515841361599   T   T   T
  0.6210350779242164  0.3802514045334591  0.5189559880118763   T   T   T
  0.6294476427088670  0.6261599383698309  0.5163975261261496   T   T   T
  0.6248278479912575  0.8746777839349170  0.5150224643865245   T   T   T
  0.8744354518271994  0.1253118380594999  0.5149961034987328   T   T   T
  0.8751642642458255  0.3752819885991311  0.5151897824550705   T   T   T
  0.8782816197434805  0.6254283891450990  0.5150331768689193   T   T   T
  0.8752130486731771  0.8745686881792832  0.5150104222454636   T   T   T
  0.1249999997703384  0.1250000001623945  0.4012615800633341   F   F   F
  0.1249999997703384  0.3750000004871836  0.4012615800633341   F   F   F
  0.1250000006889778  0.6250000014615438  0.4012615800633341   F   F   F
  0.1250000006889778  0.8750000017863329  0.4012615800633341   F   F   F
  0.3750000002296616  0.1250000001623945  0.4012615800633341   F   F   F
  0.3750000002296616  0.3750000004871836  0.4012615800633341   F   F   F
  0.3750000011483010  0.6250000014615438  0.4012615800633341   F   F   F
  0.3750000011483010  0.8750000017863329  0.4012615800633341   F   F   F
  0.6250000006889778  0.1250000001623945  0.4012615800633341   F   F   F
  0.6250000006889778  0.3750000004871836  0.4012615800633341   F   F   F
  0.6250000006889778  0.6250000014615438  0.4012615800633341   F   F   F
  0.6250000006889778  0.8750000017863329  0.4012615800633341   F   F   F
  0.8750000011483010  0.1250000001623945  0.4012615800633341   F   F   F
  0.8750000011483010  0.3750000004871836  0.4012615800633341   F   F   F
  0.8750000020669404  0.6250000014615438  0.4012615800633341   F   F   F
  0.8750000011483010  0.8750000017863329  0.4012615800633341   F   F   F
  0.4491096658800536  0.5848751158859371  0.6040861426024751   T   T   T
  0.3771685361935901  0.5062470676268551  0.6078769243837361   T   T   T
  0.5508964324543396  0.4151163976209249  0.6040884888236553   T   T   T
  0.6227938305121232  0.4937693839673440  0.6078771439925142   T   T   T
  0.4213319903885764  0.4270236848673274  0.5992112561994465   T   T   T
  0.5786796840340750  0.5729570881750762  0.5992124269513446   T   T   T
  0.7427075169233603  0.4876649724138064  0.6232553647835004   T   T   T
  0.5791396329446972  0.3510516434574913  0.6463758251796158   T   T   T
  0.4208642615025469  0.6489570913913549  0.6463727591390632   T   T   T
  0.2572963179200237  0.5123242585576903  0.6232697996040851   T   T   T
 
  0.00000000E+00  0.00000000E+00  0.00000000E+00
  0.00000000E+00  0.00000000E+00  0.00000000E+00
  0.00000000E+00  0.00000000E+00  0.00000000E+00
  0.00000000E+00  0.00000000E+00  0.00000000E+00
  0.00000000E+00  0.00000000E+00  0.00000000E+00
  0.00000000E+00  0.00000000E+00  0.00000000E+00
  0.00000000E+00  0.00000000E+00  0.00000000E+00
  0.00000000E+00  0.00000000E+00  0.00000000E+00
  0.00000000E+00  0.00000000E+00  0.00000000E+00
  0.00000000E+00  0.00000000E+00  0.00000000E+00
  0.00000000E+00  0.00000000E+00  0.00000000E+00
  0.00000000E+00  0.00000000E+00  0.00000000E+00
  0.00000000E+00  0.00000000E+00  0.00000000E+00
  0.00000000E+00  0.00000000E+00  0.00000000E+00
  0.00000000E+00  0.00000000E+00  0.00000000E+00
  0.00000000E+00  0.00000000E+00  0.00000000E+00
  0.00000000E+00  0.00000000E+00  0.00000000E+00
  0.00000000E+00  0.00000000E+00  0.00000000E+00
  0.00000000E+00  0.00000000E+00  0.00000000E+00
  0.00000000E+00  0.00000000E+00  0.00000000E+00
  0.00000000E+00  0.00000000E+00  0.00000000E+00
  0.00000000E+00  0.00000000E+00  0.00000000E+00
  0.00000000E+00  0.00000000E+00  0.00000000E+00
  0.00000000E+00  0.00000000E+00  0.00000000E+00
  0.00000000E+00  0.00000000E+00  0.00000000E+00
  0.00000000E+00  0.00000000E+00  0.00000000E+00
  0.00000000E+00  0.00000000E+00  0.00000000E+00
  0.00000000E+00  0.00000000E+00  0.00000000E+00
  0.00000000E+00  0.00000000E+00  0.00000000E+00
  0.00000000E+00  0.00000000E+00  0.00000000E+00
  0.00000000E+00  0.00000000E+00  0.00000000E+00
  0.00000000E+00  0.00000000E+00  0.00000000E+00
  0.00000000E+00  0.00000000E+00  0.00000000E+00
  0.00000000E+00  0.00000000E+00  0.00000000E+00
  0.00000000E+00  0.00000000E+00  0.00000000E+00
  0.00000000E+00  0.00000000E+00  0.00000000E+00
  0.00000000E+00  0.00000000E+00  0.00000000E+00
  0.00000000E+00  0.00000000E+00  0.00000000E+00
  0.00000000E+00  0.00000000E+00  0.00000000E+00
  0.00000000E+00  0.00000000E+00  0.00000000E+00
  0.00000000E+00  0.00000000E+00  0.00000000E+00
  0.00000000E+00  0.00000000E+00  0.00000000E+00
  0.00000000E+00  0.00000000E+00  0.00000000E+00
  0.00000000E+00  0.00000000E+00  0.00000000E+00
  0.00000000E+00  0.00000000E+00  0.00000000E+00
  0.00000000E+00  0.00000000E+00  0.00000000E+00
  0.00000000E+00  0.00000000E+00  0.00000000E+00
  0.00000000E+00  0.00000000E+00  0.00000000E+00
  0.00000000E+00  0.00000000E+00  0.00000000E+00
  0.00000000E+00  0.00000000E+00  0.00000000E+00
  0.00000000E+00  0.00000000E+00  0.00000000E+00
  0.00000000E+00  0.00000000E+00  0.00000000E+00
  0.00000000E+00  0.00000000E+00  0.00000000E+00
  0.00000000E+00  0.00000000E+00  0.00000000E+00
  0.00000000E+00  0.00000000E+00  0.00000000E+00
  0.00000000E+00  0.00000000E+00  0.00000000E+00
  0.00000000E+00  0.00000000E+00  0.00000000E+00
  0.00000000E+00  0.00000000E+00  0.00000000E+00
  0.00000000E+00  0.00000000E+00  0.00000000E+00
  0.00000000E+00  0.00000000E+00  0.00000000E+00
  0.00000000E+00  0.00000000E+00  0.00000000E+00
  0.00000000E+00  0.00000000E+00  0.00000000E+00
  0.00000000E+00  0.00000000E+00  0.00000000E+00
  0.00000000E+00  0.00000000E+00  0.00000000E+00
  0.00000000E+00  0.00000000E+00  0.00000000E+00
  0.00000000E+00  0.00000000E+00  0.00000000E+00
  0.00000000E+00  0.00000000E+00  0.00000000E+00
  0.00000000E+00  0.00000000E+00  0.00000000E+00
  0.00000000E+00  0.00000000E+00  0.00000000E+00
  0.00000000E+00  0.00000000E+00  0.00000000E+00
  0.00000000E+00  0.00000000E+00  0.00000000E+00
  0.00000000E+00  0.00000000E+00  0.00000000E+00
  0.00000000E+00  0.00000000E+00  0.00000000E+00
  0.00000000E+00  0.00000000E+00  0.00000000E+00
