Au  C  N  F                             
   1.00000000000000     
    11.7981859999999994    0.0000000000000000    0.0000000000000000
    -5.8990929999999997   10.2175279999999997    0.0000000000000000
     0.0000000000000000    0.0000000000000000   25.2248836799999978
   Au   C    N    F 
    64     4     2     4
Selective dynamics
Direct
  0.9999999981222629  0.7500000352335690  0.2973254543071064   F   F   F
  0.2499999923717056  0.0000000000000000  0.2973254543071064   F   F   F
  0.2500000016343193  0.2500000117445254  0.2973254543071064   F   F   F
  0.2500000117445254  0.5000000234890507  0.2973254543071064   F   F   F
  0.2500000210071391  0.7500000352335690  0.2973254543071064   F   F   F
  0.4999999847434182  0.0000000000000000  0.2973254543071064   F   F   F
  0.4999999940060320  0.2500000117445254  0.2973254543071064   F   F   F
  0.5000000041162309  0.5000000234890507  0.2973254543071064   F   F   F
  0.7499999771151238  0.0000000000000000  0.2973254543071064   F   F   F
  0.7499999863777376  0.2500000117445254  0.2973254543071064   F   F   F
  0.7499999964879436  0.5000000234890507  0.2973254543071064   F   F   F
  0.7500000057505574  0.7500000352335690  0.2973254543071064   F   F   F
  0.9999999694868364  0.0000000000000000  0.2973254543071064   F   F   F
  0.0000000092626138  0.2500000117445254  0.2973254543071064   F   F   F
  0.9999999888596491  0.5000000234890507  0.2973254543071064   F   F   F
  0.5000000133788447  0.7500000352335690  0.2973254543071064   F   F   F
  0.0833330000000032  0.1666669999999968  0.3927984241947584   F   F   F
  0.0833330000000032  0.4166669999999968  0.3927984241947584   F   F   F
  0.0833330000000032  0.6666669999999968  0.3927984241947584   F   F   F
  0.0833330000000032  0.9166669999999968  0.3927984241947584   F   F   F
  0.3333330000000032  0.1666669999999968  0.3927984241947584   F   F   F
  0.3333330000000032  0.4166669999999968  0.3927984241947584   F   F   F
  0.3333330000000032  0.6666669999999968  0.3927984241947584   F   F   F
  0.3333330000000032  0.9166669999999968  0.3927984241947584   F   F   F
  0.5833330000000032  0.1666669999999968  0.3927984241947584   F   F   F
  0.5833330000000032  0.4166669999999968  0.3927984241947584   F   F   F
  0.5833330000000032  0.6666669999999968  0.3927984241947584   F   F   F
  0.5833330000000032  0.9166669999999968  0.3927984241947584   F   F   F
  0.8333330000000032  0.1666669999999968  0.3927984241947584   F   F   F
  0.8333330000000032  0.4166669999999968  0.3927984241947584   F   F   F
  0.8333330000000032  0.6666669999999968  0.3927984241947584   F   F   F
  0.8333330000000032  0.9166669999999968  0.3927984241947584   F   F   F
  0.2499864061095302  0.2500192315871007  0.5816146416436254   T   T   T
  0.2499440912708941  0.4999394111286611  0.5816050556814069   T   T   T
  0.2513607612656789  0.7499947709677399  0.5832666586202656   T   T   T
  0.2513951550020870  0.0013521055422016  0.5832721414345206   T   T   T
  0.5013991582543235  0.2513906825028824  0.5832089309786498   T   T   T
  0.5000115558993835  0.4999732504612570  0.5814617694508298   T   T   T
  0.5000348750562186  0.7500775384081436  0.5816119149819687   T   T   T
  0.5007952523181413  0.0014262560288411  0.5832314087302012   T   T   T
  0.7487401356896782  0.2487358227098859  0.5832098168082174   T   T   T
  0.7511964870714157  0.5012099845891094  0.5831857732231727   T   T   T
  0.7500423467255762  0.7500186540129641  0.5814608163775131   T   T   T
  0.7498797650509544 -0.0012936457238786  0.5831782189180706   T   T   T
 -0.0013734141620014  0.2499236433644505  0.5832073245319589   T   T   T
 -0.0000147331119103  0.4999827618008240  0.5816130507893055   T   T   T
  0.0001663975082391  0.7500928522342261  0.5816256427663605   T   T   T
  0.0000784514387466  0.0000732468834006  0.5816165722623164   T   T   T
  0.1667256791303431  0.0832421627993051  0.4863701755378746   T   T   T
  0.1665390918129857  0.3332731505449300  0.4863975316223785   T   T   T
  0.1667344548659840  0.5834223299081548  0.4863708239557861   T   T   T
  0.1681166580646709  0.8336462997551742  0.4878542319092452   T   T   T
  0.4167630530893272  0.0834239350928607  0.4864623215478677   T   T   T
  0.4167213377344749  0.3332576306339032  0.4863707720284781   T   T   T
  0.4166549234037297  0.5833317264609041  0.4863240965611806   T   T   T
  0.4167451676617073  0.8334677040275655  0.4864159495900083   T   T   T
  0.6666885754680046  0.0833165437380118  0.4864618444008362   T   T   T
  0.6667063072102759  0.3333394686260167  0.4864681447660345   T   T   T
  0.6667357687270892  0.5832770926945251  0.4863523151723570   T   T   T
  0.6667286595371869  0.8334679592755637  0.4863473666963207   T   T   T
  0.9166274656987915  0.0834155694920558  0.4864199904111089   T   T   T
  0.9165877006114359  0.3332238843324214  0.4864287146627800   T   T   T
  0.9166552029657533  0.5833374927162711  0.4863609494032992   T   T   T
  0.9167964967031325  0.8333805678666936  0.4863040996736454   T   T   T
  0.4940468352631393  0.5627291796489708  0.7076487131870480   T   T   T
  0.5627140680687303  0.4940571614301786  0.7079599869789003   T   T   T
  0.7536332282061253  0.6850523573383347  0.7079869625856721   T   T   T
  0.6850018028813566  0.7536770626992619  0.7078295972074091   T   T   T
  0.6915222554503740  0.5561751327980723  0.7084826394624627   T   T   T
  0.5560995107574844  0.6915518881368203  0.7080539394928231   T   T   T
  0.7491216099506455  0.8850203513858080  0.7080818811804866   T   T   T
  0.8849553561232889  0.7492370050363487  0.7082746202716794   T   T   T
  0.3627112947421185  0.4985201661659791  0.7077435208355962   T   T   T
  0.4985256647800901  0.3627569421112016  0.7085271085925965   T   T   T
 
  0.00000000E+00  0.00000000E+00  0.00000000E+00
  0.00000000E+00  0.00000000E+00  0.00000000E+00
  0.00000000E+00  0.00000000E+00  0.00000000E+00
  0.00000000E+00  0.00000000E+00  0.00000000E+00
  0.00000000E+00  0.00000000E+00  0.00000000E+00
  0.00000000E+00  0.00000000E+00  0.00000000E+00
  0.00000000E+00  0.00000000E+00  0.00000000E+00
  0.00000000E+00  0.00000000E+00  0.00000000E+00
  0.00000000E+00  0.00000000E+00  0.00000000E+00
  0.00000000E+00  0.00000000E+00  0.00000000E+00
  0.00000000E+00  0.00000000E+00  0.00000000E+00
  0.00000000E+00  0.00000000E+00  0.00000000E+00
  0.00000000E+00  0.00000000E+00  0.00000000E+00
  0.00000000E+00  0.00000000E+00  0.00000000E+00
  0.00000000E+00  0.00000000E+00  0.00000000E+00
  0.00000000E+00  0.00000000E+00  0.00000000E+00
  0.00000000E+00  0.00000000E+00  0.00000000E+00
  0.00000000E+00  0.00000000E+00  0.00000000E+00
  0.00000000E+00  0.00000000E+00  0.00000000E+00
  0.00000000E+00  0.00000000E+00  0.00000000E+00
  0.00000000E+00  0.00000000E+00  0.00000000E+00
  0.00000000E+00  0.00000000E+00  0.00000000E+00
  0.00000000E+00  0.00000000E+00  0.00000000E+00
  0.00000000E+00  0.00000000E+00  0.00000000E+00
  0.00000000E+00  0.00000000E+00  0.00000000E+00
  0.00000000E+00  0.00000000E+00  0.00000000E+00
  0.00000000E+00  0.00000000E+00  0.00000000E+00
  0.00000000E+00  0.00000000E+00  0.00000000E+00
  0.00000000E+00  0.00000000E+00  0.00000000E+00
  0.00000000E+00  0.00000000E+00  0.00000000E+00
  0.00000000E+00  0.00000000E+00  0.00000000E+00
  0.00000000E+00  0.00000000E+00  0.00000000E+00
  0.00000000E+00  0.00000000E+00  0.00000000E+00
  0.00000000E+00  0.00000000E+00  0.00000000E+00
  0.00000000E+00  0.00000000E+00  0.00000000E+00
  0.00000000E+00  0.00000000E+00  0.00000000E+00
  0.00000000E+00  0.00000000E+00  0.00000000E+00
  0.00000000E+00  0.00000000E+00  0.00000000E+00
  0.00000000E+00  0.00000000E+00  0.00000000E+00
  0.00000000E+00  0.00000000E+00  0.00000000E+00
  0.00000000E+00  0.00000000E+00  0.00000000E+00
  0.00000000E+00  0.00000000E+00  0.00000000E+00
  0.00000000E+00  0.00000000E+00  0.00000000E+00
  0.00000000E+00  0.00000000E+00  0.00000000E+00
  0.00000000E+00  0.00000000E+00  0.00000000E+00
  0.00000000E+00  0.00000000E+00  0.00000000E+00
  0.00000000E+00  0.00000000E+00  0.00000000E+00
  0.00000000E+00  0.00000000E+00  0.00000000E+00
  0.00000000E+00  0.00000000E+00  0.00000000E+00
  0.00000000E+00  0.00000000E+00  0.00000000E+00
  0.00000000E+00  0.00000000E+00  0.00000000E+00
  0.00000000E+00  0.00000000E+00  0.00000000E+00
  0.00000000E+00  0.00000000E+00  0.00000000E+00
  0.00000000E+00  0.00000000E+00  0.00000000E+00
  0.00000000E+00  0.00000000E+00  0.00000000E+00
  0.00000000E+00  0.00000000E+00  0.00000000E+00
  0.00000000E+00  0.00000000E+00  0.00000000E+00
  0.00000000E+00  0.00000000E+00  0.00000000E+00
  0.00000000E+00  0.00000000E+00  0.00000000E+00
  0.00000000E+00  0.00000000E+00  0.00000000E+00
  0.00000000E+00  0.00000000E+00  0.00000000E+00
  0.00000000E+00  0.00000000E+00  0.00000000E+00
  0.00000000E+00  0.00000000E+00  0.00000000E+00
  0.00000000E+00  0.00000000E+00  0.00000000E+00
  0.00000000E+00  0.00000000E+00  0.00000000E+00
  0.00000000E+00  0.00000000E+00  0.00000000E+00
  0.00000000E+00  0.00000000E+00  0.00000000E+00
  0.00000000E+00  0.00000000E+00  0.00000000E+00
  0.00000000E+00  0.00000000E+00  0.00000000E+00
  0.00000000E+00  0.00000000E+00  0.00000000E+00
  0.00000000E+00  0.00000000E+00  0.00000000E+00
  0.00000000E+00  0.00000000E+00  0.00000000E+00
  0.00000000E+00  0.00000000E+00  0.00000000E+00
  0.00000000E+00  0.00000000E+00  0.00000000E+00
