Pt  C  H  F                             
   1.00000000000000     
    11.2480069999999994    0.0000000000000000    0.0000000000000000
    -5.6240030000000001    9.7410599999999992    0.0000000000000000
     0.0000000000000000    0.0000000000000000   24.8879693399999979
   Pt   C    H    F 
    64     6     4     2
Selective dynamics
Direct
  0.9999999587182344  0.7499999743354451  0.3013504194553178   F   F   F
  0.2499999964438118  0.0000000000000000  0.3013504194553178   F   F   F
  0.2499999825579735  0.2499999917873410  0.3013504194553178   F   F   F
  0.2499999690478916  0.4999999825481041  0.3013504194553178   F   F   F
  0.2499999551620533  0.7499999743354451  0.3013504194553178   F   F   F
  0.4999999928876306  0.0000000000000000  0.3013504194553178   F   F   F
  0.4999999790017924  0.2499999917873410  0.3013504194553178   F   F   F
  0.4999999654917033  0.4999999825481041  0.3013504194553178   F   F   F
  0.7499999893314424  0.0000000000000000  0.3013504194553178   F   F   F
  0.7499999754456042  0.2499999917873410  0.3013504194553178   F   F   F
  0.7499999619355222  0.4999999825481041  0.3013504194553178   F   F   F
  0.7499999480496840  0.7499999743354451  0.3013504194553178   F   F   F
  0.0000000000000000  0.0000000000000000  0.3013504194553178   F   F   F
  0.9999999861141617  0.2499999917873410  0.3013504194553178   F   F   F
  0.9999999583793340  0.4999999825481041  0.3013504194553178   F   F   F
  0.4999999516058651  0.7499999743354451  0.3013504194553178   F   F   F
  0.0833330000000032  0.1666669999999968  0.3936034172243978   F   F   F
  0.0833330000000032  0.4166669999999968  0.3936034172243978   F   F   F
  0.0833330000000032  0.6666669999999968  0.3936034172243978   F   F   F
  0.0833330000000032  0.9166669999999968  0.3936034172243978   F   F   F
  0.3333330000000032  0.1666669999999968  0.3936034172243978   F   F   F
  0.3333330000000032  0.4166669999999968  0.3936034172243978   F   F   F
  0.3333330000000032  0.6666669999999968  0.3936034172243978   F   F   F
  0.3333330000000032  0.9166669999999968  0.3936034172243978   F   F   F
  0.5833330000000032  0.1666669999999968  0.3936034172243978   F   F   F
  0.5833330000000032  0.4166669999999968  0.3936034172243978   F   F   F
  0.5833330000000032  0.6666669999999968  0.3936034172243978   F   F   F
  0.5833330000000032  0.9166669999999968  0.3936034172243978   F   F   F
  0.8333330000000032  0.1666669999999968  0.3936034172243978   F   F   F
  0.8333330000000032  0.4166669999999968  0.3936034172243978   F   F   F
  0.8333330000000032  0.6666669999999968  0.3936034172243978   F   F   F
  0.8333330000000032  0.9166669999999968  0.3936034172243978   F   F   F
  0.2496560292273895  0.2497629288690756  0.5788372227999454   T   T   T
  0.2495968114465431  0.4999340974369135  0.5785362395601988   T   T   T
  0.2499764419261732  0.7500463232186466  0.5782576056456981   T   T   T
  0.2499296727391902  0.0000595459597416  0.5787461927719523   T   T   T
  0.4999772705955979  0.2499701677236998  0.5785397022255709   T   T   T
  0.4989182182174597  0.4993468805028727  0.5789144657753925   T   T   T
  0.4998479206258476  0.7501376387260813  0.5775334739419473   T   T   T
  0.4999423303255398  0.0000134235222326  0.5782655635492829   T   T   T
  0.7498791223200829  0.2500361883184773  0.5782651671594811   T   T   T
  0.7500355953203838  0.4999565475775261  0.5774605109607669   T   T   T
  0.7506343876468941  0.7510570148304851  0.5789238256975604   T   T   T
  0.7500573385510342  0.0003891214691413  0.5785554010882554   T   T   T
  0.9999185156588224  0.2500736979351533  0.5786869904310235   T   T   T
 -0.0000381871568162  0.5001263185046779  0.5782627166812274   T   T   T
  0.0000242877615239  0.7500101555011959  0.5785477307404855   T   T   T
  0.0002244390358649  0.0003269485710993  0.5788547443973842   T   T   T
  0.1666081181494597  0.0833774612581276  0.4854606169101396   T   T   T
  0.1665448561592152  0.3331691683123725  0.4854812324182822   T   T   T
  0.1668790901303187  0.5834732817489544  0.4852659944905945   T   T   T
  0.1666726007796956  0.8336698206474737  0.4853751698485901   T   T   T
  0.4163339877510653  0.0833254575241988  0.4853766872406119   T   T   T
  0.4167601009874004  0.3335669318049760  0.4854525558175400   T   T   T
  0.4164775417358801  0.5829063549942926  0.4852401383608164   T   T   T
  0.4165511666569374  0.8334449454887269  0.4849974254214506   T   T   T
  0.6665226726177850  0.0831103562351691  0.4852725760634323   T   T   T
  0.6663603662230787  0.3329506203609424  0.4850557847814522   T   T   T
  0.6664296900482066  0.5835696551529135  0.4854280417678835   T   T   T
  0.6670893688484857  0.8335214095706853  0.4852445631951874   T   T   T
  0.9168177104255326  0.0834390060048387  0.4854853665034464   T   T   T
  0.9166326990507871  0.3333687597674022  0.4853537468888170   T   T   T
  0.9170501989974980  0.5836467711698800  0.4850551894761248   T   T   T
  0.9164266370922387  0.8332293589633698  0.4854571374848756   T   T   T
  0.6965145104134248  0.5528292935294823  0.7017403135689220   T   T   T
  0.5536918006259234  0.4788545396006612  0.6996688190232456   T   T   T
  0.4816066297751343  0.5508650653894097  0.6995361393176913   T   T   T
  0.5556866231113806  0.6937317245406110  0.7015834892320364   T   T   T
  0.6985758443035149  0.7677270757255416  0.6995543855899902   T   T   T
  0.7705779866718215  0.6956623624368600  0.6996675985451344   T   T   T
  0.4995212380498656  0.3669292263058074  0.6989619622066249   T   T   T
  0.3696971030995813  0.4966400544705512  0.6988598213953214   T   T   T
  0.7527948214901092  0.8796403009895120  0.6988971469757677   T   T   T
  0.8825103576661107  0.7498059052709123  0.6989987747401533   T   T   T
  0.7661528546364047  0.4831283678183599  0.7057492622891973   T   T   T
  0.4860465350159620  0.7634940034438277  0.7055099295252821   T   T   T
 
  0.00000000E+00  0.00000000E+00  0.00000000E+00
  0.00000000E+00  0.00000000E+00  0.00000000E+00
  0.00000000E+00  0.00000000E+00  0.00000000E+00
  0.00000000E+00  0.00000000E+00  0.00000000E+00
  0.00000000E+00  0.00000000E+00  0.00000000E+00
  0.00000000E+00  0.00000000E+00  0.00000000E+00
  0.00000000E+00  0.00000000E+00  0.00000000E+00
  0.00000000E+00  0.00000000E+00  0.00000000E+00
  0.00000000E+00  0.00000000E+00  0.00000000E+00
  0.00000000E+00  0.00000000E+00  0.00000000E+00
  0.00000000E+00  0.00000000E+00  0.00000000E+00
  0.00000000E+00  0.00000000E+00  0.00000000E+00
  0.00000000E+00  0.00000000E+00  0.00000000E+00
  0.00000000E+00  0.00000000E+00  0.00000000E+00
  0.00000000E+00  0.00000000E+00  0.00000000E+00
  0.00000000E+00  0.00000000E+00  0.00000000E+00
  0.00000000E+00  0.00000000E+00  0.00000000E+00
  0.00000000E+00  0.00000000E+00  0.00000000E+00
  0.00000000E+00  0.00000000E+00  0.00000000E+00
  0.00000000E+00  0.00000000E+00  0.00000000E+00
  0.00000000E+00  0.00000000E+00  0.00000000E+00
  0.00000000E+00  0.00000000E+00  0.00000000E+00
  0.00000000E+00  0.00000000E+00  0.00000000E+00
  0.00000000E+00  0.00000000E+00  0.00000000E+00
  0.00000000E+00  0.00000000E+00  0.00000000E+00
  0.00000000E+00  0.00000000E+00  0.00000000E+00
  0.00000000E+00  0.00000000E+00  0.00000000E+00
  0.00000000E+00  0.00000000E+00  0.00000000E+00
  0.00000000E+00  0.00000000E+00  0.00000000E+00
  0.00000000E+00  0.00000000E+00  0.00000000E+00
  0.00000000E+00  0.00000000E+00  0.00000000E+00
  0.00000000E+00  0.00000000E+00  0.00000000E+00
  0.00000000E+00  0.00000000E+00  0.00000000E+00
  0.00000000E+00  0.00000000E+00  0.00000000E+00
  0.00000000E+00  0.00000000E+00  0.00000000E+00
  0.00000000E+00  0.00000000E+00  0.00000000E+00
  0.00000000E+00  0.00000000E+00  0.00000000E+00
  0.00000000E+00  0.00000000E+00  0.00000000E+00
  0.00000000E+00  0.00000000E+00  0.00000000E+00
  0.00000000E+00  0.00000000E+00  0.00000000E+00
  0.00000000E+00  0.00000000E+00  0.00000000E+00
  0.00000000E+00  0.00000000E+00  0.00000000E+00
  0.00000000E+00  0.00000000E+00  0.00000000E+00
  0.00000000E+00  0.00000000E+00  0.00000000E+00
  0.00000000E+00  0.00000000E+00  0.00000000E+00
  0.00000000E+00  0.00000000E+00  0.00000000E+00
  0.00000000E+00  0.00000000E+00  0.00000000E+00
  0.00000000E+00  0.00000000E+00  0.00000000E+00
  0.00000000E+00  0.00000000E+00  0.00000000E+00
  0.00000000E+00  0.00000000E+00  0.00000000E+00
  0.00000000E+00  0.00000000E+00  0.00000000E+00
  0.00000000E+00  0.00000000E+00  0.00000000E+00
  0.00000000E+00  0.00000000E+00  0.00000000E+00
  0.00000000E+00  0.00000000E+00  0.00000000E+00
  0.00000000E+00  0.00000000E+00  0.00000000E+00
  0.00000000E+00  0.00000000E+00  0.00000000E+00
  0.00000000E+00  0.00000000E+00  0.00000000E+00
  0.00000000E+00  0.00000000E+00  0.00000000E+00
  0.00000000E+00  0.00000000E+00  0.00000000E+00
  0.00000000E+00  0.00000000E+00  0.00000000E+00
  0.00000000E+00  0.00000000E+00  0.00000000E+00
  0.00000000E+00  0.00000000E+00  0.00000000E+00
  0.00000000E+00  0.00000000E+00  0.00000000E+00
  0.00000000E+00  0.00000000E+00  0.00000000E+00
  0.00000000E+00  0.00000000E+00  0.00000000E+00
  0.00000000E+00  0.00000000E+00  0.00000000E+00
  0.00000000E+00  0.00000000E+00  0.00000000E+00
  0.00000000E+00  0.00000000E+00  0.00000000E+00
  0.00000000E+00  0.00000000E+00  0.00000000E+00
  0.00000000E+00  0.00000000E+00  0.00000000E+00
  0.00000000E+00  0.00000000E+00  0.00000000E+00
  0.00000000E+00  0.00000000E+00  0.00000000E+00
  0.00000000E+00  0.00000000E+00  0.00000000E+00
  0.00000000E+00  0.00000000E+00  0.00000000E+00
  0.00000000E+00  0.00000000E+00  0.00000000E+00
  0.00000000E+00  0.00000000E+00  0.00000000E+00
