Rh48 C4 N2 Br4                          
    1.000000000000000     
    10.8856652999999994    0.0000000000000000    0.0000000000000000
     0.0000000000000000   10.8856652999999994    0.0000000000000000
     0.0000000000000000    0.0000000000000000   16.5533157799999984
   Rh   C    N    Br
    48     4     2     4
Selective dynamics
Direct
  0.0000027248155945  0.9999999357689191  0.4086872834092006   T   T   T
  0.9980381982540365  0.2514320616825358  0.4099263352051921   T   T   T
  0.0000005716485987  0.5000066039912312  0.4102678066236791   T   T   T
  0.0019611358479921  0.7485607419939626  0.4099284377451653   T   T   T
  0.2514385424297743  0.9980368126237522  0.4099303462656820   T   T   T
  0.2493911386163674  0.2493859534773080  0.4089145303438499   T   T   T
  0.2490894747950065  0.4999481761156730  0.4086798607673572   T   T   T
  0.2515838069602978  0.7484166292459093  0.4104665231612330   T   T   T
  0.4999978235559794  0.9999968320022106  0.4102689677538223   T   T   T
  0.4999401025934276  0.2490824723036980  0.4086823240706181   T   T   T
  0.4999951242944718  0.5000050829613301  0.4078019019290764   T   T   T
  0.5000536268057729  0.7509130710496166  0.4086766464908749   T   T   T
  0.7485633879341265  0.0019601723574922  0.4099285232861334   T   T   T
  0.7484204105787597  0.2515791958969373  0.4104692052559571   T   T   T
  0.7509136984856539  0.5000601710470391  0.4086819997893372   T   T   T
  0.7506086263737259  0.7506077466218954  0.4089128478289581   T   T   T
  0.1240991767485582  0.1241000908363432  0.5161300124345587   T   T   T
  0.1241931172753823  0.3724228081149832  0.5171698248320737   T   T   T
  0.1256577850978502  0.6252064924776519  0.5211691405385821   T   T   T
  0.1242555516310304  0.8757370599715415  0.5172975153547199   T   T   T
  0.3724153888335096  0.1241937247398965  0.5171711486757289   T   T   T
  0.3710200254876739  0.3710253674011312  0.5158407339390862   T   T   T
  0.3778232179594099  0.6221763527392952  0.5217220272413670   T   T   T
  0.3747935893408467  0.8743385661306675  0.5211649076257601   T   T   T
  0.6252078411779536  0.1256597775928157  0.5211748837177765   T   T   T
  0.6221766770390005  0.3778219288414064  0.5217214018504919   T   T   T
  0.6289875792295803  0.6289816708017071  0.5158431568073993   T   T   T
  0.6275840480276571  0.8758026312909166  0.5171786341638906   T   T   T
  0.8757426097774470  0.1242600985387483  0.5173030320381855   T   T   T
  0.8743411477612213  0.3747965283747590  0.5211726820510520   T   T   T
  0.8758067145586068  0.6275803605010637  0.5171784070622607   T   T   T
  0.8759006724887399  0.8758923877233968  0.5161269153154464   T   T   T
  0.1249999997703384  0.1249999997703384  0.3020542872770591   F   F   F
  0.1250000006889778  0.3750000002296616  0.3020542872770591   F   F   F
  0.1250000006889778  0.6250000006889778  0.3020542872770591   F   F   F
  0.1250000006889778  0.8750000011483010  0.3020542872770591   F   F   F
  0.3750000011483010  0.1249999997703384  0.3020542872770591   F   F   F
  0.3750000011483010  0.3750000002296616  0.3020542872770591   F   F   F
  0.3750000011483010  0.6250000006889778  0.3020542872770591   F   F   F
  0.3750000011483010  0.8750000011483010  0.3020542872770591   F   F   F
  0.6250000006889778  0.1249999997703384  0.3020542872770591   F   F   F
  0.6250000006889778  0.3750000002296616  0.3020542872770591   F   F   F
  0.6250000016076172  0.6250000006889778  0.3020542872770591   F   F   F
  0.6250000016076172  0.8750000011483010  0.3020542872770591   F   F   F
  0.8750000011483010  0.1249999997703384  0.3020542872770591   F   F   F
  0.8750000011483010  0.3750000002296616  0.3020542872770591   F   F   F
  0.8750000011483010  0.6250000006889778  0.3020542872770591   F   F   F
  0.8750000020669404  0.8750000011483010  0.3020542872770591   F   F   F
  0.4698644906150449  0.6239666140304507  0.6345705838068909   T   T   T
  0.3760360944094927  0.5301673795844337  0.6345780216552299   T   T   T
  0.5301489807883044  0.3760430095758522  0.6345694129134216   T   T   T
  0.6239567546755254  0.4698239857609678  0.6345762649870679   T   T   T
  0.4068504496056420  0.4068770980932470  0.6364638315991371   T   T   T
  0.5931347502204218  0.5931421426458172  0.6364655903612970   T   T   T
  0.8010252815807348  0.4383538934532538  0.6677419624784449   T   T   T
  0.5615819738738139  0.1989436910168081  0.6677335231177537   T   T   T
  0.4384164625715030  0.8010638183972247  0.6677291211051184   T   T   T
  0.1989753618209988  0.5616482302971448  0.6677429801869721   T   T   T
 
  0.00000000E+00  0.00000000E+00  0.00000000E+00
  0.00000000E+00  0.00000000E+00  0.00000000E+00
  0.00000000E+00  0.00000000E+00  0.00000000E+00
  0.00000000E+00  0.00000000E+00  0.00000000E+00
  0.00000000E+00  0.00000000E+00  0.00000000E+00
  0.00000000E+00  0.00000000E+00  0.00000000E+00
  0.00000000E+00  0.00000000E+00  0.00000000E+00
  0.00000000E+00  0.00000000E+00  0.00000000E+00
  0.00000000E+00  0.00000000E+00  0.00000000E+00
  0.00000000E+00  0.00000000E+00  0.00000000E+00
  0.00000000E+00  0.00000000E+00  0.00000000E+00
  0.00000000E+00  0.00000000E+00  0.00000000E+00
  0.00000000E+00  0.00000000E+00  0.00000000E+00
  0.00000000E+00  0.00000000E+00  0.00000000E+00
  0.00000000E+00  0.00000000E+00  0.00000000E+00
  0.00000000E+00  0.00000000E+00  0.00000000E+00
  0.00000000E+00  0.00000000E+00  0.00000000E+00
  0.00000000E+00  0.00000000E+00  0.00000000E+00
  0.00000000E+00  0.00000000E+00  0.00000000E+00
  0.00000000E+00  0.00000000E+00  0.00000000E+00
  0.00000000E+00  0.00000000E+00  0.00000000E+00
  0.00000000E+00  0.00000000E+00  0.00000000E+00
  0.00000000E+00  0.00000000E+00  0.00000000E+00
  0.00000000E+00  0.00000000E+00  0.00000000E+00
  0.00000000E+00  0.00000000E+00  0.00000000E+00
  0.00000000E+00  0.00000000E+00  0.00000000E+00
  0.00000000E+00  0.00000000E+00  0.00000000E+00
  0.00000000E+00  0.00000000E+00  0.00000000E+00
  0.00000000E+00  0.00000000E+00  0.00000000E+00
  0.00000000E+00  0.00000000E+00  0.00000000E+00
  0.00000000E+00  0.00000000E+00  0.00000000E+00
  0.00000000E+00  0.00000000E+00  0.00000000E+00
  0.00000000E+00  0.00000000E+00  0.00000000E+00
  0.00000000E+00  0.00000000E+00  0.00000000E+00
  0.00000000E+00  0.00000000E+00  0.00000000E+00
  0.00000000E+00  0.00000000E+00  0.00000000E+00
  0.00000000E+00  0.00000000E+00  0.00000000E+00
  0.00000000E+00  0.00000000E+00  0.00000000E+00
  0.00000000E+00  0.00000000E+00  0.00000000E+00
  0.00000000E+00  0.00000000E+00  0.00000000E+00
  0.00000000E+00  0.00000000E+00  0.00000000E+00
  0.00000000E+00  0.00000000E+00  0.00000000E+00
  0.00000000E+00  0.00000000E+00  0.00000000E+00
  0.00000000E+00  0.00000000E+00  0.00000000E+00
  0.00000000E+00  0.00000000E+00  0.00000000E+00
  0.00000000E+00  0.00000000E+00  0.00000000E+00
  0.00000000E+00  0.00000000E+00  0.00000000E+00
  0.00000000E+00  0.00000000E+00  0.00000000E+00
  0.00000000E+00  0.00000000E+00  0.00000000E+00
  0.00000000E+00  0.00000000E+00  0.00000000E+00
  0.00000000E+00  0.00000000E+00  0.00000000E+00
  0.00000000E+00  0.00000000E+00  0.00000000E+00
  0.00000000E+00  0.00000000E+00  0.00000000E+00
  0.00000000E+00  0.00000000E+00  0.00000000E+00
  0.00000000E+00  0.00000000E+00  0.00000000E+00
  0.00000000E+00  0.00000000E+00  0.00000000E+00
  0.00000000E+00  0.00000000E+00  0.00000000E+00
  0.00000000E+00  0.00000000E+00  0.00000000E+00
