Ir48 C6 Br6                             
    1.000000000000000     
    10.9622130000000002    0.0000000000000000    0.0000000000000000
    -5.4811069999999997    9.4935550000000006    0.0000000000000000
     0.0000000000000000    0.0000000000000000   17.4767089999999996
   Ir   C    Br
    48     6     6
Selective dynamics
Direct
  0.0833330000000032  0.1666669999999968  0.3433139999999995   F   F   F
  0.0833330000000032  0.4166669999999968  0.3433139999999995   F   F   F
  0.0833330000000032  0.6666669999999968  0.3433139999999995   F   F   F
  0.0833330000000032  0.9166669999999968  0.3433139999999995   F   F   F
  0.3333330000000032  0.1666669999999968  0.3433139999999995   F   F   F
  0.3333330000000032  0.4166669999999968  0.3433139999999995   F   F   F
  0.3333330000000032  0.6666669999999968  0.3433139999999995   F   F   F
  0.3333330000000032  0.9166669999999968  0.3433139999999995   F   F   F
  0.5833330000000032  0.1666669999999968  0.3433139999999995   F   F   F
  0.5833330000000032  0.4166669999999968  0.3433139999999995   F   F   F
  0.5833330000000032  0.6666669999999968  0.3433139999999995   F   F   F
  0.5833330000000032  0.9166669999999968  0.3433139999999995   F   F   F
  0.8333330000000032  0.1666669999999968  0.3433139999999995   F   F   F
  0.8333330000000032  0.4166669999999968  0.3433139999999995   F   F   F
  0.8333330000000032  0.6666669999999968  0.3433139999999995   F   F   F
  0.8333330000000032  0.9166669999999968  0.3433139999999995   F   F   F
  0.9997261446664467  0.9997192846276803  0.5939299751770406   T   T   T
  0.0000077893727024  0.2502867845614460  0.5948196974578934   T   T   T
  0.9997812573672817  0.5002530215947019  0.5940724411615861   T   T   T
  0.9998540128383766  0.7501621174098290  0.5940428128095547   T   T   T
  0.2498507397262202  0.0000739897785422  0.5948141104273077   T   T   T
  0.2508589635625071  0.2507493772421867  0.5933556132508215   T   T   T
  0.2497736314196217  0.5002352495654847  0.5935984565783627   T   T   T
  0.2497592612186494  0.7502342845696788  0.5940723431222636   T   T   T
  0.5004750205213639  0.0002799971980778  0.5942119883877339   T   T   T
  0.4999195762702442  0.2500865237882692  0.5935270540058042   T   T   T
  0.4992537247887370  0.4991444938447742  0.5933596781615265   T   T   T
  0.4997223218029276  0.7499982037667579  0.5948239615941873   T   T   T
  0.7497598328371566  0.0002473590433070  0.5938724541850320   T   T   T
  0.7497325976335389  0.2495346889612264  0.5942077512562278   T   T   T
  0.7499346037816608  0.5001546910634289  0.5948223899240048   T   T   T
  0.7502961250253790  0.7502956481597209  0.5939382275671079   T   T   T
  0.1665927312158573  0.0833395816055926  0.4686254799174989   T   T   T
  0.1664049184830390  0.3333007835722910  0.4686364345994818   T   T   T
  0.1664990066101026  0.5835142032599023  0.4682900753131918   T   T   T
  0.1666442326903592  0.8334367965595533  0.4686753058180955   T   T   T
  0.4162478558335749  0.0829655255137354  0.4687002061779637   T   T   T
  0.4168021695132609  0.3332105933668785  0.4679128427835195   T   T   T
  0.4167121946420451  0.5836078618512772  0.4686375380215821   T   T   T
  0.4167023379033097  0.8333355339636910  0.4690531365748072   T   T   T
  0.6665863825256864  0.0834200059196633  0.4684813547484197   T   T   T
  0.6670372677587366  0.3337570548449307  0.4687005219620559   T   T   T
  0.6666717781831792  0.5834213790519414  0.4686290746170485   T   T   T
  0.6666282668271108  0.8333399423281946  0.4686002106483684   T   T   T
  0.9166636371835608  0.0833753893920957  0.4685963107258857   T   T   T
  0.9166771019834243  0.3333092074676216  0.4690534671051978   T   T   T
  0.9165714120729689  0.5833674607107611  0.4686792576619681   T   T   T
  0.9165750002914450  0.8334305812520668  0.4684922240227181   T   T   T
  0.3005854198737694  0.2262829814687350  0.7826441368118466   T   T   T
  0.2264480966191442  0.3005230363861386  0.7819424569691478   T   T   T
  0.3005607434804247  0.4486773184374684  0.7836947752049710   T   T   T
  0.4486700999299913  0.5226906863052960  0.7819825740111241   T   T   T
  0.5228511469566115  0.4485212629947171  0.7826736600680988   T   T   T
  0.4486696107715957  0.3004293908039983  0.7850722098666481   T   T   T
  0.2023282040514260  0.0276053527727456  0.7792678933653363   T   T   T
  0.0276679761917578  0.2023421566096246  0.7779137963778098   T   T   T
  0.2014223785760691  0.5478770405645577  0.7872894031998925   T   T   T
  0.5469179636492782  0.7215124566310038  0.7780820139185067   T   T   T
  0.7215648865579567  0.5466900120160929  0.7793675526090169   T   T   T
  0.5477043987439316  0.2012860812425785  0.7909686215342404   T   T   T
 
  0.00000000E+00  0.00000000E+00  0.00000000E+00
  0.00000000E+00  0.00000000E+00  0.00000000E+00
  0.00000000E+00  0.00000000E+00  0.00000000E+00
  0.00000000E+00  0.00000000E+00  0.00000000E+00
  0.00000000E+00  0.00000000E+00  0.00000000E+00
  0.00000000E+00  0.00000000E+00  0.00000000E+00
  0.00000000E+00  0.00000000E+00  0.00000000E+00
  0.00000000E+00  0.00000000E+00  0.00000000E+00
  0.00000000E+00  0.00000000E+00  0.00000000E+00
  0.00000000E+00  0.00000000E+00  0.00000000E+00
  0.00000000E+00  0.00000000E+00  0.00000000E+00
  0.00000000E+00  0.00000000E+00  0.00000000E+00
  0.00000000E+00  0.00000000E+00  0.00000000E+00
  0.00000000E+00  0.00000000E+00  0.00000000E+00
  0.00000000E+00  0.00000000E+00  0.00000000E+00
  0.00000000E+00  0.00000000E+00  0.00000000E+00
  0.00000000E+00  0.00000000E+00  0.00000000E+00
  0.00000000E+00  0.00000000E+00  0.00000000E+00
  0.00000000E+00  0.00000000E+00  0.00000000E+00
  0.00000000E+00  0.00000000E+00  0.00000000E+00
  0.00000000E+00  0.00000000E+00  0.00000000E+00
  0.00000000E+00  0.00000000E+00  0.00000000E+00
  0.00000000E+00  0.00000000E+00  0.00000000E+00
  0.00000000E+00  0.00000000E+00  0.00000000E+00
  0.00000000E+00  0.00000000E+00  0.00000000E+00
  0.00000000E+00  0.00000000E+00  0.00000000E+00
  0.00000000E+00  0.00000000E+00  0.00000000E+00
  0.00000000E+00  0.00000000E+00  0.00000000E+00
  0.00000000E+00  0.00000000E+00  0.00000000E+00
  0.00000000E+00  0.00000000E+00  0.00000000E+00
  0.00000000E+00  0.00000000E+00  0.00000000E+00
  0.00000000E+00  0.00000000E+00  0.00000000E+00
  0.00000000E+00  0.00000000E+00  0.00000000E+00
  0.00000000E+00  0.00000000E+00  0.00000000E+00
  0.00000000E+00  0.00000000E+00  0.00000000E+00
  0.00000000E+00  0.00000000E+00  0.00000000E+00
  0.00000000E+00  0.00000000E+00  0.00000000E+00
  0.00000000E+00  0.00000000E+00  0.00000000E+00
  0.00000000E+00  0.00000000E+00  0.00000000E+00
  0.00000000E+00  0.00000000E+00  0.00000000E+00
  0.00000000E+00  0.00000000E+00  0.00000000E+00
  0.00000000E+00  0.00000000E+00  0.00000000E+00
  0.00000000E+00  0.00000000E+00  0.00000000E+00
  0.00000000E+00  0.00000000E+00  0.00000000E+00
  0.00000000E+00  0.00000000E+00  0.00000000E+00
  0.00000000E+00  0.00000000E+00  0.00000000E+00
  0.00000000E+00  0.00000000E+00  0.00000000E+00
  0.00000000E+00  0.00000000E+00  0.00000000E+00
  0.00000000E+00  0.00000000E+00  0.00000000E+00
  0.00000000E+00  0.00000000E+00  0.00000000E+00
  0.00000000E+00  0.00000000E+00  0.00000000E+00
  0.00000000E+00  0.00000000E+00  0.00000000E+00
  0.00000000E+00  0.00000000E+00  0.00000000E+00
  0.00000000E+00  0.00000000E+00  0.00000000E+00
  0.00000000E+00  0.00000000E+00  0.00000000E+00
  0.00000000E+00  0.00000000E+00  0.00000000E+00
  0.00000000E+00  0.00000000E+00  0.00000000E+00
  0.00000000E+00  0.00000000E+00  0.00000000E+00
  0.00000000E+00  0.00000000E+00  0.00000000E+00
  0.00000000E+00  0.00000000E+00  0.00000000E+00
