Pd  C  F                                
   1.00000000000000     
    11.1922750000000004    0.0000000000000000    0.0000000000000000
    -5.5961369999999997    9.6927939999999992    0.0000000000000000
     0.0000000000000000    0.0000000000000000   24.8538405000000040
   Pd   C    F 
    64     6     6
Selective dynamics
Direct
  0.9999999513476965  0.0000000206338839  0.3017642283493345   F   F   F
  0.2499999873901899  0.2500000051584692  0.3017642283493345   F   F   F
  0.2499999828216346  0.5000000103169455  0.3017642283493345   F   F   F
  0.2499999773596073  0.7500000154754147  0.3017642283493345   F   F   F
  0.2499999727910591  0.0000000206338839  0.3017642283493345   F   F   F
  0.4999999802424000  0.2500000051584692  0.3017642283493345   F   F   F
  0.4999999756738518  0.5000000103169455  0.3017642283493345   F   F   F
  0.4999999702118245  0.7500000154754147  0.3017642283493345   F   F   F
  0.7499999730946101  0.2500000051584692  0.3017642283493345   F   F   F
  0.7499999685260619  0.5000000103169455  0.3017642283493345   F   F   F
  0.7499999630640346  0.7500000154754147  0.3017642283493345   F   F   F
  0.7499999584954864  0.0000000206338839  0.3017642283493345   F   F   F
  0.9999999659468273  0.2500000051584692  0.3017642283493345   F   F   F
  0.9999999613782720  0.5000000103169455  0.3017642283493345   F   F   F
  0.9999999559162518  0.7500000154754147  0.3017642283493345   F   F   F
  0.4999999656432692  0.0000000206338839  0.3017642283493345   F   F   F
  0.0833330000000032  0.1666669999999968  0.3936861790032040   F   F   F
  0.0833330000000032  0.4166669999999968  0.3936861790032040   F   F   F
  0.0833330000000032  0.6666669999999968  0.3936861790032040   F   F   F
  0.0833330000000032  0.9166669999999968  0.3936861790032040   F   F   F
  0.3333330000000032  0.1666669999999968  0.3936861790032040   F   F   F
  0.3333330000000032  0.4166669999999968  0.3936861790032040   F   F   F
  0.3333330000000032  0.6666669999999968  0.3936861790032040   F   F   F
  0.3333330000000032  0.9166669999999968  0.3936861790032040   F   F   F
  0.5833330000000032  0.1666669999999968  0.3936861790032040   F   F   F
  0.5833330000000032  0.4166669999999968  0.3936861790032040   F   F   F
  0.5833330000000032  0.6666669999999968  0.3936861790032040   F   F   F
  0.5833330000000032  0.9166669999999968  0.3936861790032040   F   F   F
  0.8333330000000032  0.1666669999999968  0.3936861790032040   F   F   F
  0.8333330000000032  0.4166669999999968  0.3936861790032040   F   F   F
  0.8333330000000032  0.6666669999999968  0.3936861790032040   F   F   F
  0.8333330000000032  0.9166669999999968  0.3936861790032040   F   F   F
  0.2461931810164162  0.9936320360569607  0.5737412628576488   T   T   T
  0.2534512136635625  0.2517508268596040  0.5833276524870173   T   T   T
  0.2461887181174423  0.5025939304404790  0.5737599130067137   T   T   T
  0.2490554317452812  0.7495301170275596  0.5754073280635960   T   T   T
  0.5001703422753087  0.9967007039058130  0.5749022195753999   T   T   T
  0.5019733936958944  0.2427158653240606  0.5809565449939722   T   T   T
  0.5019603502478607  0.5092272532955517  0.5809854946301827   T   T   T
  0.5001212112146843  0.7534802995577584  0.5748879157044408   T   T   T
  0.7514493285691314  0.0007081034376953  0.5750418690240620   T   T   T
  0.7558508436775013  0.2489394534894668  0.5739796378714190   T   T   T
  0.7496656889898100  0.4998057446124460  0.5840188145202636   T   T   T
  0.7558394620673972  0.7568931853452252  0.5739699127519250   T   T   T
  0.0018892926767062  0.0014477193880288  0.5756206807406264   T   T   T
  0.0019282378875883  0.2504430902930847  0.5756236586607295   T   T   T
 -0.0003289757422637  0.5001776984310998  0.5759980161781530   T   T   T
 -0.0003299544119511  0.7494807522853253  0.5760008409447103   T   T   T
  0.1690076471187174  0.0868174442901041  0.4852145373215192   T   T   T
  0.1690061129135038  0.3322170783743771  0.4852182571118657   T   T   T
  0.1652002691037976  0.5825509534884767  0.4832390920716180   T   T   T
  0.1652091132602565  0.8326740014618907  0.4832386390469448   T   T   T
  0.4179103306710269  0.0856232532694251  0.4847387129362826   T   T   T
  0.4180395068410633  0.3340073042822618  0.4859794643281035   T   T   T
  0.4179115418004581  0.5822934552504985  0.4847413320388824   T   T   T
  0.4155487456520150  0.8327843395335768  0.4832052148937883   T   T   T
  0.6666788995194337  0.0830741684368256  0.4833851982367618   T   T   T
  0.6653112813552751  0.3331173236310054  0.4858648725892233   T   T   T
  0.6653109078902728  0.5821998136077087  0.4858449173986201   T   T   T
  0.6666891934121993  0.8336054824618403  0.4833874061963747   T   T   T
  0.9176302266069800  0.0838146084570235  0.4838099219258426   T   T   T
  0.9178400171733595  0.3333150529631870  0.4834531569138935   T   T   T
  0.9112098037294242  0.5806035197671781  0.4860474780524742   T   T   T
  0.9178380984238466  0.8345208978929245  0.4834424843055098   T   T   T
  0.5744593783520404  0.3012799223510605  0.6612167700864019   T   T   T
  0.4257992337886388  0.2269538250497350  0.6610159956629310   T   T   T
  0.3418801134274165  0.2959923294938783  0.6596760404371153   T   T   T
  0.4259397466437349  0.4489494350569145  0.6610204150713366   T   T   T
  0.5746249292758491  0.5231938943810811  0.6611774945318719   T   T   T
  0.6587957592563445  0.4543234999768467  0.6599018098018415   T   T   T
  0.6366686591954359  0.2383951834859041  0.6858980983568796   T   T   T
  0.3631479874613184  0.1016363232632497  0.6855392742633084   T   T   T
  0.2391991515333602  0.2446829941467840  0.6982475829873437   T   T   T
  0.3634893127156524  0.5117434624257188  0.6855936311586676   T   T   T
  0.6370395838944757  0.6483852739523586  0.6858051318202126   T   T   T
  0.7608041382609678  0.5053312979520772  0.6988130487320574   T   T   T
 
  0.00000000E+00  0.00000000E+00  0.00000000E+00
  0.00000000E+00  0.00000000E+00  0.00000000E+00
  0.00000000E+00  0.00000000E+00  0.00000000E+00
  0.00000000E+00  0.00000000E+00  0.00000000E+00
  0.00000000E+00  0.00000000E+00  0.00000000E+00
  0.00000000E+00  0.00000000E+00  0.00000000E+00
  0.00000000E+00  0.00000000E+00  0.00000000E+00
  0.00000000E+00  0.00000000E+00  0.00000000E+00
  0.00000000E+00  0.00000000E+00  0.00000000E+00
  0.00000000E+00  0.00000000E+00  0.00000000E+00
  0.00000000E+00  0.00000000E+00  0.00000000E+00
  0.00000000E+00  0.00000000E+00  0.00000000E+00
  0.00000000E+00  0.00000000E+00  0.00000000E+00
  0.00000000E+00  0.00000000E+00  0.00000000E+00
  0.00000000E+00  0.00000000E+00  0.00000000E+00
  0.00000000E+00  0.00000000E+00  0.00000000E+00
  0.00000000E+00  0.00000000E+00  0.00000000E+00
  0.00000000E+00  0.00000000E+00  0.00000000E+00
  0.00000000E+00  0.00000000E+00  0.00000000E+00
  0.00000000E+00  0.00000000E+00  0.00000000E+00
  0.00000000E+00  0.00000000E+00  0.00000000E+00
  0.00000000E+00  0.00000000E+00  0.00000000E+00
  0.00000000E+00  0.00000000E+00  0.00000000E+00
  0.00000000E+00  0.00000000E+00  0.00000000E+00
  0.00000000E+00  0.00000000E+00  0.00000000E+00
  0.00000000E+00  0.00000000E+00  0.00000000E+00
  0.00000000E+00  0.00000000E+00  0.00000000E+00
  0.00000000E+00  0.00000000E+00  0.00000000E+00
  0.00000000E+00  0.00000000E+00  0.00000000E+00
  0.00000000E+00  0.00000000E+00  0.00000000E+00
  0.00000000E+00  0.00000000E+00  0.00000000E+00
  0.00000000E+00  0.00000000E+00  0.00000000E+00
  0.00000000E+00  0.00000000E+00  0.00000000E+00
  0.00000000E+00  0.00000000E+00  0.00000000E+00
  0.00000000E+00  0.00000000E+00  0.00000000E+00
  0.00000000E+00  0.00000000E+00  0.00000000E+00
  0.00000000E+00  0.00000000E+00  0.00000000E+00
  0.00000000E+00  0.00000000E+00  0.00000000E+00
  0.00000000E+00  0.00000000E+00  0.00000000E+00
  0.00000000E+00  0.00000000E+00  0.00000000E+00
  0.00000000E+00  0.00000000E+00  0.00000000E+00
  0.00000000E+00  0.00000000E+00  0.00000000E+00
  0.00000000E+00  0.00000000E+00  0.00000000E+00
  0.00000000E+00  0.00000000E+00  0.00000000E+00
  0.00000000E+00  0.00000000E+00  0.00000000E+00
  0.00000000E+00  0.00000000E+00  0.00000000E+00
  0.00000000E+00  0.00000000E+00  0.00000000E+00
  0.00000000E+00  0.00000000E+00  0.00000000E+00
  0.00000000E+00  0.00000000E+00  0.00000000E+00
  0.00000000E+00  0.00000000E+00  0.00000000E+00
  0.00000000E+00  0.00000000E+00  0.00000000E+00
  0.00000000E+00  0.00000000E+00  0.00000000E+00
  0.00000000E+00  0.00000000E+00  0.00000000E+00
  0.00000000E+00  0.00000000E+00  0.00000000E+00
  0.00000000E+00  0.00000000E+00  0.00000000E+00
  0.00000000E+00  0.00000000E+00  0.00000000E+00
  0.00000000E+00  0.00000000E+00  0.00000000E+00
  0.00000000E+00  0.00000000E+00  0.00000000E+00
  0.00000000E+00  0.00000000E+00  0.00000000E+00
  0.00000000E+00  0.00000000E+00  0.00000000E+00
  0.00000000E+00  0.00000000E+00  0.00000000E+00
  0.00000000E+00  0.00000000E+00  0.00000000E+00
  0.00000000E+00  0.00000000E+00  0.00000000E+00
  0.00000000E+00  0.00000000E+00  0.00000000E+00
  0.00000000E+00  0.00000000E+00  0.00000000E+00
  0.00000000E+00  0.00000000E+00  0.00000000E+00
  0.00000000E+00  0.00000000E+00  0.00000000E+00
  0.00000000E+00  0.00000000E+00  0.00000000E+00
  0.00000000E+00  0.00000000E+00  0.00000000E+00
  0.00000000E+00  0.00000000E+00  0.00000000E+00
  0.00000000E+00  0.00000000E+00  0.00000000E+00
  0.00000000E+00  0.00000000E+00  0.00000000E+00
  0.00000000E+00  0.00000000E+00  0.00000000E+00
  0.00000000E+00  0.00000000E+00  0.00000000E+00
  0.00000000E+00  0.00000000E+00  0.00000000E+00
  0.00000000E+00  0.00000000E+00  0.00000000E+00
