Pd48 C6 H2 Cl4                          
    1.000000000000000     
    11.1817229999999999    0.0000000000000000    0.0000000000000000
     0.0000000000000000   11.1817229999999999    0.0000000000000000
     0.0000000000000000    0.0000000000000000   16.9024539800000007
   Pd   C    H    Cl
    48     6     2     4
Selective dynamics
Direct
  0.9974302437833700  0.2497876149148865  0.4103475999981825   T   T   T
  0.9999757596427870  0.5000078080246482  0.4102612789532358   T   T   T
  0.0025510334750152  0.7502031724039853  0.4103463490882433   T   T   T
  0.9999893881536863  0.0000087541118816  0.4099076910402317   T   T   T
  0.2492543388643256  0.2492587862766129  0.4102670262093042   T   T   T
  0.2519224606105084  0.4999698880768264  0.4122285948054554   T   T   T
  0.2534270646606771  0.7465772974754756  0.4130181774712227   T   T   T
  0.2497913223215633  0.9974317409635560  0.4103525956252767   T   T   T
  0.4999624301247607  0.2519330657569157  0.4122478967187604   T   T   T
  0.4999951912084271  0.4999979348028347  0.4111237605968086   T   T   T
  0.5000145623083796  0.7480671377413586  0.4122406155367386   T   T   T
  0.5000029299945297  0.9999918712550055  0.4102735641510549   T   T   T
  0.7465782249305022  0.2534168578388574  0.4130221036426249   T   T   T
  0.7480724828404277  0.5000246974361886  0.4122363649711431   T   T   T
  0.7507387718671836  0.7507391121989002  0.4102584308532045   T   T   T
  0.7502090664854464  0.0025575727270279  0.4103570897465545   T   T   T
  0.1234093510726950  0.1234191299843559  0.5255448626921080   T   T   T
  0.1215294322907852  0.3724862334027961  0.5249979561040305   T   T   T
  0.1244958586749902  0.6233193421713850  0.5281208802102739   T   T   T
  0.1254417725470347  0.8745444838697338  0.5259181614708552   T   T   T
  0.3724656571401397  0.1215317531137572  0.5250010245352286   T   T   T
  0.3671904243184869  0.3672079214064752  0.5298020809616730   T   T   T
  0.3790787543270255  0.6208917450583726  0.5361695437540206   T   T   T
  0.3766709551841458  0.8754848682417844  0.5281470933366208   T   T   T
  0.6233173121292879  0.1245180257662142  0.5281550023197852   T   T   T
  0.6209072917798935  0.3790947077668179  0.5361381324217973   T   T   T
  0.6327805475702988  0.6327807826531782  0.5297872508792096   T   T   T
  0.6275268975610899  0.8784513772124711  0.5250107536348878   T   T   T
  0.8745364917896623  0.1254494027246125  0.5259263399057303   T   T   T
  0.8754573200886000  0.3766824137547999  0.5281540301990617   T   T   T
  0.8784336609045127  0.6275460233580361  0.5250017994962661   T   T   T
  0.8765735182756060  0.8765857702163515  0.5255201274068781   T   T   T
  0.1249999995528412  0.1249999995528412  0.2958150340723478   F   F   F
  0.1249999995528412  0.3749999986585237  0.2958150340723478   F   F   F
  0.1249999995528412  0.6249999977642062  0.2958150340723478   F   F   F
  0.1249999995528412  0.8749999968698887  0.2958150340723478   F   F   F
  0.3749999986585237  0.1249999995528412  0.2958150340723478   F   F   F
  0.3749999986585237  0.3749999986585237  0.2958150340723478   F   F   F
  0.3749999986585237  0.6249999977642062  0.2958150340723478   F   F   F
  0.3749999986585237  0.8749999968698887  0.2958150340723478   F   F   F
  0.6249999977642062  0.1249999995528412  0.2958150340723478   F   F   F
  0.6249999977642062  0.3749999986585237  0.2958150340723478   F   F   F
  0.6249999977642062  0.6249999977642062  0.2958150340723478   F   F   F
  0.6249999977642062  0.8749999968698887  0.2958150340723478   F   F   F
  0.8749999968698887  0.1249999995528412  0.2958150340723478   F   F   F
  0.8749999968698887  0.3749999986585237  0.2958150340723478   F   F   F
  0.8749999968698887  0.6249999977642062  0.2958150340723478   F   F   F
  0.8749999968698887  0.8749999968698887  0.2958150340723478   F   F   F
  0.5924137819207758  0.5924705807781763  0.6478179245890914   T   T   T
  0.6255647427067004  0.4657904082904736  0.6518516877640366   T   T   T
  0.5343026743119950  0.3743291579566588  0.6518566692160661   T   T   T
  0.4075542380659698  0.4075472645553475  0.6478202779008626   T   T   T
  0.3743634011605010  0.5342907121026741  0.6518829597048139   T   T   T
  0.4657479103655291  0.6255946965280401  0.6518510273108191   T   T   T
  0.6533510193662906  0.6533393794304772  0.6786028250102021   T   T   T
  0.3466988317845292  0.3466262499236876  0.6786030392407270   T   T   T
  0.7651648609556077  0.4378401190078449  0.6952748368930699   T   T   T
  0.5621822532462772  0.2349096398538961  0.6952406013390870   T   T   T
  0.2349887574497771  0.5621185179261303  0.6952906893759732   T   T   T
  0.4378233171257193  0.7650501998707711  0.6952719356186066   T   T   T
 
  0.00000000E+00  0.00000000E+00  0.00000000E+00
  0.00000000E+00  0.00000000E+00  0.00000000E+00
  0.00000000E+00  0.00000000E+00  0.00000000E+00
  0.00000000E+00  0.00000000E+00  0.00000000E+00
  0.00000000E+00  0.00000000E+00  0.00000000E+00
  0.00000000E+00  0.00000000E+00  0.00000000E+00
  0.00000000E+00  0.00000000E+00  0.00000000E+00
  0.00000000E+00  0.00000000E+00  0.00000000E+00
  0.00000000E+00  0.00000000E+00  0.00000000E+00
  0.00000000E+00  0.00000000E+00  0.00000000E+00
  0.00000000E+00  0.00000000E+00  0.00000000E+00
  0.00000000E+00  0.00000000E+00  0.00000000E+00
  0.00000000E+00  0.00000000E+00  0.00000000E+00
  0.00000000E+00  0.00000000E+00  0.00000000E+00
  0.00000000E+00  0.00000000E+00  0.00000000E+00
  0.00000000E+00  0.00000000E+00  0.00000000E+00
  0.00000000E+00  0.00000000E+00  0.00000000E+00
  0.00000000E+00  0.00000000E+00  0.00000000E+00
  0.00000000E+00  0.00000000E+00  0.00000000E+00
  0.00000000E+00  0.00000000E+00  0.00000000E+00
  0.00000000E+00  0.00000000E+00  0.00000000E+00
  0.00000000E+00  0.00000000E+00  0.00000000E+00
  0.00000000E+00  0.00000000E+00  0.00000000E+00
  0.00000000E+00  0.00000000E+00  0.00000000E+00
  0.00000000E+00  0.00000000E+00  0.00000000E+00
  0.00000000E+00  0.00000000E+00  0.00000000E+00
  0.00000000E+00  0.00000000E+00  0.00000000E+00
  0.00000000E+00  0.00000000E+00  0.00000000E+00
  0.00000000E+00  0.00000000E+00  0.00000000E+00
  0.00000000E+00  0.00000000E+00  0.00000000E+00
  0.00000000E+00  0.00000000E+00  0.00000000E+00
  0.00000000E+00  0.00000000E+00  0.00000000E+00
  0.00000000E+00  0.00000000E+00  0.00000000E+00
  0.00000000E+00  0.00000000E+00  0.00000000E+00
  0.00000000E+00  0.00000000E+00  0.00000000E+00
  0.00000000E+00  0.00000000E+00  0.00000000E+00
  0.00000000E+00  0.00000000E+00  0.00000000E+00
  0.00000000E+00  0.00000000E+00  0.00000000E+00
  0.00000000E+00  0.00000000E+00  0.00000000E+00
  0.00000000E+00  0.00000000E+00  0.00000000E+00
  0.00000000E+00  0.00000000E+00  0.00000000E+00
  0.00000000E+00  0.00000000E+00  0.00000000E+00
  0.00000000E+00  0.00000000E+00  0.00000000E+00
  0.00000000E+00  0.00000000E+00  0.00000000E+00
  0.00000000E+00  0.00000000E+00  0.00000000E+00
  0.00000000E+00  0.00000000E+00  0.00000000E+00
  0.00000000E+00  0.00000000E+00  0.00000000E+00
  0.00000000E+00  0.00000000E+00  0.00000000E+00
  0.00000000E+00  0.00000000E+00  0.00000000E+00
  0.00000000E+00  0.00000000E+00  0.00000000E+00
  0.00000000E+00  0.00000000E+00  0.00000000E+00
  0.00000000E+00  0.00000000E+00  0.00000000E+00
  0.00000000E+00  0.00000000E+00  0.00000000E+00
  0.00000000E+00  0.00000000E+00  0.00000000E+00
  0.00000000E+00  0.00000000E+00  0.00000000E+00
  0.00000000E+00  0.00000000E+00  0.00000000E+00
  0.00000000E+00  0.00000000E+00  0.00000000E+00
  0.00000000E+00  0.00000000E+00  0.00000000E+00
  0.00000000E+00  0.00000000E+00  0.00000000E+00
  0.00000000E+00  0.00000000E+00  0.00000000E+00
