Pd  C  F                                
    1.000000000000000     
    11.1817229999999999    0.0000000000000000    0.0000000000000000
     0.0000000000000000   15.8133443000000007    0.0000000000000000
     0.0000000000000000    0.0000000000000000   22.1931461100000007
   Pd   C    F 
    64     6     6
Selective dynamics
Direct
  0.2499999991056825  0.0000000000000000  0.3379421720033022   F   F   F
  0.9999999964227371  0.4999999987352481  0.3379421720033022   F   F   F
  0.2499999991056825  0.2499999996838085  0.3379421720033022   F   F   F
  0.2499999991056825  0.4999999987352481  0.3379421720033022   F   F   F
  0.2499999991056825  0.7499999984190566  0.3379421720033022   F   F   F
  0.4999999982113650  0.0000000000000000  0.3379421720033022   F   F   F
  0.4999999982113650  0.2499999996838085  0.3379421720033022   F   F   F
  0.9999999964227371  0.7499999984190566  0.3379421720033022   F   F   F
  0.4999999982113650  0.4999999987352481  0.3379421720033022   F   F   F
  0.4999999982113650  0.7499999984190566  0.3379421720033022   F   F   F
  0.7499999973170475  0.0000000000000000  0.3379421720033022   F   F   F
  0.7499999973170475  0.2499999996838085  0.3379421720033022   F   F   F
  0.7499999973170475  0.4999999987352481  0.3379421720033022   F   F   F
  0.7499999973170475  0.7499999984190566  0.3379421720033022   F   F   F
  0.0000000000000000  0.0000000000000000  0.3379421720033022   F   F   F
  0.9999999964227371  0.2499999996838085  0.3379421720033022   F   F   F
  0.2493467939695359  0.0001952933942373  0.4653913442819161   T   T   T
  0.2500859894913380  0.2517507387001291  0.4652982865288290   T   T   T
  0.2457645459830131  0.5000568533011543  0.4626331452670951   T   T   T
  0.2521956900512533  0.7463033079553593  0.4667575608683174   T   T   T
  0.4999999982113650  0.0000000000000000  0.4652127197842164   T   T   T
  0.5007820279347984  0.2524707780378960  0.4658048068940471   T   T   T
  0.4999999982113650  0.4999999987352481  0.4592972122799101   T   T   T
  0.4992179684879319  0.7475292200649766  0.4658048068940471   T   T   T
  0.7506532024531941 -0.0001952933942372  0.4653913442819161   T   T   T
  0.7478043063714765  0.2536966901475057  0.4667575608683174   T   T   T
  0.7542354504397167  0.4999431441693418  0.4626331452670951   T   T   T
  0.7499140069313921  0.7482492594027361  0.4652982865288290   T   T   T
 -0.0000000000000000  0.0000000000000000  0.4656846101417449   T   T   T
  0.9992994887541007  0.2511743200335877  0.4650433109158307   T   T   T
  0.9999999964227371  0.4999999987352481  0.4649886185190938   T   T   T
  0.0007005040913736  0.7488256780692774  0.4650433109158307   T   T   T
  0.1248836793074957  0.1272154636787839  0.5235459831465556   T   T   T
  0.1233572832221113  0.3753433463467115  0.5245290473304659   T   T   T
  0.1269568433219373  0.6241660951072586  0.5246852061127008   T   T   T
  0.1262662064888027  0.8727271773977940  0.5232740496690053   T   T   T
  0.3753507088945103  0.1261777073032673  0.5231961259675884   T   T   T
  0.3717992493639279  0.3817017824920739  0.5246100346444980   T   T   T
  0.3803831962495883  0.6103650229615969  0.5294369712549607   T   T   T
  0.3754469385916475  0.8747697538195536  0.5236273071311826   T   T   T
  0.6245530578310824  0.1252302436509426  0.5236273071311826   T   T   T
  0.6196168001731415  0.3896349745088922  0.5294369712549607   T   T   T
  0.6282007470588022  0.6182982149784151  0.5246100346444980   T   T   T
  0.6246492875282196  0.8738222901672288  0.5231961259675884   T   T   T
  0.8737337899339270  0.1272728200727020  0.5232740496690053   T   T   T
  0.8730431531007928  0.3758339023632307  0.5246852061127008   T   T   T
  0.8766427132006187  0.6246566511237779  0.5245290473304659   T   T   T
  0.8751163171152343  0.8727845337917124  0.5235459831465556   T   T   T
  0.1249999995528412  0.1249999995257198  0.4009217677339905   F   F   F
  0.1249999995528412  0.3749999992095283  0.4009217677339905   F   F   F
  0.1249999995528412  0.6249999982609609  0.4009217677339905   F   F   F
  0.1249999995528412  0.8749999979447765  0.4009217677339905   F   F   F
  0.3749999986585237  0.1249999995257198  0.4009217677339905   F   F   F
  0.3749999986585237  0.3749999992095283  0.4009217677339905   F   F   F
  0.3749999986585237  0.6249999982609609  0.4009217677339905   F   F   F
  0.3749999986585237  0.8749999979447765  0.4009217677339905   F   F   F
  0.6249999977642062  0.1249999995257198  0.4009217677339905   F   F   F
  0.6249999977642062  0.3749999992095283  0.4009217677339905   F   F   F
  0.6249999977642062  0.6249999982609609  0.4009217677339905   F   F   F
  0.6249999977642062  0.8749999979447765  0.4009217677339905   F   F   F
  0.8749999968698887  0.1249999995257198  0.4009217677339905   F   F   F
  0.8749999968698887  0.3749999992095283  0.4009217677339905   F   F   F
  0.8749999968698887  0.6249999982609609  0.4009217677339905   F   F   F
  0.8749999968698887  0.8749999979447765  0.4009217677339905   F   F   F
  0.3760442865858669  0.5317708749068104  0.6068223796186417   T   T   T
  0.4751369282214101  0.5907531216421688  0.6115317902469448   T   T   T
  0.6019285369184497  0.5624727840956957  0.6054808759665907   T   T   T
  0.6239556847960017  0.4682291099161316  0.6068223796186417   T   T   T
  0.5248630932421889  0.4092468884758741  0.6115317902469448   T   T   T
  0.3980714595042870  0.4375272133747936  0.6054808759665907   T   T   T
  0.2765521171266851  0.5513904719699781  0.6400062979884638   T   T   T
  0.4599772332917353  0.6581240751545361  0.6491124601446183   T   T   T
  0.6746492640589059  0.6020017352626603  0.6475497247839602   T   T   T
  0.7234478792960519  0.4486095255005106  0.6400062979884638   T   T   T
  0.5400228293104263  0.3418759425520252  0.6491124601446183   T   T   T
  0.3253507582990104  0.3979982748553758  0.6475497247839602   T   T   T
 
  0.00000000E+00  0.00000000E+00  0.00000000E+00
  0.00000000E+00  0.00000000E+00  0.00000000E+00
  0.00000000E+00  0.00000000E+00  0.00000000E+00
  0.00000000E+00  0.00000000E+00  0.00000000E+00
  0.00000000E+00  0.00000000E+00  0.00000000E+00
  0.00000000E+00  0.00000000E+00  0.00000000E+00
  0.00000000E+00  0.00000000E+00  0.00000000E+00
  0.00000000E+00  0.00000000E+00  0.00000000E+00
  0.00000000E+00  0.00000000E+00  0.00000000E+00
  0.00000000E+00  0.00000000E+00  0.00000000E+00
  0.00000000E+00  0.00000000E+00  0.00000000E+00
  0.00000000E+00  0.00000000E+00  0.00000000E+00
  0.00000000E+00  0.00000000E+00  0.00000000E+00
  0.00000000E+00  0.00000000E+00  0.00000000E+00
  0.00000000E+00  0.00000000E+00  0.00000000E+00
  0.00000000E+00  0.00000000E+00  0.00000000E+00
  0.00000000E+00  0.00000000E+00  0.00000000E+00
  0.00000000E+00  0.00000000E+00  0.00000000E+00
  0.00000000E+00  0.00000000E+00  0.00000000E+00
  0.00000000E+00  0.00000000E+00  0.00000000E+00
  0.00000000E+00  0.00000000E+00  0.00000000E+00
  0.00000000E+00  0.00000000E+00  0.00000000E+00
  0.00000000E+00  0.00000000E+00  0.00000000E+00
  0.00000000E+00  0.00000000E+00  0.00000000E+00
  0.00000000E+00  0.00000000E+00  0.00000000E+00
  0.00000000E+00  0.00000000E+00  0.00000000E+00
  0.00000000E+00  0.00000000E+00  0.00000000E+00
  0.00000000E+00  0.00000000E+00  0.00000000E+00
  0.00000000E+00  0.00000000E+00  0.00000000E+00
  0.00000000E+00  0.00000000E+00  0.00000000E+00
  0.00000000E+00  0.00000000E+00  0.00000000E+00
  0.00000000E+00  0.00000000E+00  0.00000000E+00
  0.00000000E+00  0.00000000E+00  0.00000000E+00
  0.00000000E+00  0.00000000E+00  0.00000000E+00
  0.00000000E+00  0.00000000E+00  0.00000000E+00
  0.00000000E+00  0.00000000E+00  0.00000000E+00
  0.00000000E+00  0.00000000E+00  0.00000000E+00
  0.00000000E+00  0.00000000E+00  0.00000000E+00
  0.00000000E+00  0.00000000E+00  0.00000000E+00
  0.00000000E+00  0.00000000E+00  0.00000000E+00
  0.00000000E+00  0.00000000E+00  0.00000000E+00
  0.00000000E+00  0.00000000E+00  0.00000000E+00
  0.00000000E+00  0.00000000E+00  0.00000000E+00
  0.00000000E+00  0.00000000E+00  0.00000000E+00
  0.00000000E+00  0.00000000E+00  0.00000000E+00
  0.00000000E+00  0.00000000E+00  0.00000000E+00
  0.00000000E+00  0.00000000E+00  0.00000000E+00
  0.00000000E+00  0.00000000E+00  0.00000000E+00
  0.00000000E+00  0.00000000E+00  0.00000000E+00
  0.00000000E+00  0.00000000E+00  0.00000000E+00
  0.00000000E+00  0.00000000E+00  0.00000000E+00
  0.00000000E+00  0.00000000E+00  0.00000000E+00
  0.00000000E+00  0.00000000E+00  0.00000000E+00
  0.00000000E+00  0.00000000E+00  0.00000000E+00
  0.00000000E+00  0.00000000E+00  0.00000000E+00
  0.00000000E+00  0.00000000E+00  0.00000000E+00
  0.00000000E+00  0.00000000E+00  0.00000000E+00
  0.00000000E+00  0.00000000E+00  0.00000000E+00
  0.00000000E+00  0.00000000E+00  0.00000000E+00
  0.00000000E+00  0.00000000E+00  0.00000000E+00
  0.00000000E+00  0.00000000E+00  0.00000000E+00
  0.00000000E+00  0.00000000E+00  0.00000000E+00
  0.00000000E+00  0.00000000E+00  0.00000000E+00
  0.00000000E+00  0.00000000E+00  0.00000000E+00
  0.00000000E+00  0.00000000E+00  0.00000000E+00
  0.00000000E+00  0.00000000E+00  0.00000000E+00
  0.00000000E+00  0.00000000E+00  0.00000000E+00
  0.00000000E+00  0.00000000E+00  0.00000000E+00
  0.00000000E+00  0.00000000E+00  0.00000000E+00
  0.00000000E+00  0.00000000E+00  0.00000000E+00
  0.00000000E+00  0.00000000E+00  0.00000000E+00
  0.00000000E+00  0.00000000E+00  0.00000000E+00
  0.00000000E+00  0.00000000E+00  0.00000000E+00
  0.00000000E+00  0.00000000E+00  0.00000000E+00
  0.00000000E+00  0.00000000E+00  0.00000000E+00
  0.00000000E+00  0.00000000E+00  0.00000000E+00
