H2 Pd48 C6 Br4                          
    1.000000000000000     
    11.1922750000000004    0.0000000000000000    0.0000000000000000
    -5.5961369999999997    9.6927939999999992    0.0000000000000000
     0.0000000000000000    0.0000000000000000   16.5749409999999990
   H    Pd   C    Br
     2    48     6     4
Selective dynamics
Direct
  0.2480872144112780  0.2490464837896198  0.7905191114624373   T   T   T
  0.7519094451382671  0.5009204652040040  0.7907630552697711   T   T   T
  0.0833330000000032  0.1666669999999968  0.3619920000000008   F   F   F
  0.0833330000000032  0.4166669999999968  0.3619920000000008   F   F   F
  0.0833330000000032  0.6666669999999968  0.3619920000000008   F   F   F
  0.0833330000000032  0.9166669999999968  0.3619920000000008   F   F   F
  0.3333330000000032  0.1666669999999968  0.3619920000000008   F   F   F
  0.3333330000000032  0.4166669999999968  0.3619920000000008   F   F   F
  0.3333330000000032  0.6666669999999968  0.3619920000000008   F   F   F
  0.3333330000000032  0.9166669999999968  0.3619920000000008   F   F   F
  0.5833330000000032  0.1666669999999968  0.3619920000000008   F   F   F
  0.5833330000000032  0.4166669999999968  0.3619920000000008   F   F   F
  0.5833330000000032  0.6666669999999968  0.3619920000000008   F   F   F
  0.5833330000000032  0.9166669999999968  0.3619920000000008   F   F   F
  0.8333330000000032  0.1666669999999968  0.3619920000000008   F   F   F
  0.8333330000000032  0.4166669999999968  0.3619920000000008   F   F   F
  0.8333330000000032  0.6666669999999968  0.3619920000000008   F   F   F
  0.8333330000000032  0.9166669999999968  0.3619920000000008   F   F   F
  0.2462214868688832  0.9919213211137858  0.6363662134532220   T   T   T
  0.2564883357807020  0.2532444160918672  0.6383890595733988   T   T   T
  0.2462311898494747  0.5043147462082516  0.6363726806964323   T   T   T
  0.2476111409348292  0.7488124267231626  0.6330746879690352   T   T   T
  0.5005854504020419  0.9950920730417891  0.6313996284462391   T   T   T
  0.5018790632340639  0.2426416773391864  0.6366106984454589   T   T   T
  0.5018824060150564  0.5092467162959124  0.6366058268926054   T   T   T
  0.5005884580013387  0.7555025683946539  0.6313913501699062   T   T   T
  0.7540007114480574  0.0020120539852186  0.6333791302902370   T   T   T
  0.7559806864506484  0.2473342229667352  0.6370110893237992   T   T   T
  0.7485168787810537  0.4992588499436934  0.6389656272756383   T   T   T
  0.7560025326578383  0.7586709453144564  0.6370034885585980   T   T   T
  0.0034884197867626  0.0031032500571300  0.6346077281441325   T   T   T
  0.0034760550294877  0.2503940182046946  0.6345796363641583   T   T   T
  0.9987952218470824  0.5004521718951551  0.6349725050253099   T   T   T
  0.9987887726066376  0.7483476272775675  0.6349736285921068   T   T   T
  0.1687008247309478  0.0849524291967114  0.4999478466549050   T   T   T
  0.1687199936744435  0.3337609013723082  0.4999416943305093   T   T   T
  0.1648689149656519  0.5820193370613040  0.4976305657357400   T   T   T
  0.1648607833323155  0.8328544424175490  0.4976346403351997   T   T   T
  0.4163155621498902  0.0839066979003746  0.4984397948868349   T   T   T
  0.4188173401049298  0.3344063912108481  0.4982128382209439   T   T   T
  0.4163272414089150  0.5824119577992164  0.4984385190456280   T   T   T
  0.4156038894244460  0.8328079060443585  0.4959134491767045   T   T   T
  0.6673694693320300  0.0831858877201057  0.4973212239735574   T   T   T
  0.6667887267102088  0.3325576866063997  0.4994029637637922   T   T   T
  0.6667893405007348  0.5842365571305805  0.4994053524829596   T   T   T
  0.6673675077891446  0.8341936579524756  0.4973216734713475   T   T   T
  0.9189632209715626  0.0844795352009271  0.4975781728240847   T   T   T
  0.9159369592433819  0.3324093172823197  0.4989733910303116   T   T   T
  0.9134188201730495  0.5817135197276642  0.4999169265679910   T   T   T
  0.9159526917691565  0.8335490560877687  0.4989796710213454   T   T   T
  0.3455779572207902  0.2977837252047948  0.7569691515938572   T   T   T
  0.4260311463989765  0.4484702015778339  0.7579920265267859   T   T   T
  0.5739531319862365  0.5223391321830420  0.7580522674928716   T   T   T
  0.6546717390764130  0.4523290457415712  0.7568649968746826   T   T   T
  0.5739335087542301  0.3015287535061262  0.7580551647396447   T   T   T
  0.4259967482271207  0.2275214490069430  0.7579934678448694   T   T   T
  0.3202310698938078  0.5344444992070478  0.7918602927318901   T   T   T
  0.6797066943276064  0.7142944454669902  0.7919177031854474   T   T   T
  0.6796315340515804  0.2153746279479947  0.7919303214977091   T   T   T
  0.3201789075950288  0.0357527054309017  0.7918620550788233   T   T   T
 
  0.00000000E+00  0.00000000E+00  0.00000000E+00
  0.00000000E+00  0.00000000E+00  0.00000000E+00
  0.00000000E+00  0.00000000E+00  0.00000000E+00
  0.00000000E+00  0.00000000E+00  0.00000000E+00
  0.00000000E+00  0.00000000E+00  0.00000000E+00
  0.00000000E+00  0.00000000E+00  0.00000000E+00
  0.00000000E+00  0.00000000E+00  0.00000000E+00
  0.00000000E+00  0.00000000E+00  0.00000000E+00
  0.00000000E+00  0.00000000E+00  0.00000000E+00
  0.00000000E+00  0.00000000E+00  0.00000000E+00
  0.00000000E+00  0.00000000E+00  0.00000000E+00
  0.00000000E+00  0.00000000E+00  0.00000000E+00
  0.00000000E+00  0.00000000E+00  0.00000000E+00
  0.00000000E+00  0.00000000E+00  0.00000000E+00
  0.00000000E+00  0.00000000E+00  0.00000000E+00
  0.00000000E+00  0.00000000E+00  0.00000000E+00
  0.00000000E+00  0.00000000E+00  0.00000000E+00
  0.00000000E+00  0.00000000E+00  0.00000000E+00
  0.00000000E+00  0.00000000E+00  0.00000000E+00
  0.00000000E+00  0.00000000E+00  0.00000000E+00
  0.00000000E+00  0.00000000E+00  0.00000000E+00
  0.00000000E+00  0.00000000E+00  0.00000000E+00
  0.00000000E+00  0.00000000E+00  0.00000000E+00
  0.00000000E+00  0.00000000E+00  0.00000000E+00
  0.00000000E+00  0.00000000E+00  0.00000000E+00
  0.00000000E+00  0.00000000E+00  0.00000000E+00
  0.00000000E+00  0.00000000E+00  0.00000000E+00
  0.00000000E+00  0.00000000E+00  0.00000000E+00
  0.00000000E+00  0.00000000E+00  0.00000000E+00
  0.00000000E+00  0.00000000E+00  0.00000000E+00
  0.00000000E+00  0.00000000E+00  0.00000000E+00
  0.00000000E+00  0.00000000E+00  0.00000000E+00
  0.00000000E+00  0.00000000E+00  0.00000000E+00
  0.00000000E+00  0.00000000E+00  0.00000000E+00
  0.00000000E+00  0.00000000E+00  0.00000000E+00
  0.00000000E+00  0.00000000E+00  0.00000000E+00
  0.00000000E+00  0.00000000E+00  0.00000000E+00
  0.00000000E+00  0.00000000E+00  0.00000000E+00
  0.00000000E+00  0.00000000E+00  0.00000000E+00
  0.00000000E+00  0.00000000E+00  0.00000000E+00
  0.00000000E+00  0.00000000E+00  0.00000000E+00
  0.00000000E+00  0.00000000E+00  0.00000000E+00
  0.00000000E+00  0.00000000E+00  0.00000000E+00
  0.00000000E+00  0.00000000E+00  0.00000000E+00
  0.00000000E+00  0.00000000E+00  0.00000000E+00
  0.00000000E+00  0.00000000E+00  0.00000000E+00
  0.00000000E+00  0.00000000E+00  0.00000000E+00
  0.00000000E+00  0.00000000E+00  0.00000000E+00
  0.00000000E+00  0.00000000E+00  0.00000000E+00
  0.00000000E+00  0.00000000E+00  0.00000000E+00
  0.00000000E+00  0.00000000E+00  0.00000000E+00
  0.00000000E+00  0.00000000E+00  0.00000000E+00
  0.00000000E+00  0.00000000E+00  0.00000000E+00
  0.00000000E+00  0.00000000E+00  0.00000000E+00
  0.00000000E+00  0.00000000E+00  0.00000000E+00
  0.00000000E+00  0.00000000E+00  0.00000000E+00
  0.00000000E+00  0.00000000E+00  0.00000000E+00
  0.00000000E+00  0.00000000E+00  0.00000000E+00
  0.00000000E+00  0.00000000E+00  0.00000000E+00
  0.00000000E+00  0.00000000E+00  0.00000000E+00
