Rh48 C4 N2 F4                           
    1.000000000000000     
    10.8721879999999995    0.0000000000000000    0.0000000000000000
    -5.4360939999999998    9.4155909999999992    0.0000000000000000
     0.0000000000000000    0.0000000000000000   16.4385520000000014
   Rh   C    N    F 
    48     4     2     4
Selective dynamics
Direct
  0.0833330000000032  0.1666669999999968  0.3649959999999979   F   F   F
  0.0833330000000032  0.4166669999999968  0.3649959999999979   F   F   F
  0.0833330000000032  0.6666669999999968  0.3649959999999979   F   F   F
  0.0833330000000032  0.9166669999999968  0.3649959999999979   F   F   F
  0.3333330000000032  0.1666669999999968  0.3649959999999979   F   F   F
  0.3333330000000032  0.4166669999999968  0.3649959999999979   F   F   F
  0.3333330000000032  0.6666669999999968  0.3649959999999979   F   F   F
  0.3333330000000032  0.9166669999999968  0.3649959999999979   F   F   F
  0.5833330000000032  0.1666669999999968  0.3649959999999979   F   F   F
  0.5833330000000032  0.4166669999999968  0.3649959999999979   F   F   F
  0.5833330000000032  0.6666669999999968  0.3649959999999979   F   F   F
  0.5833330000000032  0.9166669999999968  0.3649959999999979   F   F   F
  0.8333330000000032  0.1666669999999968  0.3649959999999979   F   F   F
  0.8333330000000032  0.4166669999999968  0.3649959999999979   F   F   F
  0.8333330000000032  0.6666669999999968  0.3649959999999979   F   F   F
  0.8333330000000032  0.9166669999999968  0.3649959999999979   F   F   F
  0.9976684424891999  0.9970798377280374  0.6195375522026936   T   T   T
  0.9956984170705212  0.2486665479896928  0.6197911171104877   T   T   T
  0.9999046195183610  0.4999100679006077  0.6201800146894740   T   T   T
  0.0006821230811269  0.7493490798724025  0.6196739083132456   T   T   T
  0.2475759748810376  0.9949867750481758  0.6198520352942438   T   T   T
  0.2443628323736675  0.2434330902239523  0.6261539113041366   T   T   T
  0.2504345681517322  0.4996025645920668  0.6251868858606926   T   T   T
  0.2501245857084413  0.7501328364957516  0.6201728079886308   T   T   T
  0.5002695203859702  0.0002537031372540  0.6201189830269840   T   T   T
  0.4992799365500460  0.2507477957426829  0.6253335585425503   T   T   T
  0.5065907118396780  0.5056520944870968  0.6261474485864227   T   T   T
  0.5013784129627723  0.7543541248069090  0.6197681464770497   T   T   T
  0.7499584582497150  0.0000820524637248  0.6194672828667791   T   T   T
  0.7497937820824490  0.2497661854661999  0.6201100845287115   T   T   T
  0.7550631652613973  0.5024533636838484  0.6198555327293889   T   T   T
  0.7529977928300156  0.7524122637297594  0.6195209838030209   T   T   T
  0.1678580343008846  0.0856371705693704  0.4925339967818942   T   T   T
  0.1685170207451776  0.3337738283979803  0.4932417908295150   T   T   T
  0.1688235037145134  0.5811792039962427  0.4941082880440604   T   T   T
  0.1675609008948769  0.8333074229139328  0.4920134242875420   T   T   T
  0.4174127959563378  0.0862976217090505  0.4937657685938248   T   T   T
  0.4157519169024084  0.3342628835305135  0.4935609610278036   T   T   T
  0.4162425383441857  0.5814955921072595  0.4932423118884515   T   T   T
  0.4167851187508020  0.8335674868137204  0.4925614420520716   T   T   T
  0.6662973402157490  0.0837419137612301  0.4925731179177077   T   T   T
  0.6637520452706624  0.3326290338876561  0.4937708841286010   T   T   T
  0.6644170456435745  0.5821809378632565  0.4925301454564135   T   T   T
  0.6662112517356462  0.8326826630190638  0.4923285594503213   T   T   T
  0.9173581868697198  0.0838289874576859  0.4923264954919375   T   T   T
  0.9164631058930368  0.3332402009278965  0.4925665444616811   T   T   T
  0.9167279582372601  0.5824681588909186  0.4920150707982032   T   T   T
  0.9170104796821050  0.8330440273028046  0.4919538420565814   T   T   T
  0.5191859630156159  0.4416018939465403  0.7481582799659705   T   T   T
  0.4427316900946252  0.5184486232204861  0.7480050521403285   T   T   T
  0.2314839405148561  0.3072148894772369  0.7480434940821326   T   T   T
  0.3082474637694332  0.2307349940521775  0.7482003462449285   T   T   T
  0.2962414542614198  0.4537055153089469  0.7484329333894237   T   T   T
  0.4545884567534770  0.2952654660544951  0.7492822537075412   T   T   T
  0.2416199790071900  0.0967022734595915  0.7814644153888537   T   T   T
  0.0974145604528758  0.2412468747636680  0.7811370053032647   T   T   T
  0.6531596814202416  0.5080318922763709  0.7814348610292470   T   T   T
  0.5086335235665018  0.6524650425437315  0.7811227151841251   T   T   T
 
  0.00000000E+00  0.00000000E+00  0.00000000E+00
  0.00000000E+00  0.00000000E+00  0.00000000E+00
  0.00000000E+00  0.00000000E+00  0.00000000E+00
  0.00000000E+00  0.00000000E+00  0.00000000E+00
  0.00000000E+00  0.00000000E+00  0.00000000E+00
  0.00000000E+00  0.00000000E+00  0.00000000E+00
  0.00000000E+00  0.00000000E+00  0.00000000E+00
  0.00000000E+00  0.00000000E+00  0.00000000E+00
  0.00000000E+00  0.00000000E+00  0.00000000E+00
  0.00000000E+00  0.00000000E+00  0.00000000E+00
  0.00000000E+00  0.00000000E+00  0.00000000E+00
  0.00000000E+00  0.00000000E+00  0.00000000E+00
  0.00000000E+00  0.00000000E+00  0.00000000E+00
  0.00000000E+00  0.00000000E+00  0.00000000E+00
  0.00000000E+00  0.00000000E+00  0.00000000E+00
  0.00000000E+00  0.00000000E+00  0.00000000E+00
  0.00000000E+00  0.00000000E+00  0.00000000E+00
  0.00000000E+00  0.00000000E+00  0.00000000E+00
  0.00000000E+00  0.00000000E+00  0.00000000E+00
  0.00000000E+00  0.00000000E+00  0.00000000E+00
  0.00000000E+00  0.00000000E+00  0.00000000E+00
  0.00000000E+00  0.00000000E+00  0.00000000E+00
  0.00000000E+00  0.00000000E+00  0.00000000E+00
  0.00000000E+00  0.00000000E+00  0.00000000E+00
  0.00000000E+00  0.00000000E+00  0.00000000E+00
  0.00000000E+00  0.00000000E+00  0.00000000E+00
  0.00000000E+00  0.00000000E+00  0.00000000E+00
  0.00000000E+00  0.00000000E+00  0.00000000E+00
  0.00000000E+00  0.00000000E+00  0.00000000E+00
  0.00000000E+00  0.00000000E+00  0.00000000E+00
  0.00000000E+00  0.00000000E+00  0.00000000E+00
  0.00000000E+00  0.00000000E+00  0.00000000E+00
  0.00000000E+00  0.00000000E+00  0.00000000E+00
  0.00000000E+00  0.00000000E+00  0.00000000E+00
  0.00000000E+00  0.00000000E+00  0.00000000E+00
  0.00000000E+00  0.00000000E+00  0.00000000E+00
  0.00000000E+00  0.00000000E+00  0.00000000E+00
  0.00000000E+00  0.00000000E+00  0.00000000E+00
  0.00000000E+00  0.00000000E+00  0.00000000E+00
  0.00000000E+00  0.00000000E+00  0.00000000E+00
  0.00000000E+00  0.00000000E+00  0.00000000E+00
  0.00000000E+00  0.00000000E+00  0.00000000E+00
  0.00000000E+00  0.00000000E+00  0.00000000E+00
  0.00000000E+00  0.00000000E+00  0.00000000E+00
  0.00000000E+00  0.00000000E+00  0.00000000E+00
  0.00000000E+00  0.00000000E+00  0.00000000E+00
  0.00000000E+00  0.00000000E+00  0.00000000E+00
  0.00000000E+00  0.00000000E+00  0.00000000E+00
  0.00000000E+00  0.00000000E+00  0.00000000E+00
  0.00000000E+00  0.00000000E+00  0.00000000E+00
  0.00000000E+00  0.00000000E+00  0.00000000E+00
  0.00000000E+00  0.00000000E+00  0.00000000E+00
  0.00000000E+00  0.00000000E+00  0.00000000E+00
  0.00000000E+00  0.00000000E+00  0.00000000E+00
  0.00000000E+00  0.00000000E+00  0.00000000E+00
  0.00000000E+00  0.00000000E+00  0.00000000E+00
  0.00000000E+00  0.00000000E+00  0.00000000E+00
  0.00000000E+00  0.00000000E+00  0.00000000E+00
