Pt48 C6 F2 H4                           
    1.000000000000000     
    11.2480068000000006    0.0000000000000000    0.0000000000000000
     0.0000000000000000   11.2480068000000006    0.0000000000000000
     0.0000000000000000    0.0000000000000000   16.9148942799999986
   Pt   C    F    H 
    48     6     2     4
Selective dynamics
Direct
  0.2493509521536268  0.9986676340454537  0.4103596465777528   T   T   T
  0.2505422651160956  0.2505444945465030  0.4110696522019879   T   T   T
  0.2535615896279992  0.5001593232112072  0.4129900779910187   T   T   T
  0.2534772533383318  0.7465242719097702  0.4131203889920627   T   T   T
  0.5000041561994522  0.0000020118210102  0.4099442726317477   T   T   T
  0.5001648825357776  0.2535606173087643  0.4129934670834103   T   T   T
  0.4999982569767809  0.4999985111762655  0.4147482061867365   T   T   T
  0.4998395144553740  0.7464426689250061  0.4129889656452903   T   T   T
  0.7506519927668194  0.0013402379269749  0.4103638210468930   T   T   T
  0.7465303019046914  0.2534722819156414  0.4131302537506585   T   T   T
  0.7464427526339961  0.4998340070807430  0.4129926777876136   T   T   T
  0.7494581708602581  0.7494622103491011  0.4110694821040539   T   T   T
  0.9999992891010265  0.0000055757856003  0.4105567866659356   T   T   T
  0.9986631711820877  0.2493507761480060  0.4103665885417342   T   T   T
  0.0000010942864961  0.4999972121058889  0.4099447902490567   T   T   T
  0.0013350351722323  0.7506522234300803  0.4103593522634625   T   T   T
  0.1236938386851421  0.1236905990162711  0.5260636921020918   T   T   T
  0.1226878055980976  0.3741062457329889  0.5255720936117996   T   T   T
  0.1233143244718775  0.6238350542657471  0.5264934800295933   T   T   T
  0.1256619766355342  0.8743448384574037  0.5265438028259197   T   T   T
  0.3741042913769448  0.1226849665087002  0.5255812017716366   T   T   T
  0.3679157176149559  0.3679153260614285  0.5329762660748827   T   T   T
  0.3728877382748053  0.6271187134776497  0.5391467963311740   T   T   T
  0.3761717126856041  0.8766823948275118  0.5265007542955260   T   T   T
  0.6238328841516179  0.1233156664886224  0.5265117298428734   T   T   T
  0.6271210205024573  0.3728877744487349  0.5391496600249681   T   T   T
  0.6320886309091094  0.6320890565572483  0.5329617499501325   T   T   T
  0.6258984502907765  0.8773102144640745  0.5255694788465775   T   T   T
  0.8743453501744582  0.1256586121900014  0.5265645050912227   T   T   T
  0.8766856342954981  0.3761736901397796  0.5265034602005869   T   T   T
  0.8773106125095254  0.6258997202730328  0.5255640026065365   T   T   T
  0.8763130027542942  0.8763096423169401  0.5260549150346989   T   T   T
  0.1250000008890453  0.1250000000000000  0.2955974726907939   F   F   F
  0.1250000008890453  0.3750000008890453  0.2955974726907939   F   F   F
  0.1250000008890453  0.6250000026671358  0.2955974726907939   F   F   F
  0.1250000008890453  0.8750000026671358  0.2955974726907939   F   F   F
  0.3750000017780906  0.1250000000000000  0.2955974726907939   F   F   F
  0.3750000017780906  0.3750000008890453  0.2955974726907939   F   F   F
  0.3750000017780906  0.6250000026671358  0.2955974726907939   F   F   F
  0.3750000017780906  0.8750000026671358  0.2955974726907939   F   F   F
  0.6250000026671358  0.1250000000000000  0.2955974726907939   F   F   F
  0.6250000026671358  0.3750000008890453  0.2955974726907939   F   F   F
  0.6250000026671358  0.6250000026671358  0.2955974726907939   F   F   F
  0.6250000026671358  0.8750000026671358  0.2955974726907939   F   F   F
  0.8750000035561882  0.1250000000000000  0.2955974726907939   F   F   F
  0.8750000026671358  0.3750000008890453  0.2955974726907939   F   F   F
  0.8750000035561882  0.6250000026671358  0.2955974726907939   F   F   F
  0.8750000035561882  0.8750000026671358  0.2955974726907939   F   F   F
  0.4075932998377212  0.4075968314294158  0.6482657900921964   T   T   T
  0.3747518212748986  0.5352682631995336  0.6529985314414404   T   T   T
  0.4647265756521648  0.6252880304393429  0.6530028824403828   T   T   T
  0.5924301922381545  0.5924172385588875  0.6482585337565396   T   T   T
  0.6252785493265520  0.4647495362592622  0.6530034729245671   T   T   T
  0.5352551624149768  0.3747278198558703  0.6530064925345727   T   T   T
  0.3400571093840412  0.3400629388928351  0.7011100538764268   T   T   T
  0.6599538344437832  0.6599557973611780  0.7010881567786669   T   T   T
  0.2887754651440417  0.5524496490689756  0.6806751895372543   T   T   T
  0.4475747294382302  0.7112191582569025  0.6806558223773607   T   T   T
  0.7112219817417937  0.4475683200719445  0.6806641361228216   T   T   T
  0.5524374007068431  0.2887861179556950  0.6806686327810993   T   T   T
 
  0.00000000E+00  0.00000000E+00  0.00000000E+00
  0.00000000E+00  0.00000000E+00  0.00000000E+00
  0.00000000E+00  0.00000000E+00  0.00000000E+00
  0.00000000E+00  0.00000000E+00  0.00000000E+00
  0.00000000E+00  0.00000000E+00  0.00000000E+00
  0.00000000E+00  0.00000000E+00  0.00000000E+00
  0.00000000E+00  0.00000000E+00  0.00000000E+00
  0.00000000E+00  0.00000000E+00  0.00000000E+00
  0.00000000E+00  0.00000000E+00  0.00000000E+00
  0.00000000E+00  0.00000000E+00  0.00000000E+00
  0.00000000E+00  0.00000000E+00  0.00000000E+00
  0.00000000E+00  0.00000000E+00  0.00000000E+00
  0.00000000E+00  0.00000000E+00  0.00000000E+00
  0.00000000E+00  0.00000000E+00  0.00000000E+00
  0.00000000E+00  0.00000000E+00  0.00000000E+00
  0.00000000E+00  0.00000000E+00  0.00000000E+00
  0.00000000E+00  0.00000000E+00  0.00000000E+00
  0.00000000E+00  0.00000000E+00  0.00000000E+00
  0.00000000E+00  0.00000000E+00  0.00000000E+00
  0.00000000E+00  0.00000000E+00  0.00000000E+00
  0.00000000E+00  0.00000000E+00  0.00000000E+00
  0.00000000E+00  0.00000000E+00  0.00000000E+00
  0.00000000E+00  0.00000000E+00  0.00000000E+00
  0.00000000E+00  0.00000000E+00  0.00000000E+00
  0.00000000E+00  0.00000000E+00  0.00000000E+00
  0.00000000E+00  0.00000000E+00  0.00000000E+00
  0.00000000E+00  0.00000000E+00  0.00000000E+00
  0.00000000E+00  0.00000000E+00  0.00000000E+00
  0.00000000E+00  0.00000000E+00  0.00000000E+00
  0.00000000E+00  0.00000000E+00  0.00000000E+00
  0.00000000E+00  0.00000000E+00  0.00000000E+00
  0.00000000E+00  0.00000000E+00  0.00000000E+00
  0.00000000E+00  0.00000000E+00  0.00000000E+00
  0.00000000E+00  0.00000000E+00  0.00000000E+00
  0.00000000E+00  0.00000000E+00  0.00000000E+00
  0.00000000E+00  0.00000000E+00  0.00000000E+00
  0.00000000E+00  0.00000000E+00  0.00000000E+00
  0.00000000E+00  0.00000000E+00  0.00000000E+00
  0.00000000E+00  0.00000000E+00  0.00000000E+00
  0.00000000E+00  0.00000000E+00  0.00000000E+00
  0.00000000E+00  0.00000000E+00  0.00000000E+00
  0.00000000E+00  0.00000000E+00  0.00000000E+00
  0.00000000E+00  0.00000000E+00  0.00000000E+00
  0.00000000E+00  0.00000000E+00  0.00000000E+00
  0.00000000E+00  0.00000000E+00  0.00000000E+00
  0.00000000E+00  0.00000000E+00  0.00000000E+00
  0.00000000E+00  0.00000000E+00  0.00000000E+00
  0.00000000E+00  0.00000000E+00  0.00000000E+00
  0.00000000E+00  0.00000000E+00  0.00000000E+00
  0.00000000E+00  0.00000000E+00  0.00000000E+00
  0.00000000E+00  0.00000000E+00  0.00000000E+00
  0.00000000E+00  0.00000000E+00  0.00000000E+00
  0.00000000E+00  0.00000000E+00  0.00000000E+00
  0.00000000E+00  0.00000000E+00  0.00000000E+00
  0.00000000E+00  0.00000000E+00  0.00000000E+00
  0.00000000E+00  0.00000000E+00  0.00000000E+00
  0.00000000E+00  0.00000000E+00  0.00000000E+00
  0.00000000E+00  0.00000000E+00  0.00000000E+00
  0.00000000E+00  0.00000000E+00  0.00000000E+00
  0.00000000E+00  0.00000000E+00  0.00000000E+00
