Pt48 C6 H2 Br4                          
    1.000000000000000     
    11.2480068000000006    0.0000000000000000    0.0000000000000000
     0.0000000000000000   15.9070838000000006    0.0000000000000000
     0.0000000000000000    0.0000000000000000   15.6801584999999992
   Pt   C    H    Br
    48     6     2     4
Selective dynamics
Direct
  0.2514486762786348  0.2534546763121881  0.4045997791622824   T   T   T
  0.2491148224211841  0.4979761020890194  0.3932886186122460   T   T   T
  0.2504544040118191  0.7496436131210942  0.3992926453071064   T   T   T
  0.2509640686760122  0.9994580187123390  0.4036566694640698   T   T   T
  0.5000848187127360  0.2531161029480486  0.4009021830175143   T   T   T
  0.5002427768437627  0.4999049836891345  0.3859391667095480   T   T   T
  0.5023867388421124  0.7498308433239558  0.4034155103373180   T   T   T
  0.5000712051474636  0.9992136793079922  0.4028007166574739   T   T   T
  0.7504182755400990  0.2557865448982781  0.4071259138665226   T   T   T
  0.7505117880685219  0.4993524728251018  0.3918285556202008   T   T   T
  0.7534860066917730  0.7475476033094424  0.4069385676500090   T   T   T
  0.7512311998945123  0.9997476666849678  0.4007936850892406   T   T   T
  0.9990089229978807  0.2539695507275894  0.4059827016288153   T   T   T
  0.0017794205503776  0.4982725432145259  0.3915898479058200   T   T   T
  0.0003001300792818  0.7465885792959526  0.4070300415341492   T   T   T
  0.0011187065337666  0.9999328341166489  0.4024433988855520   T   T   T
  0.1263193940788909  0.1274507096288673  0.4870505163289920   T   T   T
  0.1269065075418325  0.3770928729873404  0.4919512223026175   T   T   T
  0.1302734835972572  0.6184052460744525  0.4904557648011050   T   T   T
  0.1264056468744386  0.8739213187736041  0.4891172891337590   T   T   T
  0.3731521282346435  0.1261865027415539  0.4881606099251172   T   T   T
  0.3737910458522364  0.3859046152794221  0.4934938304675214   T   T   T
  0.3780498151896623  0.6189210298863514  0.4862569185475465   T   T   T
  0.3766668803568862  0.8731547176664165  0.4899597229899939   T   T   T
  0.6263249721295452  0.1276702751998471  0.4850466269866018   T   T   T
  0.6179430969487498  0.3861138807727045  0.4947930246513508   T   T   T
  0.6304716278252585  0.6232049076034585  0.4913771060142125   T   T   T
  0.6282946239426010  0.8742701316715440  0.4890807173874094   T   T   T
  0.8794437779488717  0.1268079646080622  0.4881434022546074   T   T   T
  0.8739222037793155  0.3843585178277138  0.4947114225736513   T   T   T
  0.8792444006721567  0.6135597811931817  0.4933622615825044   T   T   T
  0.8780659696883717  0.8746498752314906  0.4890857969526365   T   T   T
  0.1250000000000000  0.1250000003143228  0.3188743277052950   F   F   F
  0.1250000000000000  0.3750000003143228  0.3188743277052950   F   F   F
  0.1250000008890453  0.6250000009429755  0.3188743277052950   F   F   F
  0.1250000008890453  0.8750000009429755  0.3188743277052950   F   F   F
  0.3750000008890453  0.1250000003143228  0.3188743277052950   F   F   F
  0.3750000008890453  0.3750000003143228  0.3188743277052950   F   F   F
  0.3750000008890453  0.6250000009429755  0.3188743277052950   F   F   F
  0.3750000008890453  0.8750000009429755  0.3188743277052950   F   F   F
  0.6250000017780906  0.1250000003143228  0.3188743277052950   F   F   F
  0.6250000017780906  0.3750000003143228  0.3188743277052950   F   F   F
  0.6250000017780906  0.6250000009429755  0.3188743277052950   F   F   F
  0.6250000026671358  0.8750000009429755  0.3188743277052950   F   F   F
  0.8750000026671358  0.1250000003143228  0.3188743277052950   F   F   F
  0.8750000026671358  0.3750000003143228  0.3188743277052950   F   F   F
  0.8750000035561882  0.6250000009429755  0.3188743277052950   F   F   F
  0.8750000026671358  0.8750000009429755  0.3188743277052950   F   F   F
  0.4208579568281650  0.4604554697653356  0.5986335802765552   T   T   T
  0.3630737077046291  0.5469624635136796  0.5971759244577299   T   T   T
  0.4254624907116451  0.6262843361186654  0.6146291535622197   T   T   T
  0.5571377710836316  0.6210549683224968  0.6188482628145664   T   T   T
  0.6024694252210878  0.5432034124948046  0.5882722596041035   T   T   T
  0.5518821239575047  0.4661813158533405  0.5792031267067514   T   T   T
  0.3956767277367916  0.4226598770128405  0.6547307068441910   T   T   T
  0.6051151295070127  0.6614989102457116  0.6635038390179702   T   T   T
  0.1881289937605146  0.5443848777883389  0.6245637092348915   T   T   T
  0.3564717235672106  0.7193698598260809  0.6761831260121625   T   T   T
  0.8819678044615813  0.4992288599949219  0.6029357438001384   T   T   T
  0.6286173326116966  0.1420551718413634  0.6359032551437309   T   T   T
 
  0.00000000E+00  0.00000000E+00  0.00000000E+00
  0.00000000E+00  0.00000000E+00  0.00000000E+00
  0.00000000E+00  0.00000000E+00  0.00000000E+00
  0.00000000E+00  0.00000000E+00  0.00000000E+00
  0.00000000E+00  0.00000000E+00  0.00000000E+00
  0.00000000E+00  0.00000000E+00  0.00000000E+00
  0.00000000E+00  0.00000000E+00  0.00000000E+00
  0.00000000E+00  0.00000000E+00  0.00000000E+00
  0.00000000E+00  0.00000000E+00  0.00000000E+00
  0.00000000E+00  0.00000000E+00  0.00000000E+00
  0.00000000E+00  0.00000000E+00  0.00000000E+00
  0.00000000E+00  0.00000000E+00  0.00000000E+00
  0.00000000E+00  0.00000000E+00  0.00000000E+00
  0.00000000E+00  0.00000000E+00  0.00000000E+00
  0.00000000E+00  0.00000000E+00  0.00000000E+00
  0.00000000E+00  0.00000000E+00  0.00000000E+00
  0.00000000E+00  0.00000000E+00  0.00000000E+00
  0.00000000E+00  0.00000000E+00  0.00000000E+00
  0.00000000E+00  0.00000000E+00  0.00000000E+00
  0.00000000E+00  0.00000000E+00  0.00000000E+00
  0.00000000E+00  0.00000000E+00  0.00000000E+00
  0.00000000E+00  0.00000000E+00  0.00000000E+00
  0.00000000E+00  0.00000000E+00  0.00000000E+00
  0.00000000E+00  0.00000000E+00  0.00000000E+00
  0.00000000E+00  0.00000000E+00  0.00000000E+00
  0.00000000E+00  0.00000000E+00  0.00000000E+00
  0.00000000E+00  0.00000000E+00  0.00000000E+00
  0.00000000E+00  0.00000000E+00  0.00000000E+00
  0.00000000E+00  0.00000000E+00  0.00000000E+00
  0.00000000E+00  0.00000000E+00  0.00000000E+00
  0.00000000E+00  0.00000000E+00  0.00000000E+00
  0.00000000E+00  0.00000000E+00  0.00000000E+00
  0.00000000E+00  0.00000000E+00  0.00000000E+00
  0.00000000E+00  0.00000000E+00  0.00000000E+00
  0.00000000E+00  0.00000000E+00  0.00000000E+00
  0.00000000E+00  0.00000000E+00  0.00000000E+00
  0.00000000E+00  0.00000000E+00  0.00000000E+00
  0.00000000E+00  0.00000000E+00  0.00000000E+00
  0.00000000E+00  0.00000000E+00  0.00000000E+00
  0.00000000E+00  0.00000000E+00  0.00000000E+00
  0.00000000E+00  0.00000000E+00  0.00000000E+00
  0.00000000E+00  0.00000000E+00  0.00000000E+00
  0.00000000E+00  0.00000000E+00  0.00000000E+00
  0.00000000E+00  0.00000000E+00  0.00000000E+00
  0.00000000E+00  0.00000000E+00  0.00000000E+00
  0.00000000E+00  0.00000000E+00  0.00000000E+00
  0.00000000E+00  0.00000000E+00  0.00000000E+00
  0.00000000E+00  0.00000000E+00  0.00000000E+00
  0.00000000E+00  0.00000000E+00  0.00000000E+00
  0.00000000E+00  0.00000000E+00  0.00000000E+00
  0.00000000E+00  0.00000000E+00  0.00000000E+00
  0.00000000E+00  0.00000000E+00  0.00000000E+00
  0.00000000E+00  0.00000000E+00  0.00000000E+00
  0.00000000E+00  0.00000000E+00  0.00000000E+00
  0.00000000E+00  0.00000000E+00  0.00000000E+00
  0.00000000E+00  0.00000000E+00  0.00000000E+00
  0.00000000E+00  0.00000000E+00  0.00000000E+00
  0.00000000E+00  0.00000000E+00  0.00000000E+00
  0.00000000E+00  0.00000000E+00  0.00000000E+00
  0.00000000E+00  0.00000000E+00  0.00000000E+00
