Ir48 C4 N2 F4                           
    1.000000000000000     
    10.9622135000000007    0.0000000000000000    0.0000000000000000
     0.0000000000000000   10.9622135000000007    0.0000000000000000
     0.0000000000000000    0.0000000000000000   16.7325000400000015
   Ir   C    N    F 
    48     4     2     4
Selective dynamics
Direct
 -0.0009097181140303  0.2494382025341328  0.4093844129623653   T   T   T
  0.0000075246151833  0.5000007485672189  0.4093705352333485   T   T   T
  0.0009164348731491  0.7505718969236931  0.4093792829601438   T   T   T
  0.0000042790077825  0.0000007899167708  0.4093886140770957   T   T   T
  0.2505348597100504  0.2505294932087151  0.4102154616009288   T   T   T
  0.2507452406797433  0.4997373237502865  0.4101796289282427   T   T   T
  0.2527860803886831  0.7472056123794617  0.4117888269813814   T   T   T
  0.2494262999175721 -0.0009024438751608  0.4093731447807625   T   T   T
  0.4997311408570795  0.2507566076555132  0.4101764151257604   T   T   T
  0.5000079234112037  0.5000044664277709  0.4110179602855588   T   T   T
  0.5002696582583921  0.7492398826257093  0.4101752943200996   T   T   T
  0.4999893390134591  0.0000145182251864  0.4093578683078589   T   T   T
  0.7472154416512499  0.2528067834619132  0.4117907956725954   T   T   T
  0.7492421664818892  0.5002632929514593  0.4101802920745193   T   T   T
  0.7494699877745707  0.7494624773569976  0.4102149018810586   T   T   T
  0.7505826022580085  0.0009160689234968  0.4093794351012310   T   T   T
  0.1248306726970504  0.1248357939538974  0.5210942241786037   T   T   T
  0.1224682073465727  0.3745057948463711  0.5209269662096945   T   T   T
  0.1233544750924871  0.6247327063682991  0.5218102005041338   T   T   T
  0.1249500116484548  0.8750521554900123  0.5210897862890034   T   T   T
  0.3745003855620195  0.1224760974247677  0.5209223912133147   T   T   T
  0.3719075253847508  0.3719047870336771  0.5227121597774756   T   T   T
  0.3741489253315076  0.6258504075891403  0.5312223768235663   T   T   T
  0.3752662954321194  0.8766514804534696  0.5218106843595163   T   T   T
  0.6247398906981670  0.1233582848921890  0.5218083033829053   T   T   T
  0.6258541630405812  0.3741443231365601  0.5312462633757669   T   T   T
  0.6280978619771151  0.6281001791877852  0.5227159906468120   T   T   T
  0.6255039569043553  0.8775279556866622  0.5209353022519716   T   T   T
  0.8750524303392101  0.1249581825448814  0.5210960166207873   T   T   T
  0.8766549343088844  0.3752665309510537  0.5218024705590276   T   T   T
  0.8775350320398845  0.6255015542312607  0.5209248610586433   T   T   T
  0.8751739355787531  0.8751775697186546  0.5210959839178445   T   T   T
  0.1250000002280558  0.1250000002280558  0.2988196616194330   F   F   F
  0.1250000002280558  0.3749999997719442  0.2988196616194330   F   F   F
  0.1250000002280558  0.6249999993158326  0.2988196616194330   F   F   F
  0.1250000002280558  0.8749999988597210  0.2988196616194330   F   F   F
  0.3749999997719442  0.1250000002280558  0.2988196616194330   F   F   F
  0.3749999997719442  0.3749999997719442  0.2988196616194330   F   F   F
  0.3749999997719442  0.6249999993158326  0.2988196616194330   F   F   F
  0.3749999997719442  0.8749999988597210  0.2988196616194330   F   F   F
  0.6249999993158326  0.1250000002280558  0.2988196616194330   F   F   F
  0.6249999993158326  0.3749999997719442  0.2988196616194330   F   F   F
  0.6249999993158326  0.6249999993158326  0.2988196616194330   F   F   F
  0.6249999993158326  0.8749999988597210  0.2988196616194330   F   F   F
  0.8749999988597210  0.1250000002280558  0.2988196616194330   F   F   F
  0.8749999988597210  0.3749999997719442  0.2988196616194330   F   F   F
  0.8749999988597210  0.6249999993158326  0.2988196616194330   F   F   F
  0.8749999988597210  0.8749999988597210  0.2988196616194330   F   F   F
  0.5301120004031116  0.3763640209494736  0.6468746714406858   T   T   T
  0.6236079482781857  0.4698444972560052  0.6468657392840929   T   T   T
  0.4698744777896260  0.6236176858608236  0.6468623927700088   T   T   T
  0.3764201686569725  0.5301227361228801  0.6468443854869376   T   T   T
  0.5935624633356704  0.5935786164186742  0.6422630960340745   T   T   T
  0.4064332311883366  0.4064769396336008  0.6422721989131529   T   T   T
  0.2728219093050062  0.5511108470976792  0.6903631194028316   T   T   T
  0.4489452160869238  0.7271924029451036  0.6903472815165879   T   T   T
  0.5510687356449617  0.2728344764272583  0.6903714099997996   T   T   T
  0.7271657531781831  0.4488978283771939  0.6903774280384023   T   T   T
 
  0.00000000E+00  0.00000000E+00  0.00000000E+00
  0.00000000E+00  0.00000000E+00  0.00000000E+00
  0.00000000E+00  0.00000000E+00  0.00000000E+00
  0.00000000E+00  0.00000000E+00  0.00000000E+00
  0.00000000E+00  0.00000000E+00  0.00000000E+00
  0.00000000E+00  0.00000000E+00  0.00000000E+00
  0.00000000E+00  0.00000000E+00  0.00000000E+00
  0.00000000E+00  0.00000000E+00  0.00000000E+00
  0.00000000E+00  0.00000000E+00  0.00000000E+00
  0.00000000E+00  0.00000000E+00  0.00000000E+00
  0.00000000E+00  0.00000000E+00  0.00000000E+00
  0.00000000E+00  0.00000000E+00  0.00000000E+00
  0.00000000E+00  0.00000000E+00  0.00000000E+00
  0.00000000E+00  0.00000000E+00  0.00000000E+00
  0.00000000E+00  0.00000000E+00  0.00000000E+00
  0.00000000E+00  0.00000000E+00  0.00000000E+00
  0.00000000E+00  0.00000000E+00  0.00000000E+00
  0.00000000E+00  0.00000000E+00  0.00000000E+00
  0.00000000E+00  0.00000000E+00  0.00000000E+00
  0.00000000E+00  0.00000000E+00  0.00000000E+00
  0.00000000E+00  0.00000000E+00  0.00000000E+00
  0.00000000E+00  0.00000000E+00  0.00000000E+00
  0.00000000E+00  0.00000000E+00  0.00000000E+00
  0.00000000E+00  0.00000000E+00  0.00000000E+00
  0.00000000E+00  0.00000000E+00  0.00000000E+00
  0.00000000E+00  0.00000000E+00  0.00000000E+00
  0.00000000E+00  0.00000000E+00  0.00000000E+00
  0.00000000E+00  0.00000000E+00  0.00000000E+00
  0.00000000E+00  0.00000000E+00  0.00000000E+00
  0.00000000E+00  0.00000000E+00  0.00000000E+00
  0.00000000E+00  0.00000000E+00  0.00000000E+00
  0.00000000E+00  0.00000000E+00  0.00000000E+00
  0.00000000E+00  0.00000000E+00  0.00000000E+00
  0.00000000E+00  0.00000000E+00  0.00000000E+00
  0.00000000E+00  0.00000000E+00  0.00000000E+00
  0.00000000E+00  0.00000000E+00  0.00000000E+00
  0.00000000E+00  0.00000000E+00  0.00000000E+00
  0.00000000E+00  0.00000000E+00  0.00000000E+00
  0.00000000E+00  0.00000000E+00  0.00000000E+00
  0.00000000E+00  0.00000000E+00  0.00000000E+00
  0.00000000E+00  0.00000000E+00  0.00000000E+00
  0.00000000E+00  0.00000000E+00  0.00000000E+00
  0.00000000E+00  0.00000000E+00  0.00000000E+00
  0.00000000E+00  0.00000000E+00  0.00000000E+00
  0.00000000E+00  0.00000000E+00  0.00000000E+00
  0.00000000E+00  0.00000000E+00  0.00000000E+00
  0.00000000E+00  0.00000000E+00  0.00000000E+00
  0.00000000E+00  0.00000000E+00  0.00000000E+00
  0.00000000E+00  0.00000000E+00  0.00000000E+00
  0.00000000E+00  0.00000000E+00  0.00000000E+00
  0.00000000E+00  0.00000000E+00  0.00000000E+00
  0.00000000E+00  0.00000000E+00  0.00000000E+00
  0.00000000E+00  0.00000000E+00  0.00000000E+00
  0.00000000E+00  0.00000000E+00  0.00000000E+00
  0.00000000E+00  0.00000000E+00  0.00000000E+00
  0.00000000E+00  0.00000000E+00  0.00000000E+00
  0.00000000E+00  0.00000000E+00  0.00000000E+00
  0.00000000E+00  0.00000000E+00  0.00000000E+00
