Ir  C  H Br                             
   1.00000000000000     
    10.9622130000000002    0.0000000000000000    0.0000000000000000
    -5.4811069999999997    9.4935550000000006    0.0000000000000000
     0.0000000000000000    0.0000000000000000   24.7129573799999989
   Ir   C    H    Br
    64     6     4     2
Selective dynamics
Direct
  0.7500000643925233  0.7500000284403470  0.3034845196661777   F   F   F
  0.0000000000000000  0.0000000000000000  0.3034845196661777   F   F   F
  0.0000000102134052  0.2500000094801180  0.3034845196661777   F   F   F
  0.0000000213390337  0.5000000189602289  0.3034845196661777   F   F   F
  0.0000000753392229  0.7500000284403470  0.3034845196661777   F   F   F
  0.2500000109466924  0.0000000000000000  0.3034845196661777   F   F   F
  0.2500000211600977  0.2500000094801180  0.3034845196661777   F   F   F
  0.2500000322857332  0.5000000189602289  0.3034845196661777   F   F   F
  0.5000000218933920  0.0000000000000000  0.3034845196661777   F   F   F
  0.5000000321067972  0.2500000094801180  0.3034845196661777   F   F   F
  0.5000000432324256  0.5000000189602289  0.3034845196661777   F   F   F
  0.5000000534458309  0.7500000284403470  0.3034845196661777   F   F   F
  0.7500000328400844  0.0000000000000000  0.3034845196661777   F   F   F
  0.7500000430534897  0.2500000094801180  0.3034845196661777   F   F   F
  0.7500000541791181  0.5000000189602289  0.3034845196661777   F   F   F
  0.2500000424991384  0.7500000284403470  0.3034845196661777   F   F   F
  0.0833330000000032  0.1666669999999968  0.3940302372665698   F   F   F
  0.0833330000000032  0.4166669999999968  0.3940302372665698   F   F   F
  0.0833330000000032  0.6666669999999968  0.3940302372665698   F   F   F
  0.0833330000000032  0.9166669999999968  0.3940302372665698   F   F   F
  0.3333330000000032  0.1666669999999968  0.3940302372665698   F   F   F
  0.3333330000000032  0.4166669999999968  0.3940302372665698   F   F   F
  0.3333330000000032  0.6666669999999968  0.3940302372665698   F   F   F
  0.3333330000000032  0.9166669999999968  0.3940302372665698   F   F   F
  0.5833330000000032  0.1666669999999968  0.3940302372665698   F   F   F
  0.5833330000000032  0.4166669999999968  0.3940302372665698   F   F   F
  0.5833330000000032  0.6666669999999968  0.3940302372665698   F   F   F
  0.5833330000000032  0.9166669999999968  0.3940302372665698   F   F   F
  0.8333330000000032  0.1666669999999968  0.3940302372665698   F   F   F
  0.8333330000000032  0.4166669999999968  0.3940302372665698   F   F   F
  0.8333330000000032  0.6666669999999968  0.3940302372665698   F   F   F
  0.8333330000000032  0.9166669999999968  0.3940302372665698   F   F   F
  0.9973086203870182  0.9966767804756657  0.5721959297164835   T   T   T
  0.9952359369438668  0.2480855564968256  0.5721373538756350   T   T   T
  0.0011874792089341  0.4994719972957845  0.5725898797397606   T   T   T
  0.0006216580976331  0.7489157342311479  0.5727143693881810   T   T   T
  0.2482800423084375  0.9946362359288615  0.5720063116258909   T   T   T
  0.2434728421606410  0.2421851827061567  0.5770585212224928   T   T   T
  0.2508000092838665  0.4994944291769487  0.5765041289556773   T   T   T
  0.2504472088702800  0.7491604922427272  0.5728339612289548   T   T   T
  0.5010883284411075  0.0011942684481484  0.5727516134498896   T   T   T
  0.5002067064192075  0.2498022402928978  0.5772447133733970   T   T   T
  0.5079963897307300  0.5066264037077303  0.5770634166273891   T   T   T
  0.5016928016459252  0.7548634867540917  0.5722085966866339   T   T   T
  0.7503214188560234  0.9999680604020920  0.5728421337375909   T   T   T
  0.7493904661370085  0.2494296409551614  0.5729135966109887   T   T   T
  0.7556943441007792  0.5019099657464939  0.5718970172651001   T   T   T
  0.7534915105931077  0.7527992288007740  0.5723786961549423   T   T   T
  0.1673689687993806  0.0849174620199196  0.4837412862007305   T   T   T
  0.1680538513747572  0.3341409066888760  0.4840961365379734   T   T   T
  0.1679748792506718  0.5818849419943312  0.4839324520397822   T   T   T
  0.1677160015932452  0.8335036223608578  0.4833101093582338   T   T   T
  0.4172011527642688  0.0853472206804414  0.4839305482040084   T   T   T
  0.4160983295408353  0.3339014634840310  0.4851209921685754   T   T   T
  0.4159832333891901  0.5819679391963364  0.4840511243745689   T   T   T
  0.4166552808156985  0.8332915086479989  0.4833760444417415   T   T   T
  0.6665033829731437  0.0833443401251498  0.4833502852408842   T   T   T
  0.6645759815231602  0.3326275235336823  0.4839960015917008   T   T   T
  0.6651667261896391  0.5826355978059102  0.4837185827991274   T   T   T
  0.6662248259071800  0.8324689380680791  0.4833108764857111   T   T   T
  0.9171550723161958  0.0835589216812268  0.4831079194755759   T   T   T
  0.9165744397889569  0.3331207638417467  0.4833647361922997   T   T   T
  0.9164697958662892  0.5823449040029248  0.4830751494358517   T   T   T
  0.9171876686194560  0.8329202892463912  0.4828718933783784   T   T   T
  0.2949456949469917  0.4554324493155907  0.6564158024366689   T   T   T
  0.4510479982095745  0.5253614302298576  0.6596312298077565   T   T   T
  0.5266209836028662  0.4497280990972915  0.6597005300401971   T   T   T
  0.4565192455184353  0.2933810416527609  0.6568620836538134   T   T   T
  0.3000449633346607  0.2234603873559945  0.6596932651210629   T   T   T
  0.2244893578465966  0.2991455100742489  0.6597009341601328   T   T   T
  0.5054773201123636  0.6337987372109924  0.6743739941434511   T   T   T
  0.6350420697681548  0.5044173886881161  0.6745436542590892   T   T   T
  0.2454507802273223  0.1150501374755326  0.6744722763463882   T   T   T
  0.1160177930778230  0.2446002403647408  0.6743734805742501   T   T   T
  0.2200143694699527  0.5341527297568943  0.7104776568193435   T   T   T
  0.5318386482646114  0.2182839076365466  0.7121217082211221   T   T   T
 
  0.00000000E+00  0.00000000E+00  0.00000000E+00
  0.00000000E+00  0.00000000E+00  0.00000000E+00
  0.00000000E+00  0.00000000E+00  0.00000000E+00
  0.00000000E+00  0.00000000E+00  0.00000000E+00
  0.00000000E+00  0.00000000E+00  0.00000000E+00
  0.00000000E+00  0.00000000E+00  0.00000000E+00
  0.00000000E+00  0.00000000E+00  0.00000000E+00
  0.00000000E+00  0.00000000E+00  0.00000000E+00
  0.00000000E+00  0.00000000E+00  0.00000000E+00
  0.00000000E+00  0.00000000E+00  0.00000000E+00
  0.00000000E+00  0.00000000E+00  0.00000000E+00
  0.00000000E+00  0.00000000E+00  0.00000000E+00
  0.00000000E+00  0.00000000E+00  0.00000000E+00
  0.00000000E+00  0.00000000E+00  0.00000000E+00
  0.00000000E+00  0.00000000E+00  0.00000000E+00
  0.00000000E+00  0.00000000E+00  0.00000000E+00
  0.00000000E+00  0.00000000E+00  0.00000000E+00
  0.00000000E+00  0.00000000E+00  0.00000000E+00
  0.00000000E+00  0.00000000E+00  0.00000000E+00
  0.00000000E+00  0.00000000E+00  0.00000000E+00
  0.00000000E+00  0.00000000E+00  0.00000000E+00
  0.00000000E+00  0.00000000E+00  0.00000000E+00
  0.00000000E+00  0.00000000E+00  0.00000000E+00
  0.00000000E+00  0.00000000E+00  0.00000000E+00
  0.00000000E+00  0.00000000E+00  0.00000000E+00
  0.00000000E+00  0.00000000E+00  0.00000000E+00
  0.00000000E+00  0.00000000E+00  0.00000000E+00
  0.00000000E+00  0.00000000E+00  0.00000000E+00
  0.00000000E+00  0.00000000E+00  0.00000000E+00
  0.00000000E+00  0.00000000E+00  0.00000000E+00
  0.00000000E+00  0.00000000E+00  0.00000000E+00
  0.00000000E+00  0.00000000E+00  0.00000000E+00
  0.00000000E+00  0.00000000E+00  0.00000000E+00
  0.00000000E+00  0.00000000E+00  0.00000000E+00
  0.00000000E+00  0.00000000E+00  0.00000000E+00
  0.00000000E+00  0.00000000E+00  0.00000000E+00
  0.00000000E+00  0.00000000E+00  0.00000000E+00
  0.00000000E+00  0.00000000E+00  0.00000000E+00
  0.00000000E+00  0.00000000E+00  0.00000000E+00
  0.00000000E+00  0.00000000E+00  0.00000000E+00
  0.00000000E+00  0.00000000E+00  0.00000000E+00
  0.00000000E+00  0.00000000E+00  0.00000000E+00
  0.00000000E+00  0.00000000E+00  0.00000000E+00
  0.00000000E+00  0.00000000E+00  0.00000000E+00
  0.00000000E+00  0.00000000E+00  0.00000000E+00
  0.00000000E+00  0.00000000E+00  0.00000000E+00
  0.00000000E+00  0.00000000E+00  0.00000000E+00
  0.00000000E+00  0.00000000E+00  0.00000000E+00
  0.00000000E+00  0.00000000E+00  0.00000000E+00
  0.00000000E+00  0.00000000E+00  0.00000000E+00
  0.00000000E+00  0.00000000E+00  0.00000000E+00
  0.00000000E+00  0.00000000E+00  0.00000000E+00
  0.00000000E+00  0.00000000E+00  0.00000000E+00
  0.00000000E+00  0.00000000E+00  0.00000000E+00
  0.00000000E+00  0.00000000E+00  0.00000000E+00
  0.00000000E+00  0.00000000E+00  0.00000000E+00
  0.00000000E+00  0.00000000E+00  0.00000000E+00
  0.00000000E+00  0.00000000E+00  0.00000000E+00
  0.00000000E+00  0.00000000E+00  0.00000000E+00
  0.00000000E+00  0.00000000E+00  0.00000000E+00
  0.00000000E+00  0.00000000E+00  0.00000000E+00
  0.00000000E+00  0.00000000E+00  0.00000000E+00
  0.00000000E+00  0.00000000E+00  0.00000000E+00
  0.00000000E+00  0.00000000E+00  0.00000000E+00
  0.00000000E+00  0.00000000E+00  0.00000000E+00
  0.00000000E+00  0.00000000E+00  0.00000000E+00
  0.00000000E+00  0.00000000E+00  0.00000000E+00
  0.00000000E+00  0.00000000E+00  0.00000000E+00
  0.00000000E+00  0.00000000E+00  0.00000000E+00
  0.00000000E+00  0.00000000E+00  0.00000000E+00
  0.00000000E+00  0.00000000E+00  0.00000000E+00
  0.00000000E+00  0.00000000E+00  0.00000000E+00
  0.00000000E+00  0.00000000E+00  0.00000000E+00
  0.00000000E+00  0.00000000E+00  0.00000000E+00
  0.00000000E+00  0.00000000E+00  0.00000000E+00
  0.00000000E+00  0.00000000E+00  0.00000000E+00
