Ir48 C6 Br2 H4                          
    1.000000000000000     
    10.9622135000000007    0.0000000000000000    0.0000000000000000
     0.0000000000000000   10.9622135000000007    0.0000000000000000
     0.0000000000000000    0.0000000000000000   16.7357802000000007
   Ir   C    Br   H 
    48     6     2     4
Selective dynamics
Direct
  0.9993678679772131  0.2494175019900027  0.4094828771248089   T   T   T
  0.9999989251919814  0.4999996865673708  0.4093592952457072   T   T   T
  0.0006335236520201  0.7505828656917330  0.4094866863271918   T   T   T
  0.0000011747855169  0.0000013974422259  0.4094577489549067   T   T   T
  0.2502701977520658  0.2502691789102442  0.4101851191409907   T   T   T
  0.2511016310889289  0.4998457012188879  0.4109788381120509   T   T   T
  0.2522087046432375  0.7477936728260346  0.4116256487271599   T   T   T
  0.2494147057377916  0.9993694801203645  0.4094866839176348   T   T   T
  0.4998439974507107  0.2511020928936034  0.4109806067577253   T   T   T
  0.4999987766858069  0.4999975704341111  0.4106885603314723   T   T   T
  0.5001518918772021  0.7489014657050461  0.4109790013466750   T   T   T
  0.5000005793938342  0.0000010694481674  0.4093608895533691   T   T   T
  0.7477914400910279  0.2522091254610714  0.4116228120521086   T   T   T
  0.7489010562435041  0.5001520264041943  0.4109779548291286   T   T   T
  0.7497308677232937  0.7497308547725297  0.4101866057129797   T   T   T
  0.7505818452666801  0.0006358093769521  0.4094853430596146   T   T   T
  0.1248110708668193  0.1248114684321635  0.5212601725267021   T   T   T
  0.1229566428311060  0.3747540104239206  0.5216307727478195   T   T   T
  0.1227247528936175  0.6248450765605966  0.5216733248638334   T   T   T
  0.1249459900501932  0.8750558134858579  0.5212585462014800   T   T   T
  0.3747521751711247  0.1229577658122523  0.5216295339979311   T   T   T
  0.3736726554562537  0.3736697128730739  0.5225779546063976   T   T   T
  0.3726262944865795  0.6273756115046396  0.5288717909849012   T   T   T
  0.3751552250646668  0.8772776536056099  0.5216717285675898   T   T   T
  0.6248423444541018  0.1227245699829140  0.5216723084133292   T   T   T
  0.6273778529259673  0.3726266855436293  0.5288801698995229   T   T   T
  0.6263337514201481  0.6263299894209453  0.5225763524192502   T   T   T
  0.6252454388049102  0.8770443838402784  0.5216318400184292   T   T   T
  0.8750539956596981  0.1249470676882538  0.5212580932257040   T   T   T
  0.8772758011400370  0.3751572924761675  0.5216716842460372   T   T   T
  0.8770429115316460  0.6252465081574670  0.5216306074079640   T   T   T
  0.8751903372233443  0.8751907879511904  0.5212625613496726   T   T   T
  0.1250000002280558  0.1250000002280558  0.2987610939106418   F   F   F
  0.1250000002280558  0.3749999997719442  0.2987610939106418   F   F   F
  0.1250000002280558  0.6249999993158326  0.2987610939106418   F   F   F
  0.1250000002280558  0.8749999988597210  0.2987610939106418   F   F   F
  0.3749999997719442  0.1250000002280558  0.2987610939106418   F   F   F
  0.3749999997719442  0.3749999997719442  0.2987610939106418   F   F   F
  0.3749999997719442  0.6249999993158326  0.2987610939106418   F   F   F
  0.3749999997719442  0.8749999988597210  0.2987610939106418   F   F   F
  0.6249999993158326  0.1250000002280558  0.2987610939106418   F   F   F
  0.6249999993158326  0.3749999997719442  0.2987610939106418   F   F   F
  0.6249999993158326  0.6249999993158326  0.2987610939106418   F   F   F
  0.6249999993158326  0.8749999988597210  0.2987610939106418   F   F   F
  0.8749999988597210  0.1250000002280558  0.2987610939106418   F   F   F
  0.8749999988597210  0.3749999997719442  0.2987610939106418   F   F   F
  0.8749999988597210  0.6249999993158326  0.2987610939106418   F   F   F
  0.8749999988597210  0.8749999988597210  0.2987610939106418   F   F   F
  0.5953799791985546  0.5953175184768327  0.6435494505296191   T   T   T
  0.6278466602247477  0.4643659562981455  0.6497858436786501   T   T   T
  0.5356588396511341  0.3721400564433779  0.6497967958942539   T   T   T
  0.4046259381040684  0.4046269773826339  0.6435535287528182   T   T   T
  0.3721540061572384  0.5356544810365449  0.6497954098147147   T   T   T
  0.4644266282325091  0.6278608943508672  0.6497848586044697   T   T   T
  0.7003364064503970  0.7002603025179681  0.7100280674679738   T   T   T
  0.2997098441261485  0.2997422116153103  0.7100175605961283   T   T   T
  0.7165776271723061  0.4432220175093207  0.6758135425072922   T   T   T
  0.5567232928060193  0.2834248133031565  0.6758062075947748   T   T   T
  0.2834749082074239  0.5567608759987763  0.6758084950675283   T   T   T
  0.4433047901010738  0.7165515729092391  0.6757863353214901   T   T   T
 
  0.00000000E+00  0.00000000E+00  0.00000000E+00
  0.00000000E+00  0.00000000E+00  0.00000000E+00
  0.00000000E+00  0.00000000E+00  0.00000000E+00
  0.00000000E+00  0.00000000E+00  0.00000000E+00
  0.00000000E+00  0.00000000E+00  0.00000000E+00
  0.00000000E+00  0.00000000E+00  0.00000000E+00
  0.00000000E+00  0.00000000E+00  0.00000000E+00
  0.00000000E+00  0.00000000E+00  0.00000000E+00
  0.00000000E+00  0.00000000E+00  0.00000000E+00
  0.00000000E+00  0.00000000E+00  0.00000000E+00
  0.00000000E+00  0.00000000E+00  0.00000000E+00
  0.00000000E+00  0.00000000E+00  0.00000000E+00
  0.00000000E+00  0.00000000E+00  0.00000000E+00
  0.00000000E+00  0.00000000E+00  0.00000000E+00
  0.00000000E+00  0.00000000E+00  0.00000000E+00
  0.00000000E+00  0.00000000E+00  0.00000000E+00
  0.00000000E+00  0.00000000E+00  0.00000000E+00
  0.00000000E+00  0.00000000E+00  0.00000000E+00
  0.00000000E+00  0.00000000E+00  0.00000000E+00
  0.00000000E+00  0.00000000E+00  0.00000000E+00
  0.00000000E+00  0.00000000E+00  0.00000000E+00
  0.00000000E+00  0.00000000E+00  0.00000000E+00
  0.00000000E+00  0.00000000E+00  0.00000000E+00
  0.00000000E+00  0.00000000E+00  0.00000000E+00
  0.00000000E+00  0.00000000E+00  0.00000000E+00
  0.00000000E+00  0.00000000E+00  0.00000000E+00
  0.00000000E+00  0.00000000E+00  0.00000000E+00
  0.00000000E+00  0.00000000E+00  0.00000000E+00
  0.00000000E+00  0.00000000E+00  0.00000000E+00
  0.00000000E+00  0.00000000E+00  0.00000000E+00
  0.00000000E+00  0.00000000E+00  0.00000000E+00
  0.00000000E+00  0.00000000E+00  0.00000000E+00
  0.00000000E+00  0.00000000E+00  0.00000000E+00
  0.00000000E+00  0.00000000E+00  0.00000000E+00
  0.00000000E+00  0.00000000E+00  0.00000000E+00
  0.00000000E+00  0.00000000E+00  0.00000000E+00
  0.00000000E+00  0.00000000E+00  0.00000000E+00
  0.00000000E+00  0.00000000E+00  0.00000000E+00
  0.00000000E+00  0.00000000E+00  0.00000000E+00
  0.00000000E+00  0.00000000E+00  0.00000000E+00
  0.00000000E+00  0.00000000E+00  0.00000000E+00
  0.00000000E+00  0.00000000E+00  0.00000000E+00
  0.00000000E+00  0.00000000E+00  0.00000000E+00
  0.00000000E+00  0.00000000E+00  0.00000000E+00
  0.00000000E+00  0.00000000E+00  0.00000000E+00
  0.00000000E+00  0.00000000E+00  0.00000000E+00
  0.00000000E+00  0.00000000E+00  0.00000000E+00
  0.00000000E+00  0.00000000E+00  0.00000000E+00
  0.00000000E+00  0.00000000E+00  0.00000000E+00
  0.00000000E+00  0.00000000E+00  0.00000000E+00
  0.00000000E+00  0.00000000E+00  0.00000000E+00
  0.00000000E+00  0.00000000E+00  0.00000000E+00
  0.00000000E+00  0.00000000E+00  0.00000000E+00
  0.00000000E+00  0.00000000E+00  0.00000000E+00
  0.00000000E+00  0.00000000E+00  0.00000000E+00
  0.00000000E+00  0.00000000E+00  0.00000000E+00
  0.00000000E+00  0.00000000E+00  0.00000000E+00
  0.00000000E+00  0.00000000E+00  0.00000000E+00
  0.00000000E+00  0.00000000E+00  0.00000000E+00
  0.00000000E+00  0.00000000E+00  0.00000000E+00
