Pd48 C6 F6                              
    1.000000000000000     
    11.1922750000000004    0.0000000000000000    0.0000000000000000
    -5.5961369999999997    9.6927939999999992    0.0000000000000000
     0.0000000000000000    0.0000000000000000   17.5692270000000015
   Pd   C    F 
    48     6     6
Selective dynamics
Direct
  0.0833330000000032  0.1666669999999968  0.3415060000000025   F   F   F
  0.0833330000000032  0.4166669999999968  0.3415060000000025   F   F   F
  0.0833330000000032  0.6666669999999968  0.3415060000000025   F   F   F
  0.0833330000000032  0.9166669999999968  0.3415060000000025   F   F   F
  0.3333330000000032  0.1666669999999968  0.3415060000000025   F   F   F
  0.3333330000000032  0.4166669999999968  0.3415060000000025   F   F   F
  0.3333330000000032  0.6666669999999968  0.3415060000000025   F   F   F
  0.3333330000000032  0.9166669999999968  0.3415060000000025   F   F   F
  0.5833330000000032  0.1666669999999968  0.3415060000000025   F   F   F
  0.5833330000000032  0.4166669999999968  0.3415060000000025   F   F   F
  0.5833330000000032  0.6666669999999968  0.3415060000000025   F   F   F
  0.5833330000000032  0.9166669999999968  0.3415060000000025   F   F   F
  0.8333330000000032  0.1666669999999968  0.3415060000000025   F   F   F
  0.8333330000000032  0.4166669999999968  0.3415060000000025   F   F   F
  0.8333330000000032  0.6666669999999968  0.3415060000000025   F   F   F
  0.8333330000000032  0.9166669999999968  0.3415060000000025   F   F   F
  0.2495443268042123  0.9993785215620576  0.6004989567258292   T   T   T
  0.2497831343888421  0.2498934173366791  0.5979529026792036   T   T   T
  0.2495410893619194  0.5001634091825338  0.6004866645051123   T   T   T
  0.2500159099356694  0.7500066298188273  0.6009278068572144   T   T   T
  0.4999685770095539  0.9997723111231309  0.6009056045423549   T   T   T
  0.5000776359406842  0.2496390551866128  0.5989253401641790   T   T   T
  0.5000731904292053  0.5004371336642990  0.5989221051055935   T   T   T
  0.4999694881490555  0.7501954761464162  0.6009038576356573   T   T   T
  0.7500403407309051  0.0000186584222561  0.6009753491787677   T   T   T
  0.7504108320653913  0.2498741191943097  0.6005527400968234   T   T   T
  0.7506385160892606  0.5003184243704908  0.5980186033107628   T   T   T
  0.7504126355274607  0.7505405656452027  0.6005435853245800   T   T   T
  0.9999399928162447  0.9999771974333953  0.6009192103390006   T   T   T
  0.9999423968028367  0.2499664138491156  0.6009251495596644   T   T   T
  0.0001318350318442  0.5001755153577960  0.6008597077590849   T   T   T
  0.0001270697514286  0.7499504720677947  0.6008696946425474   T   T   T
  0.1660594026501769  0.0822892694193698  0.4704133003265341   T   T   T
  0.1660594638961683  0.3337659147468841  0.4704150189985654   T   T   T
  0.1666831258062800  0.5836618777263070  0.4710408342774528   T   T   T
  0.1666855018182147  0.8330254253446228  0.4710406012093955   T   T   T
  0.4162559244408044  0.0825392101180498  0.4707546868394914   T   T   T
  0.4170079223889047  0.3335026038959796  0.4697846783932107   T   T   T
  0.4162602046117527  0.5837182268734864  0.4707550370079829   T   T   T
  0.4166601525633453  0.8333316384952028  0.4711450902297898   T   T   T
  0.6665827720683453  0.0830294412164676  0.4711268322936277   T   T   T
  0.6667804716651062  0.3327209286906836  0.4701276280673241   T   T   T
  0.6667842237699020  0.5840592706428609  0.4701290689005901   T   T   T
  0.6665819475700019  0.8335529460563862  0.4711272738406365   T   T   T
  0.9167702955204362  0.0833845583909323  0.4712156204024538   T   T   T
  0.9166644973787044  0.3334591052247546  0.4711074945452012   T   T   T
  0.9177318766993139  0.5838691928793054  0.4703740544013613   T   T   T
  0.9166651584504919  0.8332032507635319  0.4711056829651099   T   T   T
  0.5721366662105467  0.3028852339729013  0.7724280199965392   T   T   T
  0.4278488121030009  0.2307327943112014  0.7724284328986428   T   T   T
  0.3558712092713066  0.3029297615388202  0.7730367416726693   T   T   T
  0.4278427133727618  0.4470994681892080  0.7724267838982541   T   T   T
  0.5721248174939646  0.5192559962923795  0.7724300014226770   T   T   T
  0.6441048727011207  0.4470609239639742  0.7730392519952503   T   T   T
  0.6415973612419421  0.2335986211767747  0.7752051849107531   T   T   T
  0.3584536866946166  0.0919950177578599  0.7752211897958361   T   T   T
  0.2171038759595163  0.2335658834954657  0.7765518792804471   T   T   T
  0.3584050736666526  0.5164089584828702  0.7752208688361293   T   T   T
  0.6415497452814094  0.6580011254228069  0.7752059801047011   T   T   T
  0.7828710423923440  0.5164216043847034  0.7765413754987449   T   T   T
 
  0.00000000E+00  0.00000000E+00  0.00000000E+00
  0.00000000E+00  0.00000000E+00  0.00000000E+00
  0.00000000E+00  0.00000000E+00  0.00000000E+00
  0.00000000E+00  0.00000000E+00  0.00000000E+00
  0.00000000E+00  0.00000000E+00  0.00000000E+00
  0.00000000E+00  0.00000000E+00  0.00000000E+00
  0.00000000E+00  0.00000000E+00  0.00000000E+00
  0.00000000E+00  0.00000000E+00  0.00000000E+00
  0.00000000E+00  0.00000000E+00  0.00000000E+00
  0.00000000E+00  0.00000000E+00  0.00000000E+00
  0.00000000E+00  0.00000000E+00  0.00000000E+00
  0.00000000E+00  0.00000000E+00  0.00000000E+00
  0.00000000E+00  0.00000000E+00  0.00000000E+00
  0.00000000E+00  0.00000000E+00  0.00000000E+00
  0.00000000E+00  0.00000000E+00  0.00000000E+00
  0.00000000E+00  0.00000000E+00  0.00000000E+00
  0.00000000E+00  0.00000000E+00  0.00000000E+00
  0.00000000E+00  0.00000000E+00  0.00000000E+00
  0.00000000E+00  0.00000000E+00  0.00000000E+00
  0.00000000E+00  0.00000000E+00  0.00000000E+00
  0.00000000E+00  0.00000000E+00  0.00000000E+00
  0.00000000E+00  0.00000000E+00  0.00000000E+00
  0.00000000E+00  0.00000000E+00  0.00000000E+00
  0.00000000E+00  0.00000000E+00  0.00000000E+00
  0.00000000E+00  0.00000000E+00  0.00000000E+00
  0.00000000E+00  0.00000000E+00  0.00000000E+00
  0.00000000E+00  0.00000000E+00  0.00000000E+00
  0.00000000E+00  0.00000000E+00  0.00000000E+00
  0.00000000E+00  0.00000000E+00  0.00000000E+00
  0.00000000E+00  0.00000000E+00  0.00000000E+00
  0.00000000E+00  0.00000000E+00  0.00000000E+00
  0.00000000E+00  0.00000000E+00  0.00000000E+00
  0.00000000E+00  0.00000000E+00  0.00000000E+00
  0.00000000E+00  0.00000000E+00  0.00000000E+00
  0.00000000E+00  0.00000000E+00  0.00000000E+00
  0.00000000E+00  0.00000000E+00  0.00000000E+00
  0.00000000E+00  0.00000000E+00  0.00000000E+00
  0.00000000E+00  0.00000000E+00  0.00000000E+00
  0.00000000E+00  0.00000000E+00  0.00000000E+00
  0.00000000E+00  0.00000000E+00  0.00000000E+00
  0.00000000E+00  0.00000000E+00  0.00000000E+00
  0.00000000E+00  0.00000000E+00  0.00000000E+00
  0.00000000E+00  0.00000000E+00  0.00000000E+00
  0.00000000E+00  0.00000000E+00  0.00000000E+00
  0.00000000E+00  0.00000000E+00  0.00000000E+00
  0.00000000E+00  0.00000000E+00  0.00000000E+00
  0.00000000E+00  0.00000000E+00  0.00000000E+00
  0.00000000E+00  0.00000000E+00  0.00000000E+00
  0.00000000E+00  0.00000000E+00  0.00000000E+00
  0.00000000E+00  0.00000000E+00  0.00000000E+00
  0.00000000E+00  0.00000000E+00  0.00000000E+00
  0.00000000E+00  0.00000000E+00  0.00000000E+00
  0.00000000E+00  0.00000000E+00  0.00000000E+00
  0.00000000E+00  0.00000000E+00  0.00000000E+00
  0.00000000E+00  0.00000000E+00  0.00000000E+00
  0.00000000E+00  0.00000000E+00  0.00000000E+00
  0.00000000E+00  0.00000000E+00  0.00000000E+00
  0.00000000E+00  0.00000000E+00  0.00000000E+00
  0.00000000E+00  0.00000000E+00  0.00000000E+00
  0.00000000E+00  0.00000000E+00  0.00000000E+00
