Ir  C Br                                
   1.00000000000000     
    10.9622130000000002    0.0000000000000000    0.0000000000000000
    -5.4811069999999997    9.4935550000000006    0.0000000000000000
     0.0000000000000000    0.0000000000000000   24.7129573799999989
   Ir   C    Br
    64     6     6
Selective dynamics
Direct
  0.7500000643925233  0.7500000284403470  0.3034845196661777   F   F   F
  0.0000000000000000  0.0000000000000000  0.3034845196661777   F   F   F
  0.0000000102134052  0.2500000094801180  0.3034845196661777   F   F   F
  0.0000000213390337  0.5000000189602289  0.3034845196661777   F   F   F
  0.0000000753392229  0.7500000284403470  0.3034845196661777   F   F   F
  0.2500000109466924  0.0000000000000000  0.3034845196661777   F   F   F
  0.2500000211600977  0.2500000094801180  0.3034845196661777   F   F   F
  0.2500000322857332  0.5000000189602289  0.3034845196661777   F   F   F
  0.5000000218933920  0.0000000000000000  0.3034845196661777   F   F   F
  0.5000000321067972  0.2500000094801180  0.3034845196661777   F   F   F
  0.5000000432324256  0.5000000189602289  0.3034845196661777   F   F   F
  0.5000000534458309  0.7500000284403470  0.3034845196661777   F   F   F
  0.7500000328400844  0.0000000000000000  0.3034845196661777   F   F   F
  0.7500000430534897  0.2500000094801180  0.3034845196661777   F   F   F
  0.7500000541791181  0.5000000189602289  0.3034845196661777   F   F   F
  0.2500000424991384  0.7500000284403470  0.3034845196661777   F   F   F
  0.0833330000000032  0.1666669999999968  0.3940302372665698   F   F   F
  0.0833330000000032  0.4166669999999968  0.3940302372665698   F   F   F
  0.0833330000000032  0.6666669999999968  0.3940302372665698   F   F   F
  0.0833330000000032  0.9166669999999968  0.3940302372665698   F   F   F
  0.3333330000000032  0.1666669999999968  0.3940302372665698   F   F   F
  0.3333330000000032  0.4166669999999968  0.3940302372665698   F   F   F
  0.3333330000000032  0.6666669999999968  0.3940302372665698   F   F   F
  0.3333330000000032  0.9166669999999968  0.3940302372665698   F   F   F
  0.5833330000000032  0.1666669999999968  0.3940302372665698   F   F   F
  0.5833330000000032  0.4166669999999968  0.3940302372665698   F   F   F
  0.5833330000000032  0.6666669999999968  0.3940302372665698   F   F   F
  0.5833330000000032  0.9166669999999968  0.3940302372665698   F   F   F
  0.8333330000000032  0.1666669999999968  0.3940302372665698   F   F   F
  0.8333330000000032  0.4166669999999968  0.3940302372665698   F   F   F
  0.8333330000000032  0.6666669999999968  0.3940302372665698   F   F   F
  0.8333330000000032  0.9166669999999968  0.3940302372665698   F   F   F
  0.9964163210217960  0.9961288567494798  0.5713636380579317   T   T   T
  0.9966253179014534  0.2457798170813350  0.5731008636137354   T   T   T
 -0.0005537357960720  0.4969321506705818  0.5726856990057609   T   T   T
  0.9986074901724653  0.7517016541114860  0.5719148111250029   T   T   T
  0.2479262561196247  0.9963052680519759  0.5734215496806215   T   T   T
  0.2440182210633269  0.2436873336479077  0.5783552739369948   T   T   T
  0.2486561466583141  0.5010462262517300  0.5758112121446369   T   T   T
  0.2527491739312487  0.7504520345679858  0.5729273351404068   T   T   T
  0.5013230909428021  0.9991901068525082  0.5739591819467256   T   T   T
  0.5027014634891553  0.2474295785829848  0.5759553394492646   T   T   T
  0.5061924735814616  0.5059673484454662  0.5782422247171006   T   T   T
  0.5040244282460399  0.7534791152151229  0.5733054477390265   T   T   T
  0.7519942973838953  0.9983370069820809  0.5712231646526718   T   T   T
  0.7507404318559205  0.2486544862896939  0.5737840796499137   T   T   T
  0.7538496843733220  0.5020808836207483  0.5732875966664748   T   T   T
  0.7541069091194463  0.7536094514579590  0.5713377191254604   T   T   T
  0.1683034744010804  0.0856504871823614  0.4837753247405240   T   T   T
  0.1676841716060718  0.3334292243368698  0.4839264384853114   T   T   T
  0.1674671473986663  0.5822771482559340  0.4832313608743873   T   T   T
  0.1684760262166104  0.8342601360543240  0.4831667751340629   T   T   T
  0.4165290476768588  0.0834089679800204  0.4844988380137049   T   T   T
  0.4167709724834222  0.3332404649628780  0.4836972703598552   T   T   T
  0.4164702238758346  0.5824330080283263  0.4838913761290817   T   T   T
  0.4159176815232459  0.8330621766744108  0.4852224406611629   T   T   T
  0.6664648977189197  0.0834392177810348  0.4826961869630693   T   T   T
  0.6665965395814689  0.3335080523504707  0.4843725993177335   T   T   T
  0.6644386171823718  0.5817649925537955  0.4837543187352105   T   T   T
  0.6661629480462534  0.8329130053259831  0.4827402706167493   T   T   T
  0.9168355700410614  0.0835306543448489  0.4825668298759008   T   T   T
  0.9168139442246184  0.3339761712026741  0.4850993799934844   T   T   T
  0.9159127681338249  0.5819338599730821  0.4829805573119573   T   T   T
  0.9183674856451213  0.8318328928440815  0.4825780082833678   T   T   T
  0.3013279290585177  0.2231321675130165  0.6589683374731309   T   T   T
  0.2248548461666574  0.2980011324518165  0.6592838288829850   T   T   T
  0.3008492040454509  0.4479515532039899  0.6458624483221658   T   T   T
  0.4508728669831387  0.5241207528383608  0.6591052680065499   T   T   T
  0.5262952817232558  0.4481925217575726  0.6588018562589419   T   T   T
  0.4509543028194338  0.2983514567724048  0.6464315920531016   T   T   T
  0.2256705898348915  0.0263022200724161  0.6822297617422427   T   T   T
  0.0308994783849525  0.2220917605602220  0.6848571408781849   T   T   T
  0.0904526475812252  0.6579152411094802  0.6593332585962191   T   T   T
  0.5271436144235685  0.7182790277391444  0.6843870898713544   T   T   T
  0.7237205687918798  0.5245980980063241  0.6821104105249775   T   T   T
  0.6472066544510209  0.1021847763940730  0.6645876907369502   T   T   T
 
  0.00000000E+00  0.00000000E+00  0.00000000E+00
  0.00000000E+00  0.00000000E+00  0.00000000E+00
  0.00000000E+00  0.00000000E+00  0.00000000E+00
  0.00000000E+00  0.00000000E+00  0.00000000E+00
  0.00000000E+00  0.00000000E+00  0.00000000E+00
  0.00000000E+00  0.00000000E+00  0.00000000E+00
  0.00000000E+00  0.00000000E+00  0.00000000E+00
  0.00000000E+00  0.00000000E+00  0.00000000E+00
  0.00000000E+00  0.00000000E+00  0.00000000E+00
  0.00000000E+00  0.00000000E+00  0.00000000E+00
  0.00000000E+00  0.00000000E+00  0.00000000E+00
  0.00000000E+00  0.00000000E+00  0.00000000E+00
  0.00000000E+00  0.00000000E+00  0.00000000E+00
  0.00000000E+00  0.00000000E+00  0.00000000E+00
  0.00000000E+00  0.00000000E+00  0.00000000E+00
  0.00000000E+00  0.00000000E+00  0.00000000E+00
  0.00000000E+00  0.00000000E+00  0.00000000E+00
  0.00000000E+00  0.00000000E+00  0.00000000E+00
  0.00000000E+00  0.00000000E+00  0.00000000E+00
  0.00000000E+00  0.00000000E+00  0.00000000E+00
  0.00000000E+00  0.00000000E+00  0.00000000E+00
  0.00000000E+00  0.00000000E+00  0.00000000E+00
  0.00000000E+00  0.00000000E+00  0.00000000E+00
  0.00000000E+00  0.00000000E+00  0.00000000E+00
  0.00000000E+00  0.00000000E+00  0.00000000E+00
  0.00000000E+00  0.00000000E+00  0.00000000E+00
  0.00000000E+00  0.00000000E+00  0.00000000E+00
  0.00000000E+00  0.00000000E+00  0.00000000E+00
  0.00000000E+00  0.00000000E+00  0.00000000E+00
  0.00000000E+00  0.00000000E+00  0.00000000E+00
  0.00000000E+00  0.00000000E+00  0.00000000E+00
  0.00000000E+00  0.00000000E+00  0.00000000E+00
  0.00000000E+00  0.00000000E+00  0.00000000E+00
  0.00000000E+00  0.00000000E+00  0.00000000E+00
  0.00000000E+00  0.00000000E+00  0.00000000E+00
  0.00000000E+00  0.00000000E+00  0.00000000E+00
  0.00000000E+00  0.00000000E+00  0.00000000E+00
  0.00000000E+00  0.00000000E+00  0.00000000E+00
  0.00000000E+00  0.00000000E+00  0.00000000E+00
  0.00000000E+00  0.00000000E+00  0.00000000E+00
  0.00000000E+00  0.00000000E+00  0.00000000E+00
  0.00000000E+00  0.00000000E+00  0.00000000E+00
  0.00000000E+00  0.00000000E+00  0.00000000E+00
  0.00000000E+00  0.00000000E+00  0.00000000E+00
  0.00000000E+00  0.00000000E+00  0.00000000E+00
  0.00000000E+00  0.00000000E+00  0.00000000E+00
  0.00000000E+00  0.00000000E+00  0.00000000E+00
  0.00000000E+00  0.00000000E+00  0.00000000E+00
  0.00000000E+00  0.00000000E+00  0.00000000E+00
  0.00000000E+00  0.00000000E+00  0.00000000E+00
  0.00000000E+00  0.00000000E+00  0.00000000E+00
  0.00000000E+00  0.00000000E+00  0.00000000E+00
  0.00000000E+00  0.00000000E+00  0.00000000E+00
  0.00000000E+00  0.00000000E+00  0.00000000E+00
  0.00000000E+00  0.00000000E+00  0.00000000E+00
  0.00000000E+00  0.00000000E+00  0.00000000E+00
  0.00000000E+00  0.00000000E+00  0.00000000E+00
  0.00000000E+00  0.00000000E+00  0.00000000E+00
  0.00000000E+00  0.00000000E+00  0.00000000E+00
  0.00000000E+00  0.00000000E+00  0.00000000E+00
  0.00000000E+00  0.00000000E+00  0.00000000E+00
  0.00000000E+00  0.00000000E+00  0.00000000E+00
  0.00000000E+00  0.00000000E+00  0.00000000E+00
  0.00000000E+00  0.00000000E+00  0.00000000E+00
  0.00000000E+00  0.00000000E+00  0.00000000E+00
  0.00000000E+00  0.00000000E+00  0.00000000E+00
  0.00000000E+00  0.00000000E+00  0.00000000E+00
  0.00000000E+00  0.00000000E+00  0.00000000E+00
  0.00000000E+00  0.00000000E+00  0.00000000E+00
  0.00000000E+00  0.00000000E+00  0.00000000E+00
  0.00000000E+00  0.00000000E+00  0.00000000E+00
  0.00000000E+00  0.00000000E+00  0.00000000E+00
  0.00000000E+00  0.00000000E+00  0.00000000E+00
  0.00000000E+00  0.00000000E+00  0.00000000E+00
  0.00000000E+00  0.00000000E+00  0.00000000E+00
  0.00000000E+00  0.00000000E+00  0.00000000E+00
