Ag  C  H Cl                             
    1.000000000000000     
    11.7702790000000004    0.0000000000000000    0.0000000000000000
     0.0000000000000000   11.7702790000000004    0.0000000000000000
     0.0000000000000000    0.0000000000000000   24.2421330600000005
   Ag   C    H    Cl
    64     6     2     4
Selective dynamics
Direct
  0.0000000000000000  0.2499999991504041  0.3093787160328390   F   F   F
  0.7499999974512050  0.7499999974512050  0.3093787160328390   F   F   F
  0.0000000000000000  0.4999999983008081  0.3093787160328390   F   F   F
  0.0000000000000000  0.7499999974512050  0.3093787160328390   F   F   F
  0.0000000000000000  0.0000000000000000  0.3093787160328390   F   F   F
  0.2499999991504041  0.2499999991504041  0.3093787160328390   F   F   F
  0.2499999991504041  0.4999999983008081  0.3093787160328390   F   F   F
  0.7499999974512050  0.0000000000000000  0.3093787160328390   F   F   F
  0.2499999991504041  0.7499999974512050  0.3093787160328390   F   F   F
  0.2499999991504041  0.0000000000000000  0.3093787160328390   F   F   F
  0.4999999983008081  0.2499999991504041  0.3093787160328390   F   F   F
  0.4999999983008081  0.4999999983008081  0.3093787160328390   F   F   F
  0.4999999983008081  0.7499999974512050  0.3093787160328390   F   F   F
  0.4999999983008081  0.0000000000000000  0.3093787160328390   F   F   F
  0.7499999974512050  0.2499999991504041  0.3093787160328390   F   F   F
  0.7499999974512050  0.4999999983008081  0.3093787160328390   F   F   F
 -0.0000414403293597  0.2499799627950111  0.4742743184051793   T   T   T
 -0.0000011462199990  0.5000018266667796  0.4743358579059132   T   T   T
  0.0000409691726076  0.7500189137929943  0.4742737547873759   T   T   T
 -0.0000005576164601  0.0000020767554368  0.4742432390440646   T   T   T
  0.2498389729728681  0.2498438582503221  0.4742491250386539   T   T   T
  0.2493510774457610  0.4998696927324808  0.4739975761982415   T   T   T
  0.2495859154599798  0.7504109116228541  0.4741205085290647   T   T   T
  0.2499756436653012 -0.0000388752515937  0.4742728328168875   T   T   T
  0.4998664427190684  0.2493560582786780  0.4739985093218771   T   T   T
  0.4999976778429626  0.5000007849746789  0.4738038812877763   T   T   T
  0.5001282266466693  0.7506440329091678  0.4739989322441651   T   T   T
  0.4999980669416372  0.0000010539726147  0.4743355832378110   T   T   T
  0.7504086380322406  0.2495894627478798  0.4741202824525927   T   T   T
  0.7506432335259254  0.5001312723061011  0.4739982770871648   T   T   T
  0.7501568672337994  0.7501585040395667  0.4742498762505143   T   T   T
  0.7500206005043319  0.0000391799202382  0.4742739021953803   T   T   T
  0.1250183596808565  0.1250237633833677  0.5526030438891760   T   T   T
  0.1249893306677418  0.3748636953348257  0.5525518418836478   T   T   T
  0.1249036045854350  0.6249891714754493  0.5524686268623467   T   T   T
  0.1248364894208580  0.8751632512541865  0.5524793809696320   T   T   T
  0.3748587388743258  0.1249945289303413  0.5525515753599869   T   T   T
  0.3750725155034725  0.3750777919199022  0.5517820417292788   T   T   T
  0.3748415485157134  0.6251519659228464  0.5507703185574662   T   T   T
  0.3750083512779920  0.8751030430506843  0.5524630854828739   T   T   T
  0.6249859888438087  0.1249040313775750  0.5524652891599173   T   T   T
  0.6251529786181251  0.3748496106650214  0.5507702441193911   T   T   T
  0.6249223235738712  0.6249244595875961  0.5517826388795800   T   T   T
  0.6251378751187406  0.8750094962322514  0.5525510788838975   T   T   T
  0.8751602227212211  0.1248391462486440  0.5524798768309058   T   T   T
  0.8750965132522376  0.3750180492298475  0.5524682106202476   T   T   T
  0.8750060471299901  0.6251392081103139  0.5525517127637627   T   T   T
  0.8749783336705765  0.8749791694089779  0.5526031044814445   T   T   T
  0.1249999995752020  0.1249999995752020  0.3952090765398992   F   F   F
  0.1249999995752020  0.3749999987256061  0.3952090765398992   F   F   F
  0.1249999995752020  0.6249999978760030  0.3952090765398992   F   F   F
  0.1249999995752020  0.8749999970264071  0.3952090765398992   F   F   F
  0.3749999987256061  0.1249999995752020  0.3952090765398992   F   F   F
  0.3749999987256061  0.3749999987256061  0.3952090765398992   F   F   F
  0.3749999987256061  0.6249999978760030  0.3952090765398992   F   F   F
  0.3749999987256061  0.8749999970264071  0.3952090765398992   F   F   F
  0.6249999978760030  0.1249999995752020  0.3952090765398992   F   F   F
  0.6249999978760030  0.3749999987256061  0.3952090765398992   F   F   F
  0.6249999978760030  0.6249999978760030  0.3952090765398992   F   F   F
  0.6249999978760030  0.8749999970264071  0.3952090765398992   F   F   F
  0.8749999970264071  0.1249999995752020  0.3952090765398992   F   F   F
  0.8749999970264071  0.3749999987256061  0.3952090765398992   F   F   F
  0.8749999970264071  0.6249999978760030  0.3952090765398992   F   F   F
  0.8749999970264071  0.8749999970264071  0.3952090765398992   F   F   F
  0.5837529080750022  0.5837112951656068  0.6755519857726274   T   T   T
  0.6152452455179801  0.4692683354931361  0.6768318649595984   T   T   T
  0.5307574079490287  0.3847889525147846  0.6768261777129836   T   T   T
  0.4162640489821381  0.4162474023768729  0.6755611311795270   T   T   T
  0.3847364489402858  0.5307104177767070  0.6768191081773148   T   T   T
  0.4692649932735387  0.6151556837255769  0.6768279178100363   T   T   T
  0.6491510172018302  0.6491482687744540  0.6753415259171048   T   T   T
  0.3508469412152441  0.3508668714596090  0.6753391598945957   T   T   T
  0.7571091623457293  0.4347311767176072  0.6790517633148889   T   T   T
  0.5652068933843798  0.2428155029130185  0.6790595943746249   T   T   T
  0.2427867258659308  0.5653479449288370  0.6790454493552706   T   T   T
  0.4349377839346250  0.7571059690773198  0.6790669196523560   T   T   T
 
  0.00000000E+00  0.00000000E+00  0.00000000E+00
  0.00000000E+00  0.00000000E+00  0.00000000E+00
  0.00000000E+00  0.00000000E+00  0.00000000E+00
  0.00000000E+00  0.00000000E+00  0.00000000E+00
  0.00000000E+00  0.00000000E+00  0.00000000E+00
  0.00000000E+00  0.00000000E+00  0.00000000E+00
  0.00000000E+00  0.00000000E+00  0.00000000E+00
  0.00000000E+00  0.00000000E+00  0.00000000E+00
  0.00000000E+00  0.00000000E+00  0.00000000E+00
  0.00000000E+00  0.00000000E+00  0.00000000E+00
  0.00000000E+00  0.00000000E+00  0.00000000E+00
  0.00000000E+00  0.00000000E+00  0.00000000E+00
  0.00000000E+00  0.00000000E+00  0.00000000E+00
  0.00000000E+00  0.00000000E+00  0.00000000E+00
  0.00000000E+00  0.00000000E+00  0.00000000E+00
  0.00000000E+00  0.00000000E+00  0.00000000E+00
  0.00000000E+00  0.00000000E+00  0.00000000E+00
  0.00000000E+00  0.00000000E+00  0.00000000E+00
  0.00000000E+00  0.00000000E+00  0.00000000E+00
  0.00000000E+00  0.00000000E+00  0.00000000E+00
  0.00000000E+00  0.00000000E+00  0.00000000E+00
  0.00000000E+00  0.00000000E+00  0.00000000E+00
  0.00000000E+00  0.00000000E+00  0.00000000E+00
  0.00000000E+00  0.00000000E+00  0.00000000E+00
  0.00000000E+00  0.00000000E+00  0.00000000E+00
  0.00000000E+00  0.00000000E+00  0.00000000E+00
  0.00000000E+00  0.00000000E+00  0.00000000E+00
  0.00000000E+00  0.00000000E+00  0.00000000E+00
  0.00000000E+00  0.00000000E+00  0.00000000E+00
  0.00000000E+00  0.00000000E+00  0.00000000E+00
  0.00000000E+00  0.00000000E+00  0.00000000E+00
  0.00000000E+00  0.00000000E+00  0.00000000E+00
  0.00000000E+00  0.00000000E+00  0.00000000E+00
  0.00000000E+00  0.00000000E+00  0.00000000E+00
  0.00000000E+00  0.00000000E+00  0.00000000E+00
  0.00000000E+00  0.00000000E+00  0.00000000E+00
  0.00000000E+00  0.00000000E+00  0.00000000E+00
  0.00000000E+00  0.00000000E+00  0.00000000E+00
  0.00000000E+00  0.00000000E+00  0.00000000E+00
  0.00000000E+00  0.00000000E+00  0.00000000E+00
  0.00000000E+00  0.00000000E+00  0.00000000E+00
  0.00000000E+00  0.00000000E+00  0.00000000E+00
  0.00000000E+00  0.00000000E+00  0.00000000E+00
  0.00000000E+00  0.00000000E+00  0.00000000E+00
  0.00000000E+00  0.00000000E+00  0.00000000E+00
  0.00000000E+00  0.00000000E+00  0.00000000E+00
  0.00000000E+00  0.00000000E+00  0.00000000E+00
  0.00000000E+00  0.00000000E+00  0.00000000E+00
  0.00000000E+00  0.00000000E+00  0.00000000E+00
  0.00000000E+00  0.00000000E+00  0.00000000E+00
  0.00000000E+00  0.00000000E+00  0.00000000E+00
  0.00000000E+00  0.00000000E+00  0.00000000E+00
  0.00000000E+00  0.00000000E+00  0.00000000E+00
  0.00000000E+00  0.00000000E+00  0.00000000E+00
  0.00000000E+00  0.00000000E+00  0.00000000E+00
  0.00000000E+00  0.00000000E+00  0.00000000E+00
  0.00000000E+00  0.00000000E+00  0.00000000E+00
  0.00000000E+00  0.00000000E+00  0.00000000E+00
  0.00000000E+00  0.00000000E+00  0.00000000E+00
  0.00000000E+00  0.00000000E+00  0.00000000E+00
  0.00000000E+00  0.00000000E+00  0.00000000E+00
  0.00000000E+00  0.00000000E+00  0.00000000E+00
  0.00000000E+00  0.00000000E+00  0.00000000E+00
  0.00000000E+00  0.00000000E+00  0.00000000E+00
  0.00000000E+00  0.00000000E+00  0.00000000E+00
  0.00000000E+00  0.00000000E+00  0.00000000E+00
  0.00000000E+00  0.00000000E+00  0.00000000E+00
  0.00000000E+00  0.00000000E+00  0.00000000E+00
  0.00000000E+00  0.00000000E+00  0.00000000E+00
  0.00000000E+00  0.00000000E+00  0.00000000E+00
  0.00000000E+00  0.00000000E+00  0.00000000E+00
  0.00000000E+00  0.00000000E+00  0.00000000E+00
  0.00000000E+00  0.00000000E+00  0.00000000E+00
  0.00000000E+00  0.00000000E+00  0.00000000E+00
  0.00000000E+00  0.00000000E+00  0.00000000E+00
  0.00000000E+00  0.00000000E+00  0.00000000E+00
