Rh  C  H Br                             
   1.00000000000000     
    10.8721879999999995    0.0000000000000000    0.0000000000000000
    -5.4360939999999998    9.4155909999999992    0.0000000000000000
     0.0000000000000000    0.0000000000000000   24.6578279400000042
   Rh   C    H    Br
    64     6     2     4
Selective dynamics
Direct
  0.9999999559446024  0.7499999670758868  0.3041630438110658   F   F   F
  0.2499999889626636  0.0000000000000000  0.3041630438110658   F   F   F
  0.2499999891709876  0.2499999893793188  0.3041630438110658   F   F   F
  0.2499999888482805  0.4999999776965680  0.3041630438110658   F   F   F
  0.2499999890566116  0.7499999670758868  0.3041630438110658   F   F   F
  0.4999999779253272  0.0000000000000000  0.3041630438110658   F   F   F
  0.4999999781336513  0.2499999893793188  0.3041630438110658   F   F   F
  0.4999999778109441  0.4999999776965680  0.3041630438110658   F   F   F
  0.7499999668879909  0.0000000000000000  0.3041630438110658   F   F   F
  0.7499999670963149  0.2499999893793188  0.3041630438110658   F   F   F
  0.7499999667736077  0.4999999776965680  0.3041630438110658   F   F   F
  0.7499999669819388  0.7499999670758868  0.3041630438110658   F   F   F
  0.0000000000000000  0.0000000000000000  0.3041630438110658   F   F   F
  0.9999999560589785  0.2499999893793188  0.3041630438110658   F   F   F
  0.9999999998856168  0.4999999776965680  0.3041630438110658   F   F   F
  0.4999999780192752  0.7499999670758868  0.3041630438110658   F   F   F
  0.0833330000000032  0.1666669999999968  0.3941659420955475   F   F   F
  0.0833330000000032  0.4166669999999968  0.3941659420955475   F   F   F
  0.0833330000000032  0.6666669999999968  0.3941659420955475   F   F   F
  0.0833330000000032  0.9166669999999968  0.3941659420955475   F   F   F
  0.3333330000000032  0.1666669999999968  0.3941659420955475   F   F   F
  0.3333330000000032  0.4166669999999968  0.3941659420955475   F   F   F
  0.3333330000000032  0.6666669999999968  0.3941659420955475   F   F   F
  0.3333330000000032  0.9166669999999968  0.3941659420955475   F   F   F
  0.5833330000000032  0.1666669999999968  0.3941659420955475   F   F   F
  0.5833330000000032  0.4166669999999968  0.3941659420955475   F   F   F
  0.5833330000000032  0.6666669999999968  0.3941659420955475   F   F   F
  0.5833330000000032  0.9166669999999968  0.3941659420955475   F   F   F
  0.8333330000000032  0.1666669999999968  0.3941659420955475   F   F   F
  0.8333330000000032  0.4166669999999968  0.3941659420955475   F   F   F
  0.8333330000000032  0.6666669999999968  0.3941659420955475   F   F   F
  0.8333330000000032  0.9166669999999968  0.3941659420955475   F   F   F
  0.9970371554790697  0.9965904988036246  0.5654735371907258   T   T   T
  0.9946314044549288  0.2478720864356247  0.5672568812322217   T   T   T
  0.0011741125909128  0.5003559637481425  0.5655356868981216   T   T   T
  0.0013814592933317  0.7490407595114991  0.5651425221903639   T   T   T
  0.2474504314792218  0.9943441227582270  0.5670702901673271   T   T   T
  0.2453940205098243  0.2446571401439493  0.5702063846011768   T   T   T
  0.2502262658712909  0.4998349319568460  0.5691482804609048   T   T   T
  0.2496545975631238  0.7485645821259312  0.5656226604248201   T   T   T
  0.5010084103186744  0.0011845169440217  0.5656819022284992   T   T   T
  0.4995623324459845  0.2500146873527472  0.5691003725870999   T   T   T
  0.5045076740042694  0.5035762517069552  0.5700900256675788   T   T   T
  0.5020358987648704  0.7554808086035456  0.5671873055333261   T   T   T
  0.7494012880748809  0.0006287620501537  0.5652008332364158   T   T   T
  0.7482167304434095  0.2484765216621910  0.5658369856734218   T   T   T
  0.7558926630003889  0.5023894515913114  0.5671589619458639   T   T   T
  0.7537581623993691  0.7531518683224963  0.5655301074941006   T   T   T
  0.1675805160057584  0.0845081320915275  0.4800824002895848   T   T   T
  0.1674558072557013  0.3333557443777929  0.4806280775904914   T   T   T
  0.1682142652969273  0.5815453755990276  0.4802083834703762   T   T   T
  0.1679650935780170  0.8335844651822047  0.4795272610516324   T   T   T
  0.4157622139386831  0.0844454628661476  0.4806806783211612   T   T   T
  0.4162642195675879  0.3337514010758745  0.4802969897060764   T   T   T
  0.4166798422968095  0.5826522076176793  0.4804772559345952   T   T   T
  0.4173548270889680  0.8327566338020598  0.4802131380386380   T   T   T
  0.6663415275284676  0.0836235329171131  0.4794983867299027   T   T   T
  0.6653869649897812  0.3343245396046660  0.4808289461642647   T   T   T
  0.6655335397866723  0.5826171796156766  0.4801172805067379   T   T   T
  0.6663587606774546  0.8324457568617250  0.4796413990481958   T   T   T
  0.9174825916431033  0.0836976720509684  0.4797516626612706   T   T   T
  0.9170325455912482  0.3325602982507451  0.4802384443077312   T   T   T
  0.9164436972789645  0.5822520864212465  0.4796768917088787   T   T   T
  0.9168469258403844  0.8331940585827203  0.4793055725397291   T   T   T
  0.2937128703486881  0.4557079579009446  0.6507543241130661   T   T   T
  0.4498627546196977  0.5243097462911896  0.6491865091167242   T   T   T
  0.5262819226070210  0.4482172668093803  0.6490541167202346   T   T   T
  0.4575823518820349  0.2921619897498778  0.6507498905039258   T   T   T
  0.3014569954887236  0.2235761454167327  0.6491710121191268   T   T   T
  0.2250176225745436  0.2996630039253669  0.6492766620174306   T   T   T
  0.2487957508036427  0.5014473180525573  0.6786826394885470   T   T   T
  0.5028734067287020  0.2471547618541926  0.6787684416318497   T   T   T
  0.5404790116987842  0.7266684318156429  0.6702261695018122   T   T   T
  0.7284364998165269  0.5379782885106011  0.6707157250439750   T   T   T
  0.2124987459518317  0.0217374722941697  0.6707408414043173   T   T   T
  0.0221112886250533  0.2090579584812465  0.6704635442501556   T   T   T
 
  0.00000000E+00  0.00000000E+00  0.00000000E+00
  0.00000000E+00  0.00000000E+00  0.00000000E+00
  0.00000000E+00  0.00000000E+00  0.00000000E+00
  0.00000000E+00  0.00000000E+00  0.00000000E+00
  0.00000000E+00  0.00000000E+00  0.00000000E+00
  0.00000000E+00  0.00000000E+00  0.00000000E+00
  0.00000000E+00  0.00000000E+00  0.00000000E+00
  0.00000000E+00  0.00000000E+00  0.00000000E+00
  0.00000000E+00  0.00000000E+00  0.00000000E+00
  0.00000000E+00  0.00000000E+00  0.00000000E+00
  0.00000000E+00  0.00000000E+00  0.00000000E+00
  0.00000000E+00  0.00000000E+00  0.00000000E+00
  0.00000000E+00  0.00000000E+00  0.00000000E+00
  0.00000000E+00  0.00000000E+00  0.00000000E+00
  0.00000000E+00  0.00000000E+00  0.00000000E+00
  0.00000000E+00  0.00000000E+00  0.00000000E+00
  0.00000000E+00  0.00000000E+00  0.00000000E+00
  0.00000000E+00  0.00000000E+00  0.00000000E+00
  0.00000000E+00  0.00000000E+00  0.00000000E+00
  0.00000000E+00  0.00000000E+00  0.00000000E+00
  0.00000000E+00  0.00000000E+00  0.00000000E+00
  0.00000000E+00  0.00000000E+00  0.00000000E+00
  0.00000000E+00  0.00000000E+00  0.00000000E+00
  0.00000000E+00  0.00000000E+00  0.00000000E+00
  0.00000000E+00  0.00000000E+00  0.00000000E+00
  0.00000000E+00  0.00000000E+00  0.00000000E+00
  0.00000000E+00  0.00000000E+00  0.00000000E+00
  0.00000000E+00  0.00000000E+00  0.00000000E+00
  0.00000000E+00  0.00000000E+00  0.00000000E+00
  0.00000000E+00  0.00000000E+00  0.00000000E+00
  0.00000000E+00  0.00000000E+00  0.00000000E+00
  0.00000000E+00  0.00000000E+00  0.00000000E+00
  0.00000000E+00  0.00000000E+00  0.00000000E+00
  0.00000000E+00  0.00000000E+00  0.00000000E+00
  0.00000000E+00  0.00000000E+00  0.00000000E+00
  0.00000000E+00  0.00000000E+00  0.00000000E+00
  0.00000000E+00  0.00000000E+00  0.00000000E+00
  0.00000000E+00  0.00000000E+00  0.00000000E+00
  0.00000000E+00  0.00000000E+00  0.00000000E+00
  0.00000000E+00  0.00000000E+00  0.00000000E+00
  0.00000000E+00  0.00000000E+00  0.00000000E+00
  0.00000000E+00  0.00000000E+00  0.00000000E+00
  0.00000000E+00  0.00000000E+00  0.00000000E+00
  0.00000000E+00  0.00000000E+00  0.00000000E+00
  0.00000000E+00  0.00000000E+00  0.00000000E+00
  0.00000000E+00  0.00000000E+00  0.00000000E+00
  0.00000000E+00  0.00000000E+00  0.00000000E+00
  0.00000000E+00  0.00000000E+00  0.00000000E+00
  0.00000000E+00  0.00000000E+00  0.00000000E+00
  0.00000000E+00  0.00000000E+00  0.00000000E+00
  0.00000000E+00  0.00000000E+00  0.00000000E+00
  0.00000000E+00  0.00000000E+00  0.00000000E+00
  0.00000000E+00  0.00000000E+00  0.00000000E+00
  0.00000000E+00  0.00000000E+00  0.00000000E+00
  0.00000000E+00  0.00000000E+00  0.00000000E+00
  0.00000000E+00  0.00000000E+00  0.00000000E+00
  0.00000000E+00  0.00000000E+00  0.00000000E+00
  0.00000000E+00  0.00000000E+00  0.00000000E+00
  0.00000000E+00  0.00000000E+00  0.00000000E+00
  0.00000000E+00  0.00000000E+00  0.00000000E+00
  0.00000000E+00  0.00000000E+00  0.00000000E+00
  0.00000000E+00  0.00000000E+00  0.00000000E+00
  0.00000000E+00  0.00000000E+00  0.00000000E+00
  0.00000000E+00  0.00000000E+00  0.00000000E+00
  0.00000000E+00  0.00000000E+00  0.00000000E+00
  0.00000000E+00  0.00000000E+00  0.00000000E+00
  0.00000000E+00  0.00000000E+00  0.00000000E+00
  0.00000000E+00  0.00000000E+00  0.00000000E+00
  0.00000000E+00  0.00000000E+00  0.00000000E+00
  0.00000000E+00  0.00000000E+00  0.00000000E+00
  0.00000000E+00  0.00000000E+00  0.00000000E+00
  0.00000000E+00  0.00000000E+00  0.00000000E+00
  0.00000000E+00  0.00000000E+00  0.00000000E+00
  0.00000000E+00  0.00000000E+00  0.00000000E+00
  0.00000000E+00  0.00000000E+00  0.00000000E+00
  0.00000000E+00  0.00000000E+00  0.00000000E+00
