Pd48 C6 Br6                             
    1.000000000000000     
    11.1817229999999999    0.0000000000000000    0.0000000000000000
     0.0000000000000000   11.1817229999999999    0.0000000000000000
     0.0000000000000000    0.0000000000000000   16.9017704199999983
   Pd   C    Br
    48     6     6
Selective dynamics
Direct
  0.9953552425655872  0.2535015890672909  0.4118016486288525   T   T   T
  0.9999998010921516  0.5000001244216321  0.4161465983405606   T   T   T
  0.0046581859385810  0.7465094993406254  0.4117985792061276   T   T   T
  0.0000013923922424  0.0000032895952913  0.4081675284343333   T   T   T
  0.2461600500625991  0.2461716552123576  0.4104152551630449   T   T   T
  0.2466878497191658  0.4988461837487321  0.4103785584879844   T   T   T
  0.2540773115844033  0.7459213012278170  0.4112708527612483   T   T   T
  0.2534892726242646  0.9953535823549515  0.4117981425888004   T   T   T
  0.4988380801118169  0.2466862313711928  0.4103781716358057   T   T   T
  0.4999989699620428  0.4999952884546133  0.4086656988300277   T   T   T
  0.5011513836858512  0.7533080098715459  0.4103690991502731   T   T   T
  0.4999942094164354  0.0000026309281722  0.4161450609359392   T   T   T
  0.7459123167704149  0.2540752672400544  0.4112685482269285   T   T   T
  0.7533075783013530  0.5011440120046444  0.4103754680929370   T   T   T
  0.7538395749253652  0.7538328319753873  0.4104106180642901   T   T   T
  0.7465020670305265  0.0046547947451785  0.4117971119580375   T   T   T
  0.1090662174913888  0.1090670247812611  0.5249651087392593   T   T   T
  0.1213026624693043  0.3688304115316399  0.5318185236542661   T   T   T
  0.1260970488230697  0.6234561151170297  0.5361258192986682   T   T   T
  0.1312727107463090  0.8687499382768493  0.5253672500458393   T   T   T
  0.3687825236892337  0.1212935536009780  0.5318108454827666   T   T   T
  0.3678141467701934  0.3678198891401721  0.5246361034256495   T   T   T
  0.3774846485494265  0.6225199045545082  0.5276443794395433   T   T   T
  0.3765809863898895  0.8738964556250082  0.5361214735317574   T   T   T
  0.6234241840323946  0.1260943370221810  0.5361244132499792   T   T   T
  0.6225019049908838  0.3774759823953815  0.5276391653576695   T   T   T
  0.6321772232381093  0.6321785358171397  0.5246293418640988   T   T   T
  0.6312151950152156  0.8786866994283216  0.5318009244930835   T   T   T
  0.8687400700624650  0.1312597526867094  0.5253624394891006   T   T   T
  0.8738970987765029  0.3765591998867492  0.5361212735235839   T   T   T
  0.8786913151902027  0.6311835939559600  0.5318015532629516   T   T   T
  0.8909395122180825  0.8909318278606477  0.5249720458710527   T   T   T
  0.1249999995528412  0.1249999995528412  0.2958269977495078   F   F   F
  0.1249999995528412  0.3749999986585237  0.2958269977495078   F   F   F
  0.1249999995528412  0.6249999977642062  0.2958269977495078   F   F   F
  0.1249999995528412  0.8749999968698887  0.2958269977495078   F   F   F
  0.3749999986585237  0.1249999995528412  0.2958269977495078   F   F   F
  0.3749999986585237  0.3749999986585237  0.2958269977495078   F   F   F
  0.3749999986585237  0.6249999977642062  0.2958269977495078   F   F   F
  0.3749999986585237  0.8749999968698887  0.2958269977495078   F   F   F
  0.6249999977642062  0.1249999995528412  0.2958269977495078   F   F   F
  0.6249999977642062  0.3749999986585237  0.2958269977495078   F   F   F
  0.6249999977642062  0.6249999977642062  0.2958269977495078   F   F   F
  0.6249999977642062  0.8749999968698887  0.2958269977495078   F   F   F
  0.8749999968698887  0.1249999995528412  0.2958269977495078   F   F   F
  0.8749999968698887  0.3749999986585237  0.2958269977495078   F   F   F
  0.8749999968698887  0.6249999977642062  0.2958269977495078   F   F   F
  0.8749999968698887  0.8749999968698887  0.2958269977495078   F   F   F
  0.3782045271429197  0.5318719423564104  0.6431176313443245   T   T   T
  0.4681686302979813  0.6218032467226635  0.6431124843105493   T   T   T
  0.5885229976144046  0.5884975555164402  0.6361921084719171   T   T   T
  0.6218004610176493  0.4681811598928434  0.6431149253518598   T   T   T
  0.5317706229592289  0.3781875949274749  0.6431104025779817   T   T   T
  0.4114634766038208  0.4115119633773361  0.6361929045069203   T   T   T
  0.2015541351859795  0.5724421749182014  0.6723926810146423   T   T   T
  0.4276714220217883  0.7984970353321117  0.6723800663555579   T   T   T
  0.7939360694141016  0.7938599762736160  0.6370525178500372   T   T   T
  0.7984343486676622  0.4275414634696730  0.6723866018242930   T   T   T
  0.5723395652635048  0.2014946413139000  0.6723806051393666   T   T   T
  0.2060915989429120  0.2061167851998533  0.6370618327723747   T   T   T
 
  0.00000000E+00  0.00000000E+00  0.00000000E+00
  0.00000000E+00  0.00000000E+00  0.00000000E+00
  0.00000000E+00  0.00000000E+00  0.00000000E+00
  0.00000000E+00  0.00000000E+00  0.00000000E+00
  0.00000000E+00  0.00000000E+00  0.00000000E+00
  0.00000000E+00  0.00000000E+00  0.00000000E+00
  0.00000000E+00  0.00000000E+00  0.00000000E+00
  0.00000000E+00  0.00000000E+00  0.00000000E+00
  0.00000000E+00  0.00000000E+00  0.00000000E+00
  0.00000000E+00  0.00000000E+00  0.00000000E+00
  0.00000000E+00  0.00000000E+00  0.00000000E+00
  0.00000000E+00  0.00000000E+00  0.00000000E+00
  0.00000000E+00  0.00000000E+00  0.00000000E+00
  0.00000000E+00  0.00000000E+00  0.00000000E+00
  0.00000000E+00  0.00000000E+00  0.00000000E+00
  0.00000000E+00  0.00000000E+00  0.00000000E+00
  0.00000000E+00  0.00000000E+00  0.00000000E+00
  0.00000000E+00  0.00000000E+00  0.00000000E+00
  0.00000000E+00  0.00000000E+00  0.00000000E+00
  0.00000000E+00  0.00000000E+00  0.00000000E+00
  0.00000000E+00  0.00000000E+00  0.00000000E+00
  0.00000000E+00  0.00000000E+00  0.00000000E+00
  0.00000000E+00  0.00000000E+00  0.00000000E+00
  0.00000000E+00  0.00000000E+00  0.00000000E+00
  0.00000000E+00  0.00000000E+00  0.00000000E+00
  0.00000000E+00  0.00000000E+00  0.00000000E+00
  0.00000000E+00  0.00000000E+00  0.00000000E+00
  0.00000000E+00  0.00000000E+00  0.00000000E+00
  0.00000000E+00  0.00000000E+00  0.00000000E+00
  0.00000000E+00  0.00000000E+00  0.00000000E+00
  0.00000000E+00  0.00000000E+00  0.00000000E+00
  0.00000000E+00  0.00000000E+00  0.00000000E+00
  0.00000000E+00  0.00000000E+00  0.00000000E+00
  0.00000000E+00  0.00000000E+00  0.00000000E+00
  0.00000000E+00  0.00000000E+00  0.00000000E+00
  0.00000000E+00  0.00000000E+00  0.00000000E+00
  0.00000000E+00  0.00000000E+00  0.00000000E+00
  0.00000000E+00  0.00000000E+00  0.00000000E+00
  0.00000000E+00  0.00000000E+00  0.00000000E+00
  0.00000000E+00  0.00000000E+00  0.00000000E+00
  0.00000000E+00  0.00000000E+00  0.00000000E+00
  0.00000000E+00  0.00000000E+00  0.00000000E+00
  0.00000000E+00  0.00000000E+00  0.00000000E+00
  0.00000000E+00  0.00000000E+00  0.00000000E+00
  0.00000000E+00  0.00000000E+00  0.00000000E+00
  0.00000000E+00  0.00000000E+00  0.00000000E+00
  0.00000000E+00  0.00000000E+00  0.00000000E+00
  0.00000000E+00  0.00000000E+00  0.00000000E+00
  0.00000000E+00  0.00000000E+00  0.00000000E+00
  0.00000000E+00  0.00000000E+00  0.00000000E+00
  0.00000000E+00  0.00000000E+00  0.00000000E+00
  0.00000000E+00  0.00000000E+00  0.00000000E+00
  0.00000000E+00  0.00000000E+00  0.00000000E+00
  0.00000000E+00  0.00000000E+00  0.00000000E+00
  0.00000000E+00  0.00000000E+00  0.00000000E+00
  0.00000000E+00  0.00000000E+00  0.00000000E+00
  0.00000000E+00  0.00000000E+00  0.00000000E+00
  0.00000000E+00  0.00000000E+00  0.00000000E+00
  0.00000000E+00  0.00000000E+00  0.00000000E+00
  0.00000000E+00  0.00000000E+00  0.00000000E+00
