Rh48 C6 F6                              
    1.000000000000000     
    10.8856652999999994    0.0000000000000000    0.0000000000000000
     0.0000000000000000   15.3946555000000007    0.0000000000000000
     0.0000000000000000    0.0000000000000000   15.4457957300000004
   Rh   C    F 
    48     6     6
Selective dynamics
Direct
  0.2495990415095193  0.2509094010819766  0.4032386678175683   T   T   T
  0.2485160820962449  0.4989254655001076  0.4017838966702314   T   T   T
  0.2523815034043864  0.7477547259041444  0.4038855505364225   T   T   T
  0.2503825972926776  0.0001050622349723  0.4027428281525260   T   T   T
  0.4998627073985773  0.2524294918203154  0.4034667047167630   T   T   T
  0.5000000009186394  0.5000000012991492  0.3978215976532411   T   T   T
  0.5001372944387015  0.7475705101284120  0.4034667047167630   T   T   T
  0.5000000009186394  0.0000000019487274  0.4047899095231173   T   T   T
  0.7476184984328853  0.2522452760445830  0.4038855505364225   T   T   T
  0.7514839197410268  0.5010745370981908  0.4017838966702314   T   T   T
  0.7504009603277524  0.7490906008667508  0.4032386678175683   T   T   T
  0.7496174045446011  0.9998949416624825  0.4027428281525260   T   T   T
  0.9984046497150274  0.2503661278925549  0.4038780094981291   T   T   T
  0.0000000018372788  0.5000000012991492  0.4030358418807651   T   T   T
  0.0015953539595301  0.7496338740561725  0.4038780094981291   T   T   T
  0.0000000018372788  0.0000000019487274  0.4002424458487894   T   T   T
  0.1245564663468244  0.1250040408462638  0.4818783927444059   T   T   T
  0.1224695199359758  0.3747498498708595  0.4819781663290428   T   T   T
  0.1263975738991547  0.6237046581502241  0.4825146907589399   T   T   T
  0.1258571901558199  0.8746731213167109  0.4818947110504084   T   T   T
  0.3751522684325579  0.1261096817797096  0.4817568816776046   T   T   T
  0.3685285927286941  0.3770670388686028  0.4857091020222555   T   T   T
  0.3835158551522539  0.6106375225744927  0.4901702311150657   T   T   T
  0.3751540368416144  0.8741260327184648  0.4817309130457446   T   T   T
  0.6248459649956644  0.1258739692302626  0.4817309130457446   T   T   T
  0.6164841476036642  0.3893624793742347  0.4901702311150657   T   T   T
  0.6314714100272241  0.6229329630801246  0.4857091020222555   T   T   T
  0.6248477324860815  0.8738903201690178  0.4817568816776046   T   T   T
  0.8741428116814589  0.1253268806320165  0.4818947110504084   T   T   T
  0.8736024279381240  0.3762953437985033  0.4825146907589399   T   T   T
  0.8775304828199424  0.6252501520778679  0.4819781663290428   T   T   T
  0.8754435345718150  0.8749959611024636  0.4818783927444059   T   T   T
  0.1249999997703384  0.1250000001623945  0.3237126845002010   F   F   F
  0.1249999997703384  0.3750000004871836  0.3237126845002010   F   F   F
  0.1250000006889778  0.6250000014615438  0.3237126845002010   F   F   F
  0.1250000006889778  0.8750000017863329  0.3237126845002010   F   F   F
  0.3750000002296616  0.1250000001623945  0.3237126845002010   F   F   F
  0.3750000002296616  0.3750000004871836  0.3237126845002010   F   F   F
  0.3750000011483010  0.6250000014615438  0.3237126845002010   F   F   F
  0.3750000011483010  0.8750000017863329  0.3237126845002010   F   F   F
  0.6250000006889778  0.1250000001623945  0.3237126845002010   F   F   F
  0.6250000006889778  0.3750000004871836  0.3237126845002010   F   F   F
  0.6250000006889778  0.6250000014615438  0.3237126845002010   F   F   F
  0.6250000006889778  0.8750000017863329  0.3237126845002010   F   F   F
  0.8750000011483010  0.1250000001623945  0.3237126845002010   F   F   F
  0.8750000011483010  0.3750000004871836  0.3237126845002010   F   F   F
  0.8750000020669404  0.6250000014615438  0.3237126845002010   F   F   F
  0.8750000011483010  0.8750000017863329  0.3237126845002010   F   F   F
  0.6283766873225929  0.4678641677286848  0.6022665410846315   T   T   T
  0.5286178738413909  0.4069152485212726  0.6119679555494955   T   T   T
  0.3965611097607606  0.4346840227937676  0.6034149556824460   T   T   T
  0.3716233420738604  0.5321358472115634  0.6022665410846315   T   T   T
  0.4713821022739921  0.5930847404359341  0.6119679555494955   T   T   T
  0.6034388929951575  0.5653159791549598  0.6034149556824460   T   T   T
  0.7368204615472180  0.4486049317668090  0.6453069859438756   T   T   T
  0.5463317068288731  0.3374999227532030  0.6663403612603531   T   T   T
  0.3252398021058127  0.3959886901565071  0.6683770192949225   T   T   T
  0.2631795412087001  0.5513950701819184  0.6453069859438756   T   T   T
  0.4536682279477375  0.6625000577595088  0.6663403612603531   T   T   T
  0.6747601749282026  0.6040112988006996  0.6683770192949225   T   T   T
 
  0.00000000E+00  0.00000000E+00  0.00000000E+00
  0.00000000E+00  0.00000000E+00  0.00000000E+00
  0.00000000E+00  0.00000000E+00  0.00000000E+00
  0.00000000E+00  0.00000000E+00  0.00000000E+00
  0.00000000E+00  0.00000000E+00  0.00000000E+00
  0.00000000E+00  0.00000000E+00  0.00000000E+00
  0.00000000E+00  0.00000000E+00  0.00000000E+00
  0.00000000E+00  0.00000000E+00  0.00000000E+00
  0.00000000E+00  0.00000000E+00  0.00000000E+00
  0.00000000E+00  0.00000000E+00  0.00000000E+00
  0.00000000E+00  0.00000000E+00  0.00000000E+00
  0.00000000E+00  0.00000000E+00  0.00000000E+00
  0.00000000E+00  0.00000000E+00  0.00000000E+00
  0.00000000E+00  0.00000000E+00  0.00000000E+00
  0.00000000E+00  0.00000000E+00  0.00000000E+00
  0.00000000E+00  0.00000000E+00  0.00000000E+00
  0.00000000E+00  0.00000000E+00  0.00000000E+00
  0.00000000E+00  0.00000000E+00  0.00000000E+00
  0.00000000E+00  0.00000000E+00  0.00000000E+00
  0.00000000E+00  0.00000000E+00  0.00000000E+00
  0.00000000E+00  0.00000000E+00  0.00000000E+00
  0.00000000E+00  0.00000000E+00  0.00000000E+00
  0.00000000E+00  0.00000000E+00  0.00000000E+00
  0.00000000E+00  0.00000000E+00  0.00000000E+00
  0.00000000E+00  0.00000000E+00  0.00000000E+00
  0.00000000E+00  0.00000000E+00  0.00000000E+00
  0.00000000E+00  0.00000000E+00  0.00000000E+00
  0.00000000E+00  0.00000000E+00  0.00000000E+00
  0.00000000E+00  0.00000000E+00  0.00000000E+00
  0.00000000E+00  0.00000000E+00  0.00000000E+00
  0.00000000E+00  0.00000000E+00  0.00000000E+00
  0.00000000E+00  0.00000000E+00  0.00000000E+00
  0.00000000E+00  0.00000000E+00  0.00000000E+00
  0.00000000E+00  0.00000000E+00  0.00000000E+00
  0.00000000E+00  0.00000000E+00  0.00000000E+00
  0.00000000E+00  0.00000000E+00  0.00000000E+00
  0.00000000E+00  0.00000000E+00  0.00000000E+00
  0.00000000E+00  0.00000000E+00  0.00000000E+00
  0.00000000E+00  0.00000000E+00  0.00000000E+00
  0.00000000E+00  0.00000000E+00  0.00000000E+00
  0.00000000E+00  0.00000000E+00  0.00000000E+00
  0.00000000E+00  0.00000000E+00  0.00000000E+00
  0.00000000E+00  0.00000000E+00  0.00000000E+00
  0.00000000E+00  0.00000000E+00  0.00000000E+00
  0.00000000E+00  0.00000000E+00  0.00000000E+00
  0.00000000E+00  0.00000000E+00  0.00000000E+00
  0.00000000E+00  0.00000000E+00  0.00000000E+00
  0.00000000E+00  0.00000000E+00  0.00000000E+00
  0.00000000E+00  0.00000000E+00  0.00000000E+00
  0.00000000E+00  0.00000000E+00  0.00000000E+00
  0.00000000E+00  0.00000000E+00  0.00000000E+00
  0.00000000E+00  0.00000000E+00  0.00000000E+00
  0.00000000E+00  0.00000000E+00  0.00000000E+00
  0.00000000E+00  0.00000000E+00  0.00000000E+00
  0.00000000E+00  0.00000000E+00  0.00000000E+00
  0.00000000E+00  0.00000000E+00  0.00000000E+00
  0.00000000E+00  0.00000000E+00  0.00000000E+00
  0.00000000E+00  0.00000000E+00  0.00000000E+00
  0.00000000E+00  0.00000000E+00  0.00000000E+00
  0.00000000E+00  0.00000000E+00  0.00000000E+00
