Au  C  H Cl                             
   1.00000000000000     
    11.7981859999999994    0.0000000000000000    0.0000000000000000
    -5.8990929999999997   10.2175279999999997    0.0000000000000000
     0.0000000000000000    0.0000000000000000   25.2248836799999978
   Au   C    H    Cl
    64     6     4     2
Selective dynamics
Direct
  0.9999999981222629  0.7500000352335690  0.2973254543071064   F   F   F
  0.2499999923717056  0.0000000000000000  0.2973254543071064   F   F   F
  0.2500000016343193  0.2500000117445254  0.2973254543071064   F   F   F
  0.2500000117445254  0.5000000234890507  0.2973254543071064   F   F   F
  0.2500000210071391  0.7500000352335690  0.2973254543071064   F   F   F
  0.4999999847434182  0.0000000000000000  0.2973254543071064   F   F   F
  0.4999999940060320  0.2500000117445254  0.2973254543071064   F   F   F
  0.5000000041162309  0.5000000234890507  0.2973254543071064   F   F   F
  0.7499999771151238  0.0000000000000000  0.2973254543071064   F   F   F
  0.7499999863777376  0.2500000117445254  0.2973254543071064   F   F   F
  0.7499999964879436  0.5000000234890507  0.2973254543071064   F   F   F
  0.7500000057505574  0.7500000352335690  0.2973254543071064   F   F   F
  0.9999999694868364  0.0000000000000000  0.2973254543071064   F   F   F
  0.0000000092626138  0.2500000117445254  0.2973254543071064   F   F   F
  0.9999999888596491  0.5000000234890507  0.2973254543071064   F   F   F
  0.5000000133788447  0.7500000352335690  0.2973254543071064   F   F   F
  0.0833330000000032  0.1666669999999968  0.3927984241947584   F   F   F
  0.0833330000000032  0.4166669999999968  0.3927984241947584   F   F   F
  0.0833330000000032  0.6666669999999968  0.3927984241947584   F   F   F
  0.0833330000000032  0.9166669999999968  0.3927984241947584   F   F   F
  0.3333330000000032  0.1666669999999968  0.3927984241947584   F   F   F
  0.3333330000000032  0.4166669999999968  0.3927984241947584   F   F   F
  0.3333330000000032  0.6666669999999968  0.3927984241947584   F   F   F
  0.3333330000000032  0.9166669999999968  0.3927984241947584   F   F   F
  0.5833330000000032  0.1666669999999968  0.3927984241947584   F   F   F
  0.5833330000000032  0.4166669999999968  0.3927984241947584   F   F   F
  0.5833330000000032  0.6666669999999968  0.3927984241947584   F   F   F
  0.5833330000000032  0.9166669999999968  0.3927984241947584   F   F   F
  0.8333330000000032  0.1666669999999968  0.3927984241947584   F   F   F
  0.8333330000000032  0.4166669999999968  0.3927984241947584   F   F   F
  0.8333330000000032  0.6666669999999968  0.3927984241947584   F   F   F
  0.8333330000000032  0.9166669999999968  0.3927984241947584   F   F   F
  0.2499280651747430  0.2499604770353537  0.5850324374342512   T   T   T
  0.2498719624796110  0.4999436496203675  0.5849544004158862   T   T   T
  0.2506276098609703  0.7515762381788118  0.5832692557926066   T   T   T
  0.2499892548217970  0.0000809282644823  0.5850158944356257   T   T   T
  0.5000144077484909  0.2499165056592382  0.5843829406874137   T   T   T
  0.4995812386087471  0.4993743201819072  0.5812083672229624   T   T   T
  0.4999281622671515  0.7501904500525953  0.5808537814166550   T   T   T
  0.5014542717802999  0.0014688466006208  0.5832054357075318   T   T   T
  0.7510014041816516  0.2514482009092844  0.5832241234302801   T   T   T
  0.7501663305140563  0.4999294983100869  0.5808379642821631   T   T   T
  0.7503192158343907  0.7504051998620013  0.5811017427008018   T   T   T
  0.7500939532137743  0.0001340121334529  0.5843145724459213   T   T   T
  0.0000636796711213  0.2500382009496910  0.5850127288555486   T   T   T
  0.0014623337916069  0.5014664105348137  0.5832258779744687   T   T   T
  0.0000524686951296  0.7500218870865657  0.5843848716499302   T   T   T
  0.0000463699141402  0.0000912386214341  0.5850155706242083   T   T   T
  0.1670175383699269  0.0847238323874695  0.4879696798491321   T   T   T
  0.1679702705856938  0.3333297264438607  0.4879649648720887   T   T   T
  0.1680009249121425  0.5836097955612738  0.4878127981014632   T   T   T
  0.1663921642138785  0.8344948348200797  0.4878680306219850   T   T   T
  0.4153093478132258  0.0820154826880807  0.4879079708495409   T   T   T
  0.4165708100959608  0.3317431136968489  0.4878623135565432   T   T   T
  0.4152867453641665  0.5818285126433815  0.4873701005022291   T   T   T
  0.4165127056709348  0.8336177165706240  0.4862587369066903   T   T   T
  0.6682097639928644  0.0842278144218702  0.4874039639925629   T   T   T
  0.6664049990739621  0.3328030854117749  0.4862849763331806   T   T   T
  0.6668697358296410  0.5836754193511988  0.4861771933170401   T   T   T
  0.6669385906641651  0.8338406676489180  0.4862587302171535   T   T   T
  0.9180721209486634  0.0846797097269950  0.4879571615080058   T   T   T
  0.9182262622824657  0.3336773091233534  0.4878689210791325   T   T   T
  0.9172033522602773  0.5836376925354372  0.4862844595675750   T   T   T
  0.9181928858472568  0.8348547667295979  0.4878605001486197   T   T   T
  0.6904123415286980  0.5556074513208217  0.7005757848526742   T   T   T
  0.5538549093887353  0.4865753705447822  0.6979904333919806   T   T   T
  0.4854797199258829  0.5552281745897613  0.6978993088312070   T   T   T
  0.5548939873728703  0.6917793760847742  0.7003460621818256   T   T   T
  0.6915077188118671  0.7608490272992139  0.6978678738224208   T   T   T
  0.7598106645992654  0.6922183277574510  0.6980071718855975   T   T   T
  0.5006648400476128  0.3799745884995263  0.6960240943929136   T   T   T
  0.3789004410695259  0.5022852313073312  0.6958419338123319   T   T   T
  0.7446042967562605  0.8674281274302595  0.6957117387269403   T   T   T
  0.8664097580905016  0.7451748692772279  0.6959208459977138   T   T   T
  0.7746918696331453  0.4708560362840993  0.7043747815555279   T   T   T
  0.4705951312393929  0.7766341571389247  0.7036680762373428   T   T   T
 
  0.00000000E+00  0.00000000E+00  0.00000000E+00
  0.00000000E+00  0.00000000E+00  0.00000000E+00
  0.00000000E+00  0.00000000E+00  0.00000000E+00
  0.00000000E+00  0.00000000E+00  0.00000000E+00
  0.00000000E+00  0.00000000E+00  0.00000000E+00
  0.00000000E+00  0.00000000E+00  0.00000000E+00
  0.00000000E+00  0.00000000E+00  0.00000000E+00
  0.00000000E+00  0.00000000E+00  0.00000000E+00
  0.00000000E+00  0.00000000E+00  0.00000000E+00
  0.00000000E+00  0.00000000E+00  0.00000000E+00
  0.00000000E+00  0.00000000E+00  0.00000000E+00
  0.00000000E+00  0.00000000E+00  0.00000000E+00
  0.00000000E+00  0.00000000E+00  0.00000000E+00
  0.00000000E+00  0.00000000E+00  0.00000000E+00
  0.00000000E+00  0.00000000E+00  0.00000000E+00
  0.00000000E+00  0.00000000E+00  0.00000000E+00
  0.00000000E+00  0.00000000E+00  0.00000000E+00
  0.00000000E+00  0.00000000E+00  0.00000000E+00
  0.00000000E+00  0.00000000E+00  0.00000000E+00
  0.00000000E+00  0.00000000E+00  0.00000000E+00
  0.00000000E+00  0.00000000E+00  0.00000000E+00
  0.00000000E+00  0.00000000E+00  0.00000000E+00
  0.00000000E+00  0.00000000E+00  0.00000000E+00
  0.00000000E+00  0.00000000E+00  0.00000000E+00
  0.00000000E+00  0.00000000E+00  0.00000000E+00
  0.00000000E+00  0.00000000E+00  0.00000000E+00
  0.00000000E+00  0.00000000E+00  0.00000000E+00
  0.00000000E+00  0.00000000E+00  0.00000000E+00
  0.00000000E+00  0.00000000E+00  0.00000000E+00
  0.00000000E+00  0.00000000E+00  0.00000000E+00
  0.00000000E+00  0.00000000E+00  0.00000000E+00
  0.00000000E+00  0.00000000E+00  0.00000000E+00
  0.00000000E+00  0.00000000E+00  0.00000000E+00
  0.00000000E+00  0.00000000E+00  0.00000000E+00
  0.00000000E+00  0.00000000E+00  0.00000000E+00
  0.00000000E+00  0.00000000E+00  0.00000000E+00
  0.00000000E+00  0.00000000E+00  0.00000000E+00
  0.00000000E+00  0.00000000E+00  0.00000000E+00
  0.00000000E+00  0.00000000E+00  0.00000000E+00
  0.00000000E+00  0.00000000E+00  0.00000000E+00
  0.00000000E+00  0.00000000E+00  0.00000000E+00
  0.00000000E+00  0.00000000E+00  0.00000000E+00
  0.00000000E+00  0.00000000E+00  0.00000000E+00
  0.00000000E+00  0.00000000E+00  0.00000000E+00
  0.00000000E+00  0.00000000E+00  0.00000000E+00
  0.00000000E+00  0.00000000E+00  0.00000000E+00
  0.00000000E+00  0.00000000E+00  0.00000000E+00
  0.00000000E+00  0.00000000E+00  0.00000000E+00
  0.00000000E+00  0.00000000E+00  0.00000000E+00
  0.00000000E+00  0.00000000E+00  0.00000000E+00
  0.00000000E+00  0.00000000E+00  0.00000000E+00
  0.00000000E+00  0.00000000E+00  0.00000000E+00
  0.00000000E+00  0.00000000E+00  0.00000000E+00
  0.00000000E+00  0.00000000E+00  0.00000000E+00
  0.00000000E+00  0.00000000E+00  0.00000000E+00
  0.00000000E+00  0.00000000E+00  0.00000000E+00
  0.00000000E+00  0.00000000E+00  0.00000000E+00
  0.00000000E+00  0.00000000E+00  0.00000000E+00
  0.00000000E+00  0.00000000E+00  0.00000000E+00
  0.00000000E+00  0.00000000E+00  0.00000000E+00
  0.00000000E+00  0.00000000E+00  0.00000000E+00
  0.00000000E+00  0.00000000E+00  0.00000000E+00
  0.00000000E+00  0.00000000E+00  0.00000000E+00
  0.00000000E+00  0.00000000E+00  0.00000000E+00
  0.00000000E+00  0.00000000E+00  0.00000000E+00
  0.00000000E+00  0.00000000E+00  0.00000000E+00
  0.00000000E+00  0.00000000E+00  0.00000000E+00
  0.00000000E+00  0.00000000E+00  0.00000000E+00
  0.00000000E+00  0.00000000E+00  0.00000000E+00
  0.00000000E+00  0.00000000E+00  0.00000000E+00
  0.00000000E+00  0.00000000E+00  0.00000000E+00
  0.00000000E+00  0.00000000E+00  0.00000000E+00
  0.00000000E+00  0.00000000E+00  0.00000000E+00
  0.00000000E+00  0.00000000E+00  0.00000000E+00
  0.00000000E+00  0.00000000E+00  0.00000000E+00
  0.00000000E+00  0.00000000E+00  0.00000000E+00
