Cu  C  F                                
    1.000000000000000     
    10.2424774999999997    0.0000000000000000    0.0000000000000000
     0.0000000000000000   10.2424774999999997    0.0000000000000000
     0.0000000000000000    0.0000000000000000   23.4318939600000000
   Cu   C    F 
    64     6     6
Selective dynamics
Direct
  0.2499999995118358  0.0000000000000000  0.3200765594451340   F   F   F
  0.0000000000000000  0.4999999990236716  0.3200765594451340   F   F   F
  0.2499999995118358  0.2499999995118358  0.3200765594451340   F   F   F
  0.2499999995118358  0.4999999990236716  0.3200765594451340   F   F   F
  0.2499999995118358  0.7499999985355075  0.3200765594451340   F   F   F
  0.4999999990236716  0.0000000000000000  0.3200765594451340   F   F   F
  0.4999999990236716  0.2499999995118358  0.3200765594451340   F   F   F
  0.0000000000000000  0.7499999985355075  0.3200765594451340   F   F   F
  0.4999999990236716  0.4999999990236716  0.3200765594451340   F   F   F
  0.4999999990236716  0.7499999985355075  0.3200765594451340   F   F   F
  0.7499999985355075  0.0000000000000000  0.3200765594451340   F   F   F
  0.7499999985355075  0.2499999995118358  0.3200765594451340   F   F   F
  0.7499999985355075  0.4999999990236716  0.3200765594451340   F   F   F
  0.7499999985355075  0.7499999985355075  0.3200765594451340   F   F   F
  0.0000000000000000  0.0000000000000000  0.3200765594451340   F   F   F
  0.0000000000000000  0.2499999995118358  0.3200765594451340   F   F   F
  0.2500458196268856  0.9999708867945477  0.4741701551653550   T   T   T
  0.2498912618099670  0.2499084869616929  0.4740618586154070   T   T   T
  0.2497258273429623  0.4999747262461826  0.4740021629106586   T   T   T
  0.2499314591955567  0.7500556350051029  0.4740957337092578   T   T   T
  0.4999999990236716  0.0000000000000000  0.4741606012233040   T   T   T
  0.4999769098811408  0.2497408937553610  0.4740012841098147   T   T   T
  0.4999999990236716  0.4999999990236716  0.4737614465009227   T   T   T
  0.5000230881662023  0.7502591042919822  0.4740012841098147   T   T   T
  0.7499541784204576  0.0000291132054522  0.4741701551653550   T   T   T
  0.7500685388517867  0.2499443630422402  0.4740957337092578   T   T   T
  0.7502741707043812  0.5000252718011610  0.4740021629106586   T   T   T
  0.7501087362373763  0.7500915110856504  0.4740618586154070   T   T   T
 -0.0000000000000000  0.0000000000000000  0.4741126231215197   T   T   T
  0.9999726605359792  0.2500564302296701  0.4741736043066989   T   T   T
 -0.0000000000000000  0.4999999990236716  0.4741600116032179   T   T   T
  0.0000273394640208  0.7499435678176729  0.4741736043066989   T   T   T
  0.1250260721400272  0.1250458223073147  0.5495231737540678   T   T   T
  0.1250939887269014  0.3749655904043342  0.5494992514733299   T   T   T
  0.1251146548905937  0.6249032286297005  0.5495488097843872   T   T   T
  0.1250292387167324  0.8749385231136518  0.5495682441839606   T   T   T
  0.3749357501797646  0.1251295264323551  0.5495308495299887   T   T   T
  0.3751192048821947  0.3751360487546109  0.5489453611522168   T   T   T
  0.3751619715339307  0.6248027488069657  0.5489463326711200   T   T   T
  0.3750805156668751  0.8748618628319623  0.5495954063851406   T   T   T
  0.6249194823804751  0.1251381352153883  0.5495954063851406   T   T   T
  0.6248380265134199  0.3751972492403844  0.5489463326711200   T   T   T
  0.6248807941414840  0.6248639492927395  0.5489453611522168   T   T   T
  0.6250642488439142  0.8748704716149951  0.5495308495299887   T   T   T
  0.8749707603069394  0.1250614749336984  0.5495682441839606   T   T   T
  0.8748853431567495  0.3750967694176500  0.5495488097843872   T   T   T
  0.8749060102967701  0.6250344076430162  0.5494992514733299   T   T   T
  0.8749739268836445  0.8749541757400356  0.5495231737540678   T   T   T
  0.1250000002440785  0.1249999992677573  0.3973486452223582   F   F   F
  0.1250000002440785  0.3749999997559215  0.3973486452223582   F   F   F
  0.1250000002440785  0.6249999982914289  0.3973486452223582   F   F   F
  0.1250000002440785  0.8749999987795931  0.3973486452223582   F   F   F
  0.3749999997559215  0.1249999992677573  0.3973486452223582   F   F   F
  0.3749999997559215  0.3749999997559215  0.3973486452223582   F   F   F
  0.3749999997559215  0.6249999982914289  0.3973486452223582   F   F   F
  0.3749999997559215  0.8749999987795931  0.3973486452223582   F   F   F
  0.6249999982914289  0.1249999992677573  0.3973486452223582   F   F   F
  0.6249999982914289  0.3749999997559215  0.3973486452223582   F   F   F
  0.6249999992677573  0.6249999982914289  0.3973486452223582   F   F   F
  0.6249999992677573  0.8749999987795931  0.3973486452223582   F   F   F
  0.8749999987795931  0.1249999992677573  0.3973486452223582   F   F   F
  0.8749999978032648  0.3749999997559215  0.3973486452223582   F   F   F
  0.8749999987795931  0.6249999982914289  0.3973486452223582   F   F   F
  0.8749999987795931  0.8749999987795931  0.3973486452223582   F   F   F
  0.3682650523387290  0.5353106289089228  0.6763103744746598   T   T   T
  0.4646995273676540  0.6317227279825482  0.6763097752215412   T   T   T
  0.5963840621394795  0.5963948570936946  0.6764401427117621   T   T   T
  0.6317349164188348  0.4646893544935310  0.6763103744746598   T   T   T
  0.5353005028984610  0.3682772847096920  0.6763097752215412   T   T   T
  0.4036159368841921  0.4036051409536560  0.6764401427117621   T   T   T
  0.2412392441576130  0.5689722363215923  0.6775877750120000   T   T   T
  0.4310527499711262  0.7587656899532956  0.6775800636611673   T   T   T
  0.6893954683887560  0.6893918821868584  0.6781235947103580   T   T   T
  0.7587607548660589  0.4310277617257509  0.6775877750120000   T   T   T
  0.5689473252060007  0.2412343276205793  0.6775800636611673   T   T   T
  0.3106045618773592  0.3106081295290535  0.6781235947103580   T   T   T
 
  0.00000000E+00  0.00000000E+00  0.00000000E+00
  0.00000000E+00  0.00000000E+00  0.00000000E+00
  0.00000000E+00  0.00000000E+00  0.00000000E+00
  0.00000000E+00  0.00000000E+00  0.00000000E+00
  0.00000000E+00  0.00000000E+00  0.00000000E+00
  0.00000000E+00  0.00000000E+00  0.00000000E+00
  0.00000000E+00  0.00000000E+00  0.00000000E+00
  0.00000000E+00  0.00000000E+00  0.00000000E+00
  0.00000000E+00  0.00000000E+00  0.00000000E+00
  0.00000000E+00  0.00000000E+00  0.00000000E+00
  0.00000000E+00  0.00000000E+00  0.00000000E+00
  0.00000000E+00  0.00000000E+00  0.00000000E+00
  0.00000000E+00  0.00000000E+00  0.00000000E+00
  0.00000000E+00  0.00000000E+00  0.00000000E+00
  0.00000000E+00  0.00000000E+00  0.00000000E+00
  0.00000000E+00  0.00000000E+00  0.00000000E+00
  0.00000000E+00  0.00000000E+00  0.00000000E+00
  0.00000000E+00  0.00000000E+00  0.00000000E+00
  0.00000000E+00  0.00000000E+00  0.00000000E+00
  0.00000000E+00  0.00000000E+00  0.00000000E+00
  0.00000000E+00  0.00000000E+00  0.00000000E+00
  0.00000000E+00  0.00000000E+00  0.00000000E+00
  0.00000000E+00  0.00000000E+00  0.00000000E+00
  0.00000000E+00  0.00000000E+00  0.00000000E+00
  0.00000000E+00  0.00000000E+00  0.00000000E+00
  0.00000000E+00  0.00000000E+00  0.00000000E+00
  0.00000000E+00  0.00000000E+00  0.00000000E+00
  0.00000000E+00  0.00000000E+00  0.00000000E+00
  0.00000000E+00  0.00000000E+00  0.00000000E+00
  0.00000000E+00  0.00000000E+00  0.00000000E+00
  0.00000000E+00  0.00000000E+00  0.00000000E+00
  0.00000000E+00  0.00000000E+00  0.00000000E+00
  0.00000000E+00  0.00000000E+00  0.00000000E+00
  0.00000000E+00  0.00000000E+00  0.00000000E+00
  0.00000000E+00  0.00000000E+00  0.00000000E+00
  0.00000000E+00  0.00000000E+00  0.00000000E+00
  0.00000000E+00  0.00000000E+00  0.00000000E+00
  0.00000000E+00  0.00000000E+00  0.00000000E+00
  0.00000000E+00  0.00000000E+00  0.00000000E+00
  0.00000000E+00  0.00000000E+00  0.00000000E+00
  0.00000000E+00  0.00000000E+00  0.00000000E+00
  0.00000000E+00  0.00000000E+00  0.00000000E+00
  0.00000000E+00  0.00000000E+00  0.00000000E+00
  0.00000000E+00  0.00000000E+00  0.00000000E+00
  0.00000000E+00  0.00000000E+00  0.00000000E+00
  0.00000000E+00  0.00000000E+00  0.00000000E+00
  0.00000000E+00  0.00000000E+00  0.00000000E+00
  0.00000000E+00  0.00000000E+00  0.00000000E+00
  0.00000000E+00  0.00000000E+00  0.00000000E+00
  0.00000000E+00  0.00000000E+00  0.00000000E+00
  0.00000000E+00  0.00000000E+00  0.00000000E+00
  0.00000000E+00  0.00000000E+00  0.00000000E+00
  0.00000000E+00  0.00000000E+00  0.00000000E+00
  0.00000000E+00  0.00000000E+00  0.00000000E+00
  0.00000000E+00  0.00000000E+00  0.00000000E+00
  0.00000000E+00  0.00000000E+00  0.00000000E+00
  0.00000000E+00  0.00000000E+00  0.00000000E+00
  0.00000000E+00  0.00000000E+00  0.00000000E+00
  0.00000000E+00  0.00000000E+00  0.00000000E+00
  0.00000000E+00  0.00000000E+00  0.00000000E+00
  0.00000000E+00  0.00000000E+00  0.00000000E+00
  0.00000000E+00  0.00000000E+00  0.00000000E+00
  0.00000000E+00  0.00000000E+00  0.00000000E+00
  0.00000000E+00  0.00000000E+00  0.00000000E+00
  0.00000000E+00  0.00000000E+00  0.00000000E+00
  0.00000000E+00  0.00000000E+00  0.00000000E+00
  0.00000000E+00  0.00000000E+00  0.00000000E+00
  0.00000000E+00  0.00000000E+00  0.00000000E+00
  0.00000000E+00  0.00000000E+00  0.00000000E+00
  0.00000000E+00  0.00000000E+00  0.00000000E+00
  0.00000000E+00  0.00000000E+00  0.00000000E+00
  0.00000000E+00  0.00000000E+00  0.00000000E+00
  0.00000000E+00  0.00000000E+00  0.00000000E+00
  0.00000000E+00  0.00000000E+00  0.00000000E+00
  0.00000000E+00  0.00000000E+00  0.00000000E+00
  0.00000000E+00  0.00000000E+00  0.00000000E+00
