Ir  C  F                                
    1.000000000000000     
    10.9622135000000007    0.0000000000000000    0.0000000000000000
     0.0000000000000000   15.5029109999999992    0.0000000000000000
     0.0000000000000000    0.0000000000000000   22.1108300437499992
   Ir   C    F 
    64     6     6
Selective dynamics
Direct
  0.2499999995438884  0.0000000000000000  0.3392002916742598   F   F   F
  0.9999999981755536  0.4999999993549622  0.3392002916742598   F   F   F
  0.2499999995438884  0.2499999993549622  0.3392002916742598   F   F   F
  0.2499999995438884  0.4999999993549622  0.3392002916742598   F   F   F
  0.2499999995438884  0.7499999987099173  0.3392002916742598   F   F   F
  0.4999999990877768  0.0000000000000000  0.3392002916742598   F   F   F
  0.4999999990877768  0.2499999993549622  0.3392002916742598   F   F   F
  0.4999999990877768  0.4999999993549622  0.3392002916742598   F   F   F
  0.4999999990877768  0.7499999987099173  0.3392002916742598   F   F   F
  0.7499999986316652  0.0000000000000000  0.3392002916742598   F   F   F
  0.7499999986316652  0.2499999993549622  0.3392002916742598   F   F   F
  0.7499999986316652  0.4999999993549622  0.3392002916742598   F   F   F
  0.0000000000000000  0.0000000000000000  0.3392002916742598   F   F   F
  0.9999999981755536  0.2499999993549622  0.3392002916742598   F   F   F
  0.9999999981755536  0.7499999987099173  0.3392002916742598   F   F   F
  0.7499999986316652  0.7499999987099173  0.3392002916742598   F   F   F
  0.2502024668841867  0.0000939509757868  0.4632266118221810   T   T   T
  0.2502817105793880  0.2505365332625582  0.4625365055876196   T   T   T
  0.2494618417792944  0.4996554899379652  0.4609720614492301   T   T   T
  0.2527122940152596  0.7475761537596554  0.4643956991771164   T   T   T
  0.4999999990877768 -0.0000000000000000  0.4634187598550027   T   T   T
  0.4998543510944320  0.2516493392343833  0.4631110793885201   T   T   T
  0.4999999990877768  0.4999999993549622  0.4592622296986100   T   T   T
  0.5001456470811216  0.7483506588304961  0.4631110793885201   T   T   T
  0.7497975312913671 -0.0000939509757870  0.4632266118221810   T   T   T
  0.7472877041602940  0.2524238443052240  0.4643956991771164   T   T   T
  0.7505381563962593  0.5003445087719586  0.4609720614492301   T   T   T
  0.7497182875961654  0.7494634648023216  0.4625365060398871   T   T   T
 -0.0000000000000000 -0.0000000000000000  0.4635024016583656   T   T   T
  0.9986316067124831  0.2504394568779256  0.4630210912096799   T   T   T
  0.9999999981755536  0.4999999993549622  0.4631893302452144   T   T   T
  0.0013683896386241  0.7495605411869536  0.4630210916619403   T   T   T
  0.1247701570705925  0.1257630680515962  0.5198560709478118   T   T   T
  0.1215540218820732  0.3749136600268481  0.5199276150356886   T   T   T
  0.1248238178426531  0.6244264126666018  0.5201670254354159   T   T   T
  0.1253842666263692  0.8743534324756498  0.5199538254801880   T   T   T
  0.3751621017665286  0.1257112369965804  0.5199617974437947   T   T   T
  0.3683349842938126  0.3755392684947974  0.5216832223231073   T   T   T
  0.3806023498051130  0.6130272911196302  0.5272407113652885   T   T   T
  0.3749511382623153  0.8741326001779796  0.5196055805839108   T   T   T
  0.6250488608254615  0.1258673978869002  0.5196055805839108   T   T   T
  0.6193976492826635  0.3869727075902870  0.5272407113652885   T   T   T
  0.6316650147939641  0.6244607302151198  0.5216832223231073   T   T   T
  0.6248378973212482  0.8742887610682992  0.5199617974437947   T   T   T
  0.8746157324614076  0.1256465655892297  0.5199538254801880   T   T   T
  0.8751761812451236  0.3755735860433156  0.5201670254354159   T   T   T
  0.8784459772057037  0.6250863386830690  0.5199276150356886   T   T   T
  0.8752298420171845  0.8742369300132833  0.5198560709478118   T   T   T
  0.1249999993158326  0.1249999996774775  0.4011733916681877   F   F   F
  0.1249999993158326  0.3749999996774775  0.4011733916681877   F   F   F
  0.1250000002280558  0.6249999990324397  0.4011733916681877   F   F   F
  0.1250000002280558  0.8749999983874019  0.4011733916681877   F   F   F
  0.3749999988597210  0.1249999996774775  0.4011733916681877   F   F   F
  0.3749999997719442  0.3749999996774775  0.4011733916681877   F   F   F
  0.3749999997719442  0.6249999990324397  0.4011733916681877   F   F   F
  0.3749999997719442  0.8749999983874019  0.4011733916681877   F   F   F
  0.6249999993158326  0.1249999996774775  0.4011733916681877   F   F   F
  0.6249999984036094  0.3749999996774775  0.4011733916681877   F   F   F
  0.6249999993158326  0.6249999990324397  0.4011733916681877   F   F   F
  0.6249999993158326  0.8749999983874019  0.4011733916681877   F   F   F
  0.8749999979474978  0.1249999996774775  0.4011733916681877   F   F   F
  0.8749999988597210  0.3749999996774775  0.4011733916681877   F   F   F
  0.8749999988597210  0.6249999990324397  0.4011733916681877   F   F   F
  0.8749999988597210  0.8749999983874019  0.4011733916681877   F   F   F
  0.3711199849223907  0.5311317958345440  0.6048224358557337   T   T   T
  0.4694467737411260  0.5928838193089514  0.6123293680925611   T   T   T
  0.6026214968850996  0.5669325386526339  0.6044290693523550   T   T   T
  0.6288799877108779  0.4688681899745740  0.6048224358557337   T   T   T
  0.5305532518011586  0.4071161923017718  0.6123293680925611   T   T   T
  0.3973785022026772  0.4330674600572905  0.6044290693523550   T   T   T
  0.2666578367264073  0.5478298243565896  0.6378016040895427   T   T   T
  0.4523285043923284  0.6576461398434202  0.6536479464194344   T   T   T
  0.6715780065391858  0.6049070619264403  0.6504305235041418   T   T   T
  0.7333421623613693  0.4521701743533281  0.6378016040895427   T   T   T
  0.5476715612878333  0.3423538795077850  0.6536479464194344   T   T   T
  0.3284220190031061  0.3950929496842831  0.6504305235041418   T   T   T
 
  0.00000000E+00  0.00000000E+00  0.00000000E+00
  0.00000000E+00  0.00000000E+00  0.00000000E+00
  0.00000000E+00  0.00000000E+00  0.00000000E+00
  0.00000000E+00  0.00000000E+00  0.00000000E+00
  0.00000000E+00  0.00000000E+00  0.00000000E+00
  0.00000000E+00  0.00000000E+00  0.00000000E+00
  0.00000000E+00  0.00000000E+00  0.00000000E+00
  0.00000000E+00  0.00000000E+00  0.00000000E+00
  0.00000000E+00  0.00000000E+00  0.00000000E+00
  0.00000000E+00  0.00000000E+00  0.00000000E+00
  0.00000000E+00  0.00000000E+00  0.00000000E+00
  0.00000000E+00  0.00000000E+00  0.00000000E+00
  0.00000000E+00  0.00000000E+00  0.00000000E+00
  0.00000000E+00  0.00000000E+00  0.00000000E+00
  0.00000000E+00  0.00000000E+00  0.00000000E+00
  0.00000000E+00  0.00000000E+00  0.00000000E+00
  0.00000000E+00  0.00000000E+00  0.00000000E+00
  0.00000000E+00  0.00000000E+00  0.00000000E+00
  0.00000000E+00  0.00000000E+00  0.00000000E+00
  0.00000000E+00  0.00000000E+00  0.00000000E+00
  0.00000000E+00  0.00000000E+00  0.00000000E+00
  0.00000000E+00  0.00000000E+00  0.00000000E+00
  0.00000000E+00  0.00000000E+00  0.00000000E+00
  0.00000000E+00  0.00000000E+00  0.00000000E+00
  0.00000000E+00  0.00000000E+00  0.00000000E+00
  0.00000000E+00  0.00000000E+00  0.00000000E+00
  0.00000000E+00  0.00000000E+00  0.00000000E+00
  0.00000000E+00  0.00000000E+00  0.00000000E+00
  0.00000000E+00  0.00000000E+00  0.00000000E+00
  0.00000000E+00  0.00000000E+00  0.00000000E+00
  0.00000000E+00  0.00000000E+00  0.00000000E+00
  0.00000000E+00  0.00000000E+00  0.00000000E+00
  0.00000000E+00  0.00000000E+00  0.00000000E+00
  0.00000000E+00  0.00000000E+00  0.00000000E+00
  0.00000000E+00  0.00000000E+00  0.00000000E+00
  0.00000000E+00  0.00000000E+00  0.00000000E+00
  0.00000000E+00  0.00000000E+00  0.00000000E+00
  0.00000000E+00  0.00000000E+00  0.00000000E+00
  0.00000000E+00  0.00000000E+00  0.00000000E+00
  0.00000000E+00  0.00000000E+00  0.00000000E+00
  0.00000000E+00  0.00000000E+00  0.00000000E+00
  0.00000000E+00  0.00000000E+00  0.00000000E+00
  0.00000000E+00  0.00000000E+00  0.00000000E+00
  0.00000000E+00  0.00000000E+00  0.00000000E+00
  0.00000000E+00  0.00000000E+00  0.00000000E+00
  0.00000000E+00  0.00000000E+00  0.00000000E+00
  0.00000000E+00  0.00000000E+00  0.00000000E+00
  0.00000000E+00  0.00000000E+00  0.00000000E+00
  0.00000000E+00  0.00000000E+00  0.00000000E+00
  0.00000000E+00  0.00000000E+00  0.00000000E+00
  0.00000000E+00  0.00000000E+00  0.00000000E+00
  0.00000000E+00  0.00000000E+00  0.00000000E+00
  0.00000000E+00  0.00000000E+00  0.00000000E+00
  0.00000000E+00  0.00000000E+00  0.00000000E+00
  0.00000000E+00  0.00000000E+00  0.00000000E+00
  0.00000000E+00  0.00000000E+00  0.00000000E+00
  0.00000000E+00  0.00000000E+00  0.00000000E+00
  0.00000000E+00  0.00000000E+00  0.00000000E+00
  0.00000000E+00  0.00000000E+00  0.00000000E+00
  0.00000000E+00  0.00000000E+00  0.00000000E+00
  0.00000000E+00  0.00000000E+00  0.00000000E+00
  0.00000000E+00  0.00000000E+00  0.00000000E+00
  0.00000000E+00  0.00000000E+00  0.00000000E+00
  0.00000000E+00  0.00000000E+00  0.00000000E+00
  0.00000000E+00  0.00000000E+00  0.00000000E+00
  0.00000000E+00  0.00000000E+00  0.00000000E+00
  0.00000000E+00  0.00000000E+00  0.00000000E+00
  0.00000000E+00  0.00000000E+00  0.00000000E+00
  0.00000000E+00  0.00000000E+00  0.00000000E+00
  0.00000000E+00  0.00000000E+00  0.00000000E+00
  0.00000000E+00  0.00000000E+00  0.00000000E+00
  0.00000000E+00  0.00000000E+00  0.00000000E+00
  0.00000000E+00  0.00000000E+00  0.00000000E+00
  0.00000000E+00  0.00000000E+00  0.00000000E+00
  0.00000000E+00  0.00000000E+00  0.00000000E+00
  0.00000000E+00  0.00000000E+00  0.00000000E+00
