Rh48 C6 H2 Cl4                          
    1.000000000000000     
    10.8856652999999994    0.0000000000000000    0.0000000000000000
     0.0000000000000000   10.8856652999999994    0.0000000000000000
     0.0000000000000000    0.0000000000000000   16.5554095100000005
   Rh   C    H    Cl
    48     6     2     4
Selective dynamics
Direct
  0.0000104392382667  0.9999987032161570  0.4086352405765439   T   T   T
  0.9986192112871635  0.2507455832183894  0.4095330511523514   T   T   T
  0.0000105210008385  0.5000053415596852  0.4097823955370927   T   T   T
  0.0013994620150797  0.7492530524417376  0.4095384425003630   T   T   T
  0.2507347734155303  0.9986094701670893  0.4095373513778782   T   T   T
  0.2497758422492566  0.2497825473129538  0.4089899154651917   T   T   T
  0.2496205248623795  0.5002363909060392  0.4092073983780438   T   T   T
  0.2517717918388982  0.7482130722102482  0.4107048139612743   T   T   T
  0.4999951720145646  0.9999978522402415  0.4097795690339794   T   T   T
  0.5002261380452495  0.2496463897061574  0.4092116762599147   T   T   T
  0.5000016230790507  0.4999884560408745  0.4082973174988211   T   T   T
  0.4997690892089679  0.7503706613608969  0.4092130719869260   T   T   T
  0.7492546526818629  0.0013805346483338  0.4095285360520435   T   T   T
  0.7481989906398496  0.2518045475048325  0.4107023881868557   T   T   T
  0.7503582797951154  0.4997672115088818  0.4092093423951013   T   T   T
  0.7502193904998435  0.7502233812462293  0.4089851013413082   T   T   T
  0.1245744494436209  0.1245844059388403  0.5160860272373213   T   T   T
  0.1243594130107653  0.3731898979864212  0.5166847848217770   T   T   T
  0.1244230971580222  0.6251416058100361  0.5190646184878958   T   T   T
  0.1244432760514229  0.8755551124742098  0.5168435846860291   T   T   T
  0.3731816131176089  0.1243621274545958  0.5166758986182529   T   T   T
  0.3733201173205813  0.3733398805177188  0.5160896999474502   T   T   T
  0.3770377076464442  0.6229628209939975  0.5221821945363843   T   T   T
  0.3748509906512396  0.8755748941309633  0.5190604948294464   T   T   T
  0.6251415117380006  0.1244191817584408  0.5190509232384883   T   T   T
  0.6229607127084975  0.3770435757801849  0.5222088536151759   T   T   T
  0.6266563532262239  0.6266683513086804  0.5160815873409490   T   T   T
  0.6268102181093411  0.8756415976155694  0.5166838315446824   T   T   T
  0.8755472735433685  0.1244477688032504  0.5168230761539832   T   T   T
  0.8755852609676467  0.3748580973681754  0.5190429392211797   T   T   T
  0.8756371471510533  0.6268174309467014  0.5166700224738179   T   T   T
  0.8754193159107118  0.8754262633402234  0.5160747891235005   T   T   T
  0.1249999997703384  0.1249999997703384  0.3020160870668818   F   F   F
  0.1250000006889778  0.3750000002296616  0.3020160870668818   F   F   F
  0.1250000006889778  0.6250000006889778  0.3020160870668818   F   F   F
  0.1250000006889778  0.8750000011483010  0.3020160870668818   F   F   F
  0.3750000011483010  0.1249999997703384  0.3020160870668818   F   F   F
  0.3750000011483010  0.3750000002296616  0.3020160870668818   F   F   F
  0.3750000011483010  0.6250000006889778  0.3020160870668818   F   F   F
  0.3750000011483010  0.8750000011483010  0.3020160870668818   F   F   F
  0.6250000006889778  0.1249999997703384  0.3020160870668818   F   F   F
  0.6250000006889778  0.3750000002296616  0.3020160870668818   F   F   F
  0.6250000016076172  0.6250000006889778  0.3020160870668818   F   F   F
  0.6250000016076172  0.8750000011483010  0.3020160870668818   F   F   F
  0.8750000011483010  0.1249999997703384  0.3020160870668818   F   F   F
  0.8750000011483010  0.3750000002296616  0.3020160870668818   F   F   F
  0.8750000011483010  0.6250000006889778  0.3020160870668818   F   F   F
  0.8750000020669404  0.8750000011483010  0.3020160870668818   F   F   F
  0.4041269965097030  0.4040847049596934  0.6395113721521923   T   T   T
  0.3705395034867536  0.5353185809241907  0.6399348263955602   T   T   T
  0.4646972609757611  0.6294579822157615  0.6399218830950844   T   T   T
  0.5958919538210452  0.5958920330631798  0.6395000498172010   T   T   T
  0.6294876054945107  0.4646725295361023  0.6399464710591900   T   T   T
  0.5353237530271429  0.3705130804486529  0.6399391685954825   T   T   T
  0.3432475926424416  0.3432428095833728  0.6736117699462696   T   T   T
  0.6567561681907321  0.6567626046214201  0.6736092094177195   T   T   T
  0.2231237155331343  0.5661025834255327  0.6791796607512168   T   T   T
  0.4338948241143399  0.7769043463170391  0.6791423445572278   T   T   T
  0.7768974347347424  0.4338825043919385  0.6792107563586285   T   T   T
  0.5661328671307899  0.2230848786735322  0.6792017299916253   T   T   T
 
  0.00000000E+00  0.00000000E+00  0.00000000E+00
  0.00000000E+00  0.00000000E+00  0.00000000E+00
  0.00000000E+00  0.00000000E+00  0.00000000E+00
  0.00000000E+00  0.00000000E+00  0.00000000E+00
  0.00000000E+00  0.00000000E+00  0.00000000E+00
  0.00000000E+00  0.00000000E+00  0.00000000E+00
  0.00000000E+00  0.00000000E+00  0.00000000E+00
  0.00000000E+00  0.00000000E+00  0.00000000E+00
  0.00000000E+00  0.00000000E+00  0.00000000E+00
  0.00000000E+00  0.00000000E+00  0.00000000E+00
  0.00000000E+00  0.00000000E+00  0.00000000E+00
  0.00000000E+00  0.00000000E+00  0.00000000E+00
  0.00000000E+00  0.00000000E+00  0.00000000E+00
  0.00000000E+00  0.00000000E+00  0.00000000E+00
  0.00000000E+00  0.00000000E+00  0.00000000E+00
  0.00000000E+00  0.00000000E+00  0.00000000E+00
  0.00000000E+00  0.00000000E+00  0.00000000E+00
  0.00000000E+00  0.00000000E+00  0.00000000E+00
  0.00000000E+00  0.00000000E+00  0.00000000E+00
  0.00000000E+00  0.00000000E+00  0.00000000E+00
  0.00000000E+00  0.00000000E+00  0.00000000E+00
  0.00000000E+00  0.00000000E+00  0.00000000E+00
  0.00000000E+00  0.00000000E+00  0.00000000E+00
  0.00000000E+00  0.00000000E+00  0.00000000E+00
  0.00000000E+00  0.00000000E+00  0.00000000E+00
  0.00000000E+00  0.00000000E+00  0.00000000E+00
  0.00000000E+00  0.00000000E+00  0.00000000E+00
  0.00000000E+00  0.00000000E+00  0.00000000E+00
  0.00000000E+00  0.00000000E+00  0.00000000E+00
  0.00000000E+00  0.00000000E+00  0.00000000E+00
  0.00000000E+00  0.00000000E+00  0.00000000E+00
  0.00000000E+00  0.00000000E+00  0.00000000E+00
  0.00000000E+00  0.00000000E+00  0.00000000E+00
  0.00000000E+00  0.00000000E+00  0.00000000E+00
  0.00000000E+00  0.00000000E+00  0.00000000E+00
  0.00000000E+00  0.00000000E+00  0.00000000E+00
  0.00000000E+00  0.00000000E+00  0.00000000E+00
  0.00000000E+00  0.00000000E+00  0.00000000E+00
  0.00000000E+00  0.00000000E+00  0.00000000E+00
  0.00000000E+00  0.00000000E+00  0.00000000E+00
  0.00000000E+00  0.00000000E+00  0.00000000E+00
  0.00000000E+00  0.00000000E+00  0.00000000E+00
  0.00000000E+00  0.00000000E+00  0.00000000E+00
  0.00000000E+00  0.00000000E+00  0.00000000E+00
  0.00000000E+00  0.00000000E+00  0.00000000E+00
  0.00000000E+00  0.00000000E+00  0.00000000E+00
  0.00000000E+00  0.00000000E+00  0.00000000E+00
  0.00000000E+00  0.00000000E+00  0.00000000E+00
  0.00000000E+00  0.00000000E+00  0.00000000E+00
  0.00000000E+00  0.00000000E+00  0.00000000E+00
  0.00000000E+00  0.00000000E+00  0.00000000E+00
  0.00000000E+00  0.00000000E+00  0.00000000E+00
  0.00000000E+00  0.00000000E+00  0.00000000E+00
  0.00000000E+00  0.00000000E+00  0.00000000E+00
  0.00000000E+00  0.00000000E+00  0.00000000E+00
  0.00000000E+00  0.00000000E+00  0.00000000E+00
  0.00000000E+00  0.00000000E+00  0.00000000E+00
  0.00000000E+00  0.00000000E+00  0.00000000E+00
  0.00000000E+00  0.00000000E+00  0.00000000E+00
  0.00000000E+00  0.00000000E+00  0.00000000E+00
