Ag48 C6 F6                              
    1.000000000000000     
    11.7702790000000004    0.0000000000000000    0.0000000000000000
     0.0000000000000000   16.6456881000000010    0.0000000000000000
     0.0000000000000000    0.0000000000000000   15.7051487600000002
   Ag   C    F 
    48     6     6
Selective dynamics
Direct
  0.9999998980382898  0.2500279076974365  0.4044830366317953   T   T   T
  0.0000000000000000  0.5000000012015136  0.4044849808802908   T   T   T
  0.0000001019617102  0.7499720941048267  0.4044830366317953   T   T   T
  0.0000000000000000  0.0000000000000000  0.4044759252376267   T   T   T
  0.2499698841208016  0.2499664620027389  0.4044905354108650   T   T   T
  0.2500457133529039  0.5000067245164246  0.4046438452874384   T   T   T
  0.2499754291565779  0.7500233295809693  0.4045023839019066   T   T   T
  0.2499867117383090  0.9999988015731986  0.4045210633152649   T   T   T
  0.4999978984591920  0.2499089711544471  0.4044462726566422   T   T   T
  0.4999999983008081  0.5000000012015136  0.4047183161202668   T   T   T
  0.5000020981424242  0.7500910306478161  0.4044462726566422   T   T   T
  0.4999999983008081  0.0000000000000000  0.4044776309851628   T   T   T
  0.7500245674450312  0.2499766722212939  0.4045023839019066   T   T   T
  0.7499542832487123  0.4999932778866025  0.4046438452874384   T   T   T
  0.7500301124808075  0.7500335397995244  0.4044905354108650   T   T   T
  0.7500132848633001  0.0000011984268014  0.4045210633152649   T   T   T
  0.1249809593098732  0.1250043392769271  0.4905963187179339   T   T   T
  0.1249411967804406  0.3750606505411938  0.4906673451451340   T   T   T
  0.1250075206918027  0.6249317299283490  0.4907129075206456   T   T   T
  0.1249829516986267  0.8749966235669504  0.4905988807994675   T   T   T
  0.3750529696177267  0.1250508515197879  0.4906140013662181   T   T   T
  0.3750318882060384  0.3750105317851862  0.4896563892985881   T   T   T
  0.3749307013268393  0.6249305995286818  0.4898315289183017   T   T   T
  0.3750499392117490  0.8749547612296809  0.4906160817298471   T   T   T
  0.6249500573898601  0.1250452411733463  0.4906160817298471   T   T   T
  0.6250692952747698  0.3750694028743453  0.4898315289183017   T   T   T
  0.6249681083955707  0.6249894706178409  0.4896563892985881   T   T   T
  0.6249470269838824  0.8749491508832392  0.4906140013662181   T   T   T
  0.8750170449029824  0.1250033788360767  0.4905988807994675   T   T   T
  0.8749924759098064  0.3750682724746781  0.4907129075206456   T   T   T
  0.8750587998211685  0.6249393518618334  0.4906673451451340   T   T   T
  0.8750190372917359  0.8749956631261000  0.4905963187179339   T   T   T
  0.1249999995752020  0.1250000004505694  0.3183669302601402   F   F   F
  0.1249999995752020  0.3750000007509442  0.3183669302601402   F   F   F
  0.1249999995752020  0.6250000016520829  0.3183669302601402   F   F   F
  0.1249999995752020  0.8750000019524578  0.3183669302601402   F   F   F
  0.3749999987256061  0.1250000004505694  0.3183669302601402   F   F   F
  0.3749999987256061  0.3750000007509442  0.3183669302601402   F   F   F
  0.3749999987256061  0.6250000016520829  0.3183669302601402   F   F   F
  0.3749999987256061  0.8750000019524578  0.3183669302601402   F   F   F
  0.6249999978760030  0.1250000004505694  0.3183669302601402   F   F   F
  0.6249999978760030  0.3750000007509442  0.3183669302601402   F   F   F
  0.6249999978760030  0.6250000016520829  0.3183669302601402   F   F   F
  0.6249999978760030  0.8750000019524578  0.3183669302601402   F   F   F
  0.8749999970264071  0.1250000004505694  0.3183669302601402   F   F   F
  0.8749999970264071  0.3750000007509442  0.3183669302601402   F   F   F
  0.8749999970264071  0.6250000016520829  0.3183669302601402   F   F   F
  0.8749999970264071  0.8750000019524578  0.3183669302601402   F   F   F
  0.6183015546094950  0.4923073054712930  0.6816767533306134   T   T   T
  0.5496396362086813  0.4239591402708598  0.6814431914519261   T   T   T
  0.4315461995444494  0.4316685390326924  0.6816204197967650   T   T   T
  0.3816984657808433  0.5076927089468555  0.6816767533306134   T   T   T
  0.4503603357545956  0.5760408501170460  0.6814431914519261   T   T   T
  0.5684537970571597  0.5683314633703347  0.6816204197967650   T   T   T
  0.7322298950268333  0.4849602822461776  0.6813638092182472   T   T   T
  0.5974735044095496  0.3502674519013809  0.6824024880417383   T   T   T
  0.3654844474841283  0.3653393647695253  0.6824585463497570   T   T   T
  0.2677701015747758  0.5150397201568424  0.6813638092182472   T   T   T
  0.4025264293218456  0.6497325312774436  0.6824024880417383   T   T   T
  0.6345155244791556  0.6346606256183733  0.6824585463497570   T   T   T
 
  0.00000000E+00  0.00000000E+00  0.00000000E+00
  0.00000000E+00  0.00000000E+00  0.00000000E+00
  0.00000000E+00  0.00000000E+00  0.00000000E+00
  0.00000000E+00  0.00000000E+00  0.00000000E+00
  0.00000000E+00  0.00000000E+00  0.00000000E+00
  0.00000000E+00  0.00000000E+00  0.00000000E+00
  0.00000000E+00  0.00000000E+00  0.00000000E+00
  0.00000000E+00  0.00000000E+00  0.00000000E+00
  0.00000000E+00  0.00000000E+00  0.00000000E+00
  0.00000000E+00  0.00000000E+00  0.00000000E+00
  0.00000000E+00  0.00000000E+00  0.00000000E+00
  0.00000000E+00  0.00000000E+00  0.00000000E+00
  0.00000000E+00  0.00000000E+00  0.00000000E+00
  0.00000000E+00  0.00000000E+00  0.00000000E+00
  0.00000000E+00  0.00000000E+00  0.00000000E+00
  0.00000000E+00  0.00000000E+00  0.00000000E+00
  0.00000000E+00  0.00000000E+00  0.00000000E+00
  0.00000000E+00  0.00000000E+00  0.00000000E+00
  0.00000000E+00  0.00000000E+00  0.00000000E+00
  0.00000000E+00  0.00000000E+00  0.00000000E+00
  0.00000000E+00  0.00000000E+00  0.00000000E+00
  0.00000000E+00  0.00000000E+00  0.00000000E+00
  0.00000000E+00  0.00000000E+00  0.00000000E+00
  0.00000000E+00  0.00000000E+00  0.00000000E+00
  0.00000000E+00  0.00000000E+00  0.00000000E+00
  0.00000000E+00  0.00000000E+00  0.00000000E+00
  0.00000000E+00  0.00000000E+00  0.00000000E+00
  0.00000000E+00  0.00000000E+00  0.00000000E+00
  0.00000000E+00  0.00000000E+00  0.00000000E+00
  0.00000000E+00  0.00000000E+00  0.00000000E+00
  0.00000000E+00  0.00000000E+00  0.00000000E+00
  0.00000000E+00  0.00000000E+00  0.00000000E+00
  0.00000000E+00  0.00000000E+00  0.00000000E+00
  0.00000000E+00  0.00000000E+00  0.00000000E+00
  0.00000000E+00  0.00000000E+00  0.00000000E+00
  0.00000000E+00  0.00000000E+00  0.00000000E+00
  0.00000000E+00  0.00000000E+00  0.00000000E+00
  0.00000000E+00  0.00000000E+00  0.00000000E+00
  0.00000000E+00  0.00000000E+00  0.00000000E+00
  0.00000000E+00  0.00000000E+00  0.00000000E+00
  0.00000000E+00  0.00000000E+00  0.00000000E+00
  0.00000000E+00  0.00000000E+00  0.00000000E+00
  0.00000000E+00  0.00000000E+00  0.00000000E+00
  0.00000000E+00  0.00000000E+00  0.00000000E+00
  0.00000000E+00  0.00000000E+00  0.00000000E+00
  0.00000000E+00  0.00000000E+00  0.00000000E+00
  0.00000000E+00  0.00000000E+00  0.00000000E+00
  0.00000000E+00  0.00000000E+00  0.00000000E+00
  0.00000000E+00  0.00000000E+00  0.00000000E+00
  0.00000000E+00  0.00000000E+00  0.00000000E+00
  0.00000000E+00  0.00000000E+00  0.00000000E+00
  0.00000000E+00  0.00000000E+00  0.00000000E+00
  0.00000000E+00  0.00000000E+00  0.00000000E+00
  0.00000000E+00  0.00000000E+00  0.00000000E+00
  0.00000000E+00  0.00000000E+00  0.00000000E+00
  0.00000000E+00  0.00000000E+00  0.00000000E+00
  0.00000000E+00  0.00000000E+00  0.00000000E+00
  0.00000000E+00  0.00000000E+00  0.00000000E+00
  0.00000000E+00  0.00000000E+00  0.00000000E+00
  0.00000000E+00  0.00000000E+00  0.00000000E+00
