Au  C  H Cl                             
   1.00000000000000     
    11.7981859999999994    0.0000000000000000    0.0000000000000000
    -5.8990929999999997   10.2175279999999997    0.0000000000000000
     0.0000000000000000    0.0000000000000000   25.2248836799999978
   Au   C    H    Cl
    64     6     2     4
Selective dynamics
Direct
  0.9999999981222629  0.7500000352335690  0.2973254543071064   F   F   F
  0.2499999923717056  0.0000000000000000  0.2973254543071064   F   F   F
  0.2500000016343193  0.2500000117445254  0.2973254543071064   F   F   F
  0.2500000117445254  0.5000000234890507  0.2973254543071064   F   F   F
  0.2500000210071391  0.7500000352335690  0.2973254543071064   F   F   F
  0.4999999847434182  0.0000000000000000  0.2973254543071064   F   F   F
  0.4999999940060320  0.2500000117445254  0.2973254543071064   F   F   F
  0.5000000041162309  0.5000000234890507  0.2973254543071064   F   F   F
  0.7499999771151238  0.0000000000000000  0.2973254543071064   F   F   F
  0.7499999863777376  0.2500000117445254  0.2973254543071064   F   F   F
  0.7499999964879436  0.5000000234890507  0.2973254543071064   F   F   F
  0.7500000057505574  0.7500000352335690  0.2973254543071064   F   F   F
  0.9999999694868364  0.0000000000000000  0.2973254543071064   F   F   F
  0.0000000092626138  0.2500000117445254  0.2973254543071064   F   F   F
  0.9999999888596491  0.5000000234890507  0.2973254543071064   F   F   F
  0.5000000133788447  0.7500000352335690  0.2973254543071064   F   F   F
  0.0833330000000032  0.1666669999999968  0.3927984241947584   F   F   F
  0.0833330000000032  0.4166669999999968  0.3927984241947584   F   F   F
  0.0833330000000032  0.6666669999999968  0.3927984241947584   F   F   F
  0.0833330000000032  0.9166669999999968  0.3927984241947584   F   F   F
  0.3333330000000032  0.1666669999999968  0.3927984241947584   F   F   F
  0.3333330000000032  0.4166669999999968  0.3927984241947584   F   F   F
  0.3333330000000032  0.6666669999999968  0.3927984241947584   F   F   F
  0.3333330000000032  0.9166669999999968  0.3927984241947584   F   F   F
  0.5833330000000032  0.1666669999999968  0.3927984241947584   F   F   F
  0.5833330000000032  0.4166669999999968  0.3927984241947584   F   F   F
  0.5833330000000032  0.6666669999999968  0.3927984241947584   F   F   F
  0.5833330000000032  0.9166669999999968  0.3927984241947584   F   F   F
  0.8333330000000032  0.1666669999999968  0.3927984241947584   F   F   F
  0.8333330000000032  0.4166669999999968  0.3927984241947584   F   F   F
  0.8333330000000032  0.6666669999999968  0.3927984241947584   F   F   F
  0.8333330000000032  0.9166669999999968  0.3927984241947584   F   F   F
  0.2499797936515893  0.2499462862390417  0.5844017822341777   T   T   T
  0.2498231004258621  0.5001667021886298  0.5814904641004647   T   T   T
  0.2500564743369315  0.7500484182905512  0.5849981412178704   T   T   T
  0.2501355062153588  0.0000596142467937  0.5849962178980560   T   T   T
  0.5014144516348170  0.2499777820874254  0.5831517416042775   T   T   T
  0.5000477482780900  0.4999728689561436  0.5809147183795429   T   T   T
  0.4999871135683267  0.7499548924704594  0.5815351981855367   T   T   T
  0.4999662354604387 -0.0000691753507414  0.5850064414743098   T   T   T
  0.7500801683378993  0.2500421639192461  0.5849941907251596   T   T   T
  0.7513498786272896  0.5001571796991057  0.5831234103637538   T   T   T
  0.7500067636052309  0.7499697573829842  0.5809006931114646   T   T   T
  0.7500720435187221  0.0001161320300280  0.5815673249825801   T   T   T
 -0.0000281498231109  0.2499746380740579  0.5844714594645947   T   T   T
 -0.0000541855149161  0.4999154908409718  0.5844389039667033   T   T   T
  0.0001115634324640  0.7499707577463619  0.5815559148271064   T   T   T
  0.0013897632492970  0.0000633460585010  0.5832359718422899   T   T   T
  0.1681326311930935  0.0834850150790578  0.4878688794598396   T   T   T
  0.1653889469686590  0.3330790626714549  0.4877986435879689   T   T   T
  0.1663901470073966  0.5846168718012146  0.4878450955519100   T   T   T
  0.1682257013380198  0.8348314646572256  0.4878784909811662   T   T   T
  0.4179938064425862  0.0846369445649329  0.4879281671049843   T   T   T
  0.4153756688576523  0.3318108596032389  0.4873685025988914   T   T   T
  0.4161991323106751  0.5832954541568661  0.4860772877205710   T   T   T
  0.4165617407914340  0.8347648401541004  0.4878713578499879   T   T   T
  0.6663780064786766  0.0845484620251519  0.4878636324672543   T   T   T
  0.6682550884843156  0.3342522203701696  0.4873780517265925   T   T   T
  0.6667801576628443  0.5829305645297396  0.4862021914833009   T   T   T
  0.6666016831332895  0.8337306478351041  0.4860778566138079   T   T   T
  0.9180647840194038  0.0843786090811096  0.4877782243106200   T   T   T
  0.9166634788922731  0.3320666285172525  0.4879256881594949   T   T   T
  0.9181173947534406  0.5832535781527906  0.4870094064305299   T   T   T
  0.9171568138838764  0.8337013950958945  0.4862518402956635   T   T   T
  0.6908978773725230  0.5550778749271237  0.7043940623641753   T   T   T
  0.5541883041395227  0.4864422216739808  0.7053848956629035   T   T   T
  0.4857155119019248  0.5557194472968040  0.7053818745973079   T   T   T
  0.5552164966387532  0.6923819197033763  0.7042088721315163   T   T   T
  0.6918653121097504  0.7610053930739800  0.7057715596779107   T   T   T
  0.7603745073720590  0.6917483189442447  0.7058497365307125   T   T   T
  0.7439119190713281  0.5014761832389694  0.7039059331449156   T   T   T
  0.5023100656648312  0.7460783354635439  0.7035883369820094   T   T   T
  0.4730241345947667  0.3186029918925124  0.7077383112240867   T   T   T
  0.3179568898863273  0.4757322751311348  0.7082106126973798   T   T   T
  0.7729563611478580  0.9288009829486541  0.7087996702029382   T   T   T
  0.9281629855373138  0.7719151393534448  0.7087671648346031   T   T   T
 
  0.00000000E+00  0.00000000E+00  0.00000000E+00
  0.00000000E+00  0.00000000E+00  0.00000000E+00
  0.00000000E+00  0.00000000E+00  0.00000000E+00
  0.00000000E+00  0.00000000E+00  0.00000000E+00
  0.00000000E+00  0.00000000E+00  0.00000000E+00
  0.00000000E+00  0.00000000E+00  0.00000000E+00
  0.00000000E+00  0.00000000E+00  0.00000000E+00
  0.00000000E+00  0.00000000E+00  0.00000000E+00
  0.00000000E+00  0.00000000E+00  0.00000000E+00
  0.00000000E+00  0.00000000E+00  0.00000000E+00
  0.00000000E+00  0.00000000E+00  0.00000000E+00
  0.00000000E+00  0.00000000E+00  0.00000000E+00
  0.00000000E+00  0.00000000E+00  0.00000000E+00
  0.00000000E+00  0.00000000E+00  0.00000000E+00
  0.00000000E+00  0.00000000E+00  0.00000000E+00
  0.00000000E+00  0.00000000E+00  0.00000000E+00
  0.00000000E+00  0.00000000E+00  0.00000000E+00
  0.00000000E+00  0.00000000E+00  0.00000000E+00
  0.00000000E+00  0.00000000E+00  0.00000000E+00
  0.00000000E+00  0.00000000E+00  0.00000000E+00
  0.00000000E+00  0.00000000E+00  0.00000000E+00
  0.00000000E+00  0.00000000E+00  0.00000000E+00
  0.00000000E+00  0.00000000E+00  0.00000000E+00
  0.00000000E+00  0.00000000E+00  0.00000000E+00
  0.00000000E+00  0.00000000E+00  0.00000000E+00
  0.00000000E+00  0.00000000E+00  0.00000000E+00
  0.00000000E+00  0.00000000E+00  0.00000000E+00
  0.00000000E+00  0.00000000E+00  0.00000000E+00
  0.00000000E+00  0.00000000E+00  0.00000000E+00
  0.00000000E+00  0.00000000E+00  0.00000000E+00
  0.00000000E+00  0.00000000E+00  0.00000000E+00
  0.00000000E+00  0.00000000E+00  0.00000000E+00
  0.00000000E+00  0.00000000E+00  0.00000000E+00
  0.00000000E+00  0.00000000E+00  0.00000000E+00
  0.00000000E+00  0.00000000E+00  0.00000000E+00
  0.00000000E+00  0.00000000E+00  0.00000000E+00
  0.00000000E+00  0.00000000E+00  0.00000000E+00
  0.00000000E+00  0.00000000E+00  0.00000000E+00
  0.00000000E+00  0.00000000E+00  0.00000000E+00
  0.00000000E+00  0.00000000E+00  0.00000000E+00
  0.00000000E+00  0.00000000E+00  0.00000000E+00
  0.00000000E+00  0.00000000E+00  0.00000000E+00
  0.00000000E+00  0.00000000E+00  0.00000000E+00
  0.00000000E+00  0.00000000E+00  0.00000000E+00
  0.00000000E+00  0.00000000E+00  0.00000000E+00
  0.00000000E+00  0.00000000E+00  0.00000000E+00
  0.00000000E+00  0.00000000E+00  0.00000000E+00
  0.00000000E+00  0.00000000E+00  0.00000000E+00
  0.00000000E+00  0.00000000E+00  0.00000000E+00
  0.00000000E+00  0.00000000E+00  0.00000000E+00
  0.00000000E+00  0.00000000E+00  0.00000000E+00
  0.00000000E+00  0.00000000E+00  0.00000000E+00
  0.00000000E+00  0.00000000E+00  0.00000000E+00
  0.00000000E+00  0.00000000E+00  0.00000000E+00
  0.00000000E+00  0.00000000E+00  0.00000000E+00
  0.00000000E+00  0.00000000E+00  0.00000000E+00
  0.00000000E+00  0.00000000E+00  0.00000000E+00
  0.00000000E+00  0.00000000E+00  0.00000000E+00
  0.00000000E+00  0.00000000E+00  0.00000000E+00
  0.00000000E+00  0.00000000E+00  0.00000000E+00
  0.00000000E+00  0.00000000E+00  0.00000000E+00
  0.00000000E+00  0.00000000E+00  0.00000000E+00
  0.00000000E+00  0.00000000E+00  0.00000000E+00
  0.00000000E+00  0.00000000E+00  0.00000000E+00
  0.00000000E+00  0.00000000E+00  0.00000000E+00
  0.00000000E+00  0.00000000E+00  0.00000000E+00
  0.00000000E+00  0.00000000E+00  0.00000000E+00
  0.00000000E+00  0.00000000E+00  0.00000000E+00
  0.00000000E+00  0.00000000E+00  0.00000000E+00
  0.00000000E+00  0.00000000E+00  0.00000000E+00
  0.00000000E+00  0.00000000E+00  0.00000000E+00
  0.00000000E+00  0.00000000E+00  0.00000000E+00
  0.00000000E+00  0.00000000E+00  0.00000000E+00
  0.00000000E+00  0.00000000E+00  0.00000000E+00
  0.00000000E+00  0.00000000E+00  0.00000000E+00
  0.00000000E+00  0.00000000E+00  0.00000000E+00
