Pd48 C4 Br4 N2                          
    1.000000000000000     
    11.1922750000000004    0.0000000000000000    0.0000000000000000
    -5.5961369999999997    9.6927939999999992    0.0000000000000000
     0.0000000000000000    0.0000000000000000   16.5692270000000015
   Pd   C    Br   N 
    48     4     4     2
Selective dynamics
Direct
  0.0833330000000032  0.1666669999999968  0.3621169999999978   F   F   F
  0.0833330000000032  0.4166669999999968  0.3621169999999978   F   F   F
  0.0833330000000032  0.6666669999999968  0.3621169999999978   F   F   F
  0.0833330000000032  0.9166669999999968  0.3621169999999978   F   F   F
  0.3333330000000032  0.1666669999999968  0.3621169999999978   F   F   F
  0.3333330000000032  0.4166669999999968  0.3621169999999978   F   F   F
  0.3333330000000032  0.6666669999999968  0.3621169999999978   F   F   F
  0.3333330000000032  0.9166669999999968  0.3621169999999978   F   F   F
  0.5833330000000032  0.1666669999999968  0.3621169999999978   F   F   F
  0.5833330000000032  0.4166669999999968  0.3621169999999978   F   F   F
  0.5833330000000032  0.6666669999999968  0.3621169999999978   F   F   F
  0.5833330000000032  0.9166669999999968  0.3621169999999978   F   F   F
  0.8333330000000032  0.1666669999999968  0.3621169999999978   F   F   F
  0.8333330000000032  0.4166669999999968  0.3621169999999978   F   F   F
  0.8333330000000032  0.6666669999999968  0.3621169999999978   F   F   F
  0.8333330000000032  0.9166669999999968  0.3621169999999978   F   F   F
  0.2458137238741216  0.9903673835452835  0.6385959291180967   T   T   T
  0.2534467104602740  0.2517241187481360  0.6403376868035835   T   T   T
  0.2458155984996040  0.5054472367862175  0.6385838013612144   T   T   T
  0.2483773417585056  0.7491917546506386  0.6356046336237426   T   T   T
  0.5007416292440467  0.9943592694316905  0.6331494541320666   T   T   T
  0.5007754220477878  0.2391979509680837  0.6361982936692243   T   T   T
  0.5007830694072197  0.5115757691792666  0.6361945555815396   T   T   T
  0.5007404940925042  0.7563939091337772  0.6331414639375552   T   T   T
  0.7539884131503101  0.0020042723661504  0.6358679597743375   T   T   T
  0.7566942428572290  0.2471351639623904  0.6387753837376877   T   T   T
  0.7524644667691049  0.5012337730312666  0.6405634016173565   T   T   T
  0.7566963372298474  0.7595735953202336  0.6387854523337992   T   T   T
  0.0031758716700381  0.0027993000514783  0.6367263450483023   T   T   T
  0.0031679465151200  0.2503807497850303  0.6367068099304092   T   T   T
  0.9999035616800924  0.5008467011427058  0.6373749624157128   T   T   T
  0.9999085433115553  0.7490632744980275  0.6373839077315182   T   T   T
  0.1681870326090262  0.0849732745398626  0.5012474723520981   T   T   T
  0.1681921732639253  0.3332186239801018  0.5012404548718905   T   T   T
  0.1640607099717428  0.5816036953558310  0.4989618133534748   T   T   T
  0.1640611762369915  0.8324624275538923  0.4989662873973799   T   T   T
  0.4155786423718979  0.0829543138558151  0.4986307106896462   T   T   T
  0.4185697275262115  0.3342849909151866  0.4990041398490490   T   T   T
  0.4155768508235411  0.5826251336604003  0.4986270042559440   T   T   T
  0.4150015450122808  0.8325070955004321  0.4966971757284497   T   T   T
  0.6668383877210289  0.0829756341050256  0.4984128431854913   T   T   T
  0.6665911643113489  0.3327241470937139  0.4997872173224280   T   T   T
  0.6665908099380715  0.5838713402200213  0.4997881729949327   T   T   T
  0.6668444830477966  0.8338684141310679  0.4984031423602104   T   T   T
  0.9184766595393512  0.0842341890862386  0.4986502693270225   T   T   T
  0.9156163458635476  0.3319501340873501  0.5002163182247514   T   T   T
  0.9132901615094084  0.5816459883499050  0.5015523596750597   T   T   T
  0.9156186271613507  0.8336736837915026  0.5002266878831563   T   T   T
  0.5745077074606755  0.5158647058722892  0.7569066309254424   T   T   T
  0.4259303615494190  0.4416820853399983  0.7571122118018394   T   T   T
  0.4259046475818238  0.2342105412478546  0.7571157153220085   T   T   T
  0.5744849044439704  0.3086183167156165  0.7569004955383889   T   T   T
  0.6840831059919026  0.2244594368467574  0.7904598366647946   T   T   T
  0.3161752136403777  0.0407080140648688  0.7908603592483558   T   T   T
  0.6841161247767644  0.7096062653745392  0.7904568970232830   T   T   T
  0.3162024310217504  0.5254991686532478  0.7908631280555980   T   T   T
  0.3501133065283781  0.3000570063612145  0.7577674542443660   T   T   T
  0.6503355298388271  0.4501553851522715  0.7573365654609674   T   T   T
 
  0.00000000E+00  0.00000000E+00  0.00000000E+00
  0.00000000E+00  0.00000000E+00  0.00000000E+00
  0.00000000E+00  0.00000000E+00  0.00000000E+00
  0.00000000E+00  0.00000000E+00  0.00000000E+00
  0.00000000E+00  0.00000000E+00  0.00000000E+00
  0.00000000E+00  0.00000000E+00  0.00000000E+00
  0.00000000E+00  0.00000000E+00  0.00000000E+00
  0.00000000E+00  0.00000000E+00  0.00000000E+00
  0.00000000E+00  0.00000000E+00  0.00000000E+00
  0.00000000E+00  0.00000000E+00  0.00000000E+00
  0.00000000E+00  0.00000000E+00  0.00000000E+00
  0.00000000E+00  0.00000000E+00  0.00000000E+00
  0.00000000E+00  0.00000000E+00  0.00000000E+00
  0.00000000E+00  0.00000000E+00  0.00000000E+00
  0.00000000E+00  0.00000000E+00  0.00000000E+00
  0.00000000E+00  0.00000000E+00  0.00000000E+00
  0.00000000E+00  0.00000000E+00  0.00000000E+00
  0.00000000E+00  0.00000000E+00  0.00000000E+00
  0.00000000E+00  0.00000000E+00  0.00000000E+00
  0.00000000E+00  0.00000000E+00  0.00000000E+00
  0.00000000E+00  0.00000000E+00  0.00000000E+00
  0.00000000E+00  0.00000000E+00  0.00000000E+00
  0.00000000E+00  0.00000000E+00  0.00000000E+00
  0.00000000E+00  0.00000000E+00  0.00000000E+00
  0.00000000E+00  0.00000000E+00  0.00000000E+00
  0.00000000E+00  0.00000000E+00  0.00000000E+00
  0.00000000E+00  0.00000000E+00  0.00000000E+00
  0.00000000E+00  0.00000000E+00  0.00000000E+00
  0.00000000E+00  0.00000000E+00  0.00000000E+00
  0.00000000E+00  0.00000000E+00  0.00000000E+00
  0.00000000E+00  0.00000000E+00  0.00000000E+00
  0.00000000E+00  0.00000000E+00  0.00000000E+00
  0.00000000E+00  0.00000000E+00  0.00000000E+00
  0.00000000E+00  0.00000000E+00  0.00000000E+00
  0.00000000E+00  0.00000000E+00  0.00000000E+00
  0.00000000E+00  0.00000000E+00  0.00000000E+00
  0.00000000E+00  0.00000000E+00  0.00000000E+00
  0.00000000E+00  0.00000000E+00  0.00000000E+00
  0.00000000E+00  0.00000000E+00  0.00000000E+00
  0.00000000E+00  0.00000000E+00  0.00000000E+00
  0.00000000E+00  0.00000000E+00  0.00000000E+00
  0.00000000E+00  0.00000000E+00  0.00000000E+00
  0.00000000E+00  0.00000000E+00  0.00000000E+00
  0.00000000E+00  0.00000000E+00  0.00000000E+00
  0.00000000E+00  0.00000000E+00  0.00000000E+00
  0.00000000E+00  0.00000000E+00  0.00000000E+00
  0.00000000E+00  0.00000000E+00  0.00000000E+00
  0.00000000E+00  0.00000000E+00  0.00000000E+00
  0.00000000E+00  0.00000000E+00  0.00000000E+00
  0.00000000E+00  0.00000000E+00  0.00000000E+00
  0.00000000E+00  0.00000000E+00  0.00000000E+00
  0.00000000E+00  0.00000000E+00  0.00000000E+00
  0.00000000E+00  0.00000000E+00  0.00000000E+00
  0.00000000E+00  0.00000000E+00  0.00000000E+00
  0.00000000E+00  0.00000000E+00  0.00000000E+00
  0.00000000E+00  0.00000000E+00  0.00000000E+00
  0.00000000E+00  0.00000000E+00  0.00000000E+00
  0.00000000E+00  0.00000000E+00  0.00000000E+00
