Ir  C Br                                
   1.00000000000000     
    10.9622001648000005    0.0000000000000000    0.0000000000000000
    -5.4811000824000002    9.4935438240999996    0.0000000000000000
     0.0000000000000000    0.0000000000000000   24.7129993439000017
   Ir   C    Br
    64     6     6
Selective dynamics
Direct
  0.7500000000142961  0.7499999999920988  0.3034900128725724   F   F   F
  0.0000000000000000  0.0000000000000000  0.3034900128725724   F   F   F
  0.9999999999621920  0.2499999999973639  0.3034900128725724   F   F   F
  0.0000000000156106  0.4999999999947349  0.3034900128725724   F   F   F
  0.9999999999778026  0.7499999999920988  0.3034900128725724   F   F   F
  0.2499999999817533  0.0000000000000000  0.3034900128725724   F   F   F
  0.2500000000351719  0.2499999999973639  0.3034900128725724   F   F   F
  0.2499999999973639  0.4999999999947349  0.3034900128725724   F   F   F
  0.4999999999635136  0.0000000000000000  0.3034900128725724   F   F   F
  0.5000000000169251  0.2499999999973639  0.3034900128725724   F   F   F
  0.4999999999791243  0.4999999999947349  0.3034900128725724   F   F   F
  0.5000000000325358  0.7499999999920988  0.3034900128725724   F   F   F
  0.7500000000364864  0.0000000000000000  0.3034900128725724   F   F   F
  0.7499999999986855  0.2499999999973639  0.3034900128725724   F   F   F
  0.7499999999608775  0.4999999999947349  0.3034900128725724   F   F   F
  0.2499999999595630  0.7499999999920988  0.3034900128725724   F   F   F
  0.0833299979440270  0.1666699946107855  0.3940300047555141   F   F   F
  0.0833299979974456  0.4166699946081494  0.3940300047555141   F   F   F
  0.0833299979952287  0.6666700244152537  0.3940300047555141   F   F   F
  0.0833299979574207  0.9166700244126176  0.3940300047555141   F   F   F
  0.3333300054060331  0.1666699946107855  0.3940300047555141   F   F   F
  0.3333300054594517  0.4166699946081494  0.3940300047555141   F   F   F
  0.3333300054572277  0.6666700244152537  0.3940300047555141   F   F   F
  0.3333300054194268  0.9166700244126176  0.3940300047555141   F   F   F
  0.5833299756492281  0.1666699946107855  0.3940300047555141   F   F   F
  0.5833299756114272  0.4166699946081494  0.3940300047555141   F   F   F
  0.5833299756092103  0.6666700244152537  0.3940300047555141   F   F   F
  0.5833299755714023  0.9166700244126176  0.3940300047555141   F   F   F
  0.8333299756309884  0.1666699946107855  0.3940300047555141   F   F   F
  0.8333299755931804  0.4166699946081494  0.3940300047555141   F   F   F
  0.8333299755909636  0.6666700244152537  0.3940300047555141   F   F   F
  0.8333299756443822  0.9166700244126176  0.3940300047555141   F   F   F
 -0.0001175321129632  0.0004770341456829  0.5727484875712238   T   T   T
 -0.0001247755964424  0.2496526604945004  0.5728340648913652   T   T   T
  0.0006725792356111  0.5000405070870311  0.5725455740316137   T   T   T
  0.0000706099623414  0.7498699154150839  0.5732916212964724   T   T   T
  0.2498439019281405  0.9998211059634609  0.5728837916558497   T   T   T
  0.2503546286610193  0.2502489330044058  0.5733233067178062   T   T   T
  0.2498667484615869  0.5000127747941903  0.5727439865378009   T   T   T
  0.2500817128584499  0.7500311552488366  0.5729511336634638   T   T   T
  0.4998522746705898  0.9994407070190395  0.5727031258764166   T   T   T
  0.4998817828248340  0.2495587688493802  0.5724665469240265   T   T   T
  0.5013648181596545  0.5000149919808937  0.5721219404526887   T   T   T
  0.4998370503587221  0.7496738545278105  0.5733489275070289   T   T   T
  0.7503273895769119  0.0001327529645145  0.5729487297316559   T   T   T
  0.7500497985330066  0.2500240764587701  0.5732802377598579   T   T   T
  0.7494876559154409  0.5000147250418513  0.5722624219194506   T   T   T
  0.7501329758684532  0.7498820385746942  0.5723848597100021   T   T   T
  0.1668364509279174  0.0836306391568613  0.4835819909318596   T   T   T
  0.1666344425461889  0.3333718941232030  0.4834465200327748   T   T   T
  0.1668462270488020  0.5835101908475933  0.4832895415586192   T   T   T
  0.1664797718182832  0.8333597888384692  0.4835306553431039   T   T   T
  0.4165172784180454  0.0831067505587096  0.4831616493625985   T   T   T
  0.4164492406692581  0.3330509105152143  0.4832537165505912   T   T   T
  0.4166070588467135  0.5832355585742917  0.4832753091254518   T   T   T
  0.4166260051976832  0.8331754330398797  0.4833588157113392   T   T   T
  0.6666892674684850  0.0835299703395955  0.4835501830438916   T   T   T
  0.6667024326790066  0.3329240916579093  0.4833735697482102   T   T   T
  0.6669076933086072  0.5837658544866319  0.4829542689486489   T   T   T
  0.6659883614243609  0.8333208797961982  0.4834879695991349   T   T   T
  0.9165479473032860  0.0832590240810505  0.4833436159753340   T   T   T
  0.9167610304449337  0.3333497446187191  0.4832721548836312   T   T   T
  0.9167265201546849  0.5832784592370119  0.4832835461732617   T   T   T
  0.9170469969691331  0.8334185390383028  0.4833309554673019   T   T   T
  0.7038053735739410  0.6522372378624469  0.7067461719393463   T   T   T
  0.7783779611576682  0.5786599695713329  0.7054888729479573   T   T   T
  0.7043754006328404  0.4302018901380842  0.7051012605515216   T   T   T
  0.5562227258242862  0.3561693738556632  0.7061845610071193   T   T   T
  0.4816503945017528  0.4296923519026067  0.7051111855607338   T   T   T
  0.5556367285748659  0.5779690373325663  0.7053309500753360   T   T   T
  0.8024658155718986  0.8511517030799631  0.7087774324860489   T   T   T
  0.9775671814093440  0.6810847661172880  0.7027250816678436   T   T   T
  0.8024408622141653  0.3292492240212803  0.7021917642321518   T   T   T
  0.4567314904826215  0.1576308139811425  0.7073213957891791   T   T   T
  0.2828628205694584  0.3286040197251029  0.7021947442463147   T   T   T
  0.4574435856014686  0.6784496575533324  0.7018898298360540   T   T   T
 
  0.00000000E+00  0.00000000E+00  0.00000000E+00
  0.00000000E+00  0.00000000E+00  0.00000000E+00
  0.00000000E+00  0.00000000E+00  0.00000000E+00
  0.00000000E+00  0.00000000E+00  0.00000000E+00
  0.00000000E+00  0.00000000E+00  0.00000000E+00
  0.00000000E+00  0.00000000E+00  0.00000000E+00
  0.00000000E+00  0.00000000E+00  0.00000000E+00
  0.00000000E+00  0.00000000E+00  0.00000000E+00
  0.00000000E+00  0.00000000E+00  0.00000000E+00
  0.00000000E+00  0.00000000E+00  0.00000000E+00
  0.00000000E+00  0.00000000E+00  0.00000000E+00
  0.00000000E+00  0.00000000E+00  0.00000000E+00
  0.00000000E+00  0.00000000E+00  0.00000000E+00
  0.00000000E+00  0.00000000E+00  0.00000000E+00
  0.00000000E+00  0.00000000E+00  0.00000000E+00
  0.00000000E+00  0.00000000E+00  0.00000000E+00
  0.00000000E+00  0.00000000E+00  0.00000000E+00
  0.00000000E+00  0.00000000E+00  0.00000000E+00
  0.00000000E+00  0.00000000E+00  0.00000000E+00
  0.00000000E+00  0.00000000E+00  0.00000000E+00
  0.00000000E+00  0.00000000E+00  0.00000000E+00
  0.00000000E+00  0.00000000E+00  0.00000000E+00
  0.00000000E+00  0.00000000E+00  0.00000000E+00
  0.00000000E+00  0.00000000E+00  0.00000000E+00
  0.00000000E+00  0.00000000E+00  0.00000000E+00
  0.00000000E+00  0.00000000E+00  0.00000000E+00
  0.00000000E+00  0.00000000E+00  0.00000000E+00
  0.00000000E+00  0.00000000E+00  0.00000000E+00
  0.00000000E+00  0.00000000E+00  0.00000000E+00
  0.00000000E+00  0.00000000E+00  0.00000000E+00
  0.00000000E+00  0.00000000E+00  0.00000000E+00
  0.00000000E+00  0.00000000E+00  0.00000000E+00
  0.00000000E+00  0.00000000E+00  0.00000000E+00
  0.00000000E+00  0.00000000E+00  0.00000000E+00
  0.00000000E+00  0.00000000E+00  0.00000000E+00
  0.00000000E+00  0.00000000E+00  0.00000000E+00
  0.00000000E+00  0.00000000E+00  0.00000000E+00
  0.00000000E+00  0.00000000E+00  0.00000000E+00
  0.00000000E+00  0.00000000E+00  0.00000000E+00
  0.00000000E+00  0.00000000E+00  0.00000000E+00
  0.00000000E+00  0.00000000E+00  0.00000000E+00
  0.00000000E+00  0.00000000E+00  0.00000000E+00
  0.00000000E+00  0.00000000E+00  0.00000000E+00
  0.00000000E+00  0.00000000E+00  0.00000000E+00
  0.00000000E+00  0.00000000E+00  0.00000000E+00
  0.00000000E+00  0.00000000E+00  0.00000000E+00
  0.00000000E+00  0.00000000E+00  0.00000000E+00
  0.00000000E+00  0.00000000E+00  0.00000000E+00
  0.00000000E+00  0.00000000E+00  0.00000000E+00
  0.00000000E+00  0.00000000E+00  0.00000000E+00
  0.00000000E+00  0.00000000E+00  0.00000000E+00
  0.00000000E+00  0.00000000E+00  0.00000000E+00
  0.00000000E+00  0.00000000E+00  0.00000000E+00
  0.00000000E+00  0.00000000E+00  0.00000000E+00
  0.00000000E+00  0.00000000E+00  0.00000000E+00
  0.00000000E+00  0.00000000E+00  0.00000000E+00
  0.00000000E+00  0.00000000E+00  0.00000000E+00
  0.00000000E+00  0.00000000E+00  0.00000000E+00
  0.00000000E+00  0.00000000E+00  0.00000000E+00
  0.00000000E+00  0.00000000E+00  0.00000000E+00
  0.00000000E+00  0.00000000E+00  0.00000000E+00
  0.00000000E+00  0.00000000E+00  0.00000000E+00
  0.00000000E+00  0.00000000E+00  0.00000000E+00
  0.00000000E+00  0.00000000E+00  0.00000000E+00
  0.00000000E+00  0.00000000E+00  0.00000000E+00
  0.00000000E+00  0.00000000E+00  0.00000000E+00
  0.00000000E+00  0.00000000E+00  0.00000000E+00
  0.00000000E+00  0.00000000E+00  0.00000000E+00
  0.00000000E+00  0.00000000E+00  0.00000000E+00
  0.00000000E+00  0.00000000E+00  0.00000000E+00
  0.00000000E+00  0.00000000E+00  0.00000000E+00
  0.00000000E+00  0.00000000E+00  0.00000000E+00
  0.00000000E+00  0.00000000E+00  0.00000000E+00
  0.00000000E+00  0.00000000E+00  0.00000000E+00
  0.00000000E+00  0.00000000E+00  0.00000000E+00
  0.00000000E+00  0.00000000E+00  0.00000000E+00
