Rh  C  H Cl                             
   1.00000000000000     
    10.8721879999999995    0.0000000000000000    0.0000000000000000
    -5.4360939999999998    9.4155909999999992    0.0000000000000000
     0.0000000000000000    0.0000000000000000   24.6578279400000042
   Rh   C    H    Cl
    64     6     4     2
Selective dynamics
Direct
  0.9999999559446024  0.7499999670758868  0.3041630438110658   F   F   F
  0.2499999889626636  0.0000000000000000  0.3041630438110658   F   F   F
  0.2499999891709876  0.2499999893793188  0.3041630438110658   F   F   F
  0.2499999888482805  0.4999999776965680  0.3041630438110658   F   F   F
  0.2499999890566116  0.7499999670758868  0.3041630438110658   F   F   F
  0.4999999779253272  0.0000000000000000  0.3041630438110658   F   F   F
  0.4999999781336513  0.2499999893793188  0.3041630438110658   F   F   F
  0.4999999778109441  0.4999999776965680  0.3041630438110658   F   F   F
  0.7499999668879909  0.0000000000000000  0.3041630438110658   F   F   F
  0.7499999670963149  0.2499999893793188  0.3041630438110658   F   F   F
  0.7499999667736077  0.4999999776965680  0.3041630438110658   F   F   F
  0.7499999669819388  0.7499999670758868  0.3041630438110658   F   F   F
  0.0000000000000000  0.0000000000000000  0.3041630438110658   F   F   F
  0.9999999560589785  0.2499999893793188  0.3041630438110658   F   F   F
  0.9999999998856168  0.4999999776965680  0.3041630438110658   F   F   F
  0.4999999780192752  0.7499999670758868  0.3041630438110658   F   F   F
  0.0833330000000032  0.1666669999999968  0.3941659420955475   F   F   F
  0.0833330000000032  0.4166669999999968  0.3941659420955475   F   F   F
  0.0833330000000032  0.6666669999999968  0.3941659420955475   F   F   F
  0.0833330000000032  0.9166669999999968  0.3941659420955475   F   F   F
  0.3333330000000032  0.1666669999999968  0.3941659420955475   F   F   F
  0.3333330000000032  0.4166669999999968  0.3941659420955475   F   F   F
  0.3333330000000032  0.6666669999999968  0.3941659420955475   F   F   F
  0.3333330000000032  0.9166669999999968  0.3941659420955475   F   F   F
  0.5833330000000032  0.1666669999999968  0.3941659420955475   F   F   F
  0.5833330000000032  0.4166669999999968  0.3941659420955475   F   F   F
  0.5833330000000032  0.6666669999999968  0.3941659420955475   F   F   F
  0.5833330000000032  0.9166669999999968  0.3941659420955475   F   F   F
  0.8333330000000032  0.1666669999999968  0.3941659420955475   F   F   F
  0.8333330000000032  0.4166669999999968  0.3941659420955475   F   F   F
  0.8333330000000032  0.6666669999999968  0.3941659420955475   F   F   F
  0.8333330000000032  0.9166669999999968  0.3941659420955475   F   F   F
  0.9971672858464764  0.9968340877843003  0.5654971379445102   T   T   T
  0.9955928638862381  0.2484004972349453  0.5657404169345777   T   T   T
  0.0001204883143383  0.4997009558255574  0.5660022611546248   T   T   T
  0.0009521493515334  0.7495768608875016  0.5656737259479309   T   T   T
  0.2475354416893570  0.9951260899616238  0.5655549032086381   T   T   T
  0.2430294460878663  0.2426452566435077  0.5686131583828935   T   T   T
  0.2513179618465526  0.4988077161916796  0.5687926717229095   T   T   T
  0.2506158521871510  0.7497001722129440  0.5659473263067571   T   T   T
  0.5001875545206997  0.0004984249679929  0.5660382800296037   T   T   T
  0.4986093896187956  0.2511905590929353  0.5690592494547040   T   T   T
  0.5072839313057708  0.5068726737530744  0.5685481705065399   T   T   T
  0.5016063901092489  0.7544577940468564  0.5657677025743877   T   T   T
  0.7500121367198631  0.0001984435736826  0.5657146913100908   T   T   T
  0.7489636297059054  0.2496679637613747  0.5660387068005149   T   T   T
  0.7547878760670064  0.5025514585774271  0.5656320480885664   T   T   T
  0.7535661668418276  0.7533505220511467  0.5656306049239537   T   T   T
  0.1671508776000391  0.0842286855739735  0.4799096219676661   T   T   T
  0.1679233102551910  0.3340010872059287  0.4803068425337363   T   T   T
  0.1678218815967403  0.5820243620418175  0.4804079439126280   T   T   T
  0.1676966722194657  0.8333913869240247  0.4795851055014515   T   T   T
  0.4170361038065662  0.0849499185548465  0.4802816045748587   T   T   T
  0.4161691122413826  0.3338285162834979  0.4805024303191239   T   T   T
  0.4162421858613414  0.5823013803624182  0.4801957395161355   T   T   T
  0.4168703842393213  0.8333961471332569  0.4798221725223762   T   T   T
  0.6663779396592591  0.0835942472433755  0.4798746769902498   T   T   T
  0.6646362323540004  0.3328849084177111  0.4803532278502112   T   T   T
  0.6659156712216504  0.5829928446368632  0.4799716759105357   T   T   T
  0.6661102956669364  0.8326966031454255  0.4795053175019202   T   T   T
  0.9169265883480495  0.0836042939930975  0.4796382832661320   T   T   T
  0.9165219064350434  0.3331882933202079  0.4798544997225057   T   T   T
  0.9165936699940164  0.5825925159805828  0.4797503980344071   T   T   T
  0.9169558378067002  0.8330805485233004  0.4794262407713616   T   T   T
  0.2957250709397948  0.4539913872007120  0.6488800286973900   T   T   T
  0.4519571085631646  0.5266038400181177  0.6507291413176209   T   T   T
  0.5282314157207773  0.4504326618137874  0.6505517837298421   T   T   T
  0.4557596490344563  0.2940227288745310  0.6489908211044659   T   T   T
  0.2993606141526574  0.2216258239356364  0.6506312847864443   T   T   T
  0.2231307327615149  0.2977902170558565  0.6507905383676001   T   T   T
  0.5067374554467347  0.6364815642465754  0.6650354799721023   T   T   T
  0.6381796575400694  0.5055348227926841  0.6647750097949462   T   T   T
  0.2443266915433501  0.1116685753883139  0.6647898599905397   T   T   T
  0.1132160555655979  0.2429953288987555  0.6650854504931923   T   T   T
  0.2200060723253774  0.5297930008293322  0.6924073175627132   T   T   T
  0.5306489076558000  0.2193170491739428  0.6934229024784964   T   T   T
 
  0.00000000E+00  0.00000000E+00  0.00000000E+00
  0.00000000E+00  0.00000000E+00  0.00000000E+00
  0.00000000E+00  0.00000000E+00  0.00000000E+00
  0.00000000E+00  0.00000000E+00  0.00000000E+00
  0.00000000E+00  0.00000000E+00  0.00000000E+00
  0.00000000E+00  0.00000000E+00  0.00000000E+00
  0.00000000E+00  0.00000000E+00  0.00000000E+00
  0.00000000E+00  0.00000000E+00  0.00000000E+00
  0.00000000E+00  0.00000000E+00  0.00000000E+00
  0.00000000E+00  0.00000000E+00  0.00000000E+00
  0.00000000E+00  0.00000000E+00  0.00000000E+00
  0.00000000E+00  0.00000000E+00  0.00000000E+00
  0.00000000E+00  0.00000000E+00  0.00000000E+00
  0.00000000E+00  0.00000000E+00  0.00000000E+00
  0.00000000E+00  0.00000000E+00  0.00000000E+00
  0.00000000E+00  0.00000000E+00  0.00000000E+00
  0.00000000E+00  0.00000000E+00  0.00000000E+00
  0.00000000E+00  0.00000000E+00  0.00000000E+00
  0.00000000E+00  0.00000000E+00  0.00000000E+00
  0.00000000E+00  0.00000000E+00  0.00000000E+00
  0.00000000E+00  0.00000000E+00  0.00000000E+00
  0.00000000E+00  0.00000000E+00  0.00000000E+00
  0.00000000E+00  0.00000000E+00  0.00000000E+00
  0.00000000E+00  0.00000000E+00  0.00000000E+00
  0.00000000E+00  0.00000000E+00  0.00000000E+00
  0.00000000E+00  0.00000000E+00  0.00000000E+00
  0.00000000E+00  0.00000000E+00  0.00000000E+00
  0.00000000E+00  0.00000000E+00  0.00000000E+00
  0.00000000E+00  0.00000000E+00  0.00000000E+00
  0.00000000E+00  0.00000000E+00  0.00000000E+00
  0.00000000E+00  0.00000000E+00  0.00000000E+00
  0.00000000E+00  0.00000000E+00  0.00000000E+00
  0.00000000E+00  0.00000000E+00  0.00000000E+00
  0.00000000E+00  0.00000000E+00  0.00000000E+00
  0.00000000E+00  0.00000000E+00  0.00000000E+00
  0.00000000E+00  0.00000000E+00  0.00000000E+00
  0.00000000E+00  0.00000000E+00  0.00000000E+00
  0.00000000E+00  0.00000000E+00  0.00000000E+00
  0.00000000E+00  0.00000000E+00  0.00000000E+00
  0.00000000E+00  0.00000000E+00  0.00000000E+00
  0.00000000E+00  0.00000000E+00  0.00000000E+00
  0.00000000E+00  0.00000000E+00  0.00000000E+00
  0.00000000E+00  0.00000000E+00  0.00000000E+00
  0.00000000E+00  0.00000000E+00  0.00000000E+00
  0.00000000E+00  0.00000000E+00  0.00000000E+00
  0.00000000E+00  0.00000000E+00  0.00000000E+00
  0.00000000E+00  0.00000000E+00  0.00000000E+00
  0.00000000E+00  0.00000000E+00  0.00000000E+00
  0.00000000E+00  0.00000000E+00  0.00000000E+00
  0.00000000E+00  0.00000000E+00  0.00000000E+00
  0.00000000E+00  0.00000000E+00  0.00000000E+00
  0.00000000E+00  0.00000000E+00  0.00000000E+00
  0.00000000E+00  0.00000000E+00  0.00000000E+00
  0.00000000E+00  0.00000000E+00  0.00000000E+00
  0.00000000E+00  0.00000000E+00  0.00000000E+00
  0.00000000E+00  0.00000000E+00  0.00000000E+00
  0.00000000E+00  0.00000000E+00  0.00000000E+00
  0.00000000E+00  0.00000000E+00  0.00000000E+00
  0.00000000E+00  0.00000000E+00  0.00000000E+00
  0.00000000E+00  0.00000000E+00  0.00000000E+00
  0.00000000E+00  0.00000000E+00  0.00000000E+00
  0.00000000E+00  0.00000000E+00  0.00000000E+00
  0.00000000E+00  0.00000000E+00  0.00000000E+00
  0.00000000E+00  0.00000000E+00  0.00000000E+00
  0.00000000E+00  0.00000000E+00  0.00000000E+00
  0.00000000E+00  0.00000000E+00  0.00000000E+00
  0.00000000E+00  0.00000000E+00  0.00000000E+00
  0.00000000E+00  0.00000000E+00  0.00000000E+00
  0.00000000E+00  0.00000000E+00  0.00000000E+00
  0.00000000E+00  0.00000000E+00  0.00000000E+00
  0.00000000E+00  0.00000000E+00  0.00000000E+00
  0.00000000E+00  0.00000000E+00  0.00000000E+00
  0.00000000E+00  0.00000000E+00  0.00000000E+00
  0.00000000E+00  0.00000000E+00  0.00000000E+00
  0.00000000E+00  0.00000000E+00  0.00000000E+00
  0.00000000E+00  0.00000000E+00  0.00000000E+00
