Ag  C  H  F                             
    1.000000000000000     
    11.7702790000000004    0.0000000000000000    0.0000000000000000
     0.0000000000000000   16.6456881000000010    0.0000000000000000
     0.0000000000000000    0.0000000000000000   22.4138546100000013
   Ag   C    H    F 
    64     6     2     4
Selective dynamics
Direct
  0.0000000000000000  0.2500000003003748  0.3346144663869595   F   F   F
  0.7499999974512050  0.7500000015018884  0.3346144663869595   F   F   F
  0.0000000000000000  0.5000000012015136  0.3346144663869595   F   F   F
  0.0000000000000000  0.7500000015018884  0.3346144663869595   F   F   F
  0.0000000000000000  0.0000000000000000  0.3346144663869595   F   F   F
  0.2499999991504041  0.2500000003003748  0.3346144663869595   F   F   F
  0.2499999991504041  0.5000000012015136  0.3346144663869595   F   F   F
  0.7499999974512050  0.0000000000000000  0.3346144663869595   F   F   F
  0.2499999991504041  0.7500000015018884  0.3346144663869595   F   F   F
  0.2499999991504041  0.0000000000000000  0.3346144663869595   F   F   F
  0.4999999983008081  0.2500000003003748  0.3346144663869595   F   F   F
  0.4999999983008081  0.5000000012015136  0.3346144663869595   F   F   F
  0.4999999983008081  0.7500000015018884  0.3346144663869595   F   F   F
  0.4999999983008081  0.0000000000000000  0.3346144663869595   F   F   F
  0.7499999974512050  0.2500000003003748  0.3346144663869595   F   F   F
  0.7499999974512050  0.5000000012015136  0.3346144663869595   F   F   F
  0.0000872061227205  0.2500930302613990  0.4627434272157943   T   T   T
 -0.0000001078450431  0.5000002774696233  0.4627178341801063   T   T   T
 -0.0000872528917525  0.7499067156237939  0.4627423101542771   T   T   T
 -0.0000001620465573  0.9999999158339777  0.4627220317937282   T   T   T
  0.2501951153049546  0.2502130721610150  0.4628810324265147   T   T   T
  0.2500199501806573  0.5000082886270696  0.4626481594522793   T   T   T
  0.2497901753616196  0.7500788570089280  0.4625964194364197   T   T   T
  0.2500168212720347 -0.0000029020229897  0.4626878429594644   T   T   T
  0.4997875499114735  0.2500438701691380  0.4626860541654616   T   T   T
  0.5000002344364132  0.4999999714543629  0.4624439079041476   T   T   T
  0.5002071775538887  0.7499578306354827  0.4626894258665157   T   T   T
  0.4999995101582358 -0.0000005084239229  0.4626996857197712   T   T   T
  0.7502106714735824  0.2499206465205327  0.4625960345109195   T   T   T
  0.7499797566875122  0.4999926386818713  0.4626491680462751   T   T   T
  0.7498035204727719  0.7497869776178003  0.4628809030432819   T   T   T
  0.7499824351441314  0.0000023403224345  0.4626876985719510   T   T   T
  0.1249921598477368  0.1250433654760675  0.5212768017632444   T   T   T
  0.1252844654617208  0.3751181665918826  0.5212975752189849   T   T   T
  0.1247964777581649  0.6248855812616370  0.5212250359944852   T   T   T
  0.1249048328163580  0.8749964142149184  0.5212812047926432   T   T   T
  0.3750251720715243  0.1250362030407855  0.5212697860075828   T   T   T
  0.3753582672100886  0.3755157919813894  0.5214619703790058   T   T   T
  0.3747756007313950  0.6252306043085499  0.5207622731658715   T   T   T
  0.3750700384218922  0.8749225688383545  0.5212428411328656   T   T   T
  0.6249289124226630  0.1250775947232296  0.5212435049047904   T   T   T
  0.6252286436480954  0.3747674106532585  0.5207557071495487   T   T   T
  0.6246393110014995  0.6244851106400903  0.5214628194922570   T   T   T
  0.6249741891122705  0.8749637548333852  0.5212691978599456   T   T   T
  0.8750950443345139  0.1250031533222647  0.5212816824543088   T   T   T
  0.8752049881836230  0.3751142436263214  0.5212244075430983   T   T   T
  0.8747150966003845  0.6248819437636298  0.5212976503575203   T   T   T
  0.8750076128124874  0.8749564444927957  0.5212770097079973   T   T   T
  0.1249999995752020  0.1250000004505694  0.4002562266107219   F   F   F
  0.1249999995752020  0.3750000007509442  0.4002562266107219   F   F   F
  0.1249999995752020  0.6250000016520829  0.4002562266107219   F   F   F
  0.1249999995752020  0.8750000019524578  0.4002562266107219   F   F   F
  0.3749999987256061  0.1250000004505694  0.4002562266107219   F   F   F
  0.3749999987256061  0.3750000007509442  0.4002562266107219   F   F   F
  0.3749999987256061  0.6250000016520829  0.4002562266107219   F   F   F
  0.3749999987256061  0.8750000019524578  0.4002562266107219   F   F   F
  0.6249999978760030  0.1250000004505694  0.4002562266107219   F   F   F
  0.6249999978760030  0.3750000007509442  0.4002562266107219   F   F   F
  0.6249999978760030  0.6250000016520829  0.4002562266107219   F   F   F
  0.6249999978760030  0.8750000019524578  0.4002562266107219   F   F   F
  0.8749999970264071  0.1250000004505694  0.4002562266107219   F   F   F
  0.8749999970264071  0.3750000007509442  0.4002562266107219   F   F   F
  0.8749999970264071  0.6250000016520829  0.4002562266107219   F   F   F
  0.8749999970264071  0.8750000019524578  0.4002562266107219   F   F   F
  0.4309426477950959  0.4308535673567018  0.6537405201639228   T   T   T
  0.3825641183666535  0.5071460385509572  0.6540651183119279   T   T   T
  0.4510827320689720  0.5754991933197795  0.6542898855117113   T   T   T
  0.5690416222963901  0.5691262456510811  0.6537500142438734   T   T   T
  0.6174146548549712  0.4928361689524977  0.6540182962940814   T   T   T
  0.5489092965179243  0.4244793729894811  0.6541993138209461   T   T   T
  0.3776814062035479  0.3773873589271521  0.6551956395776618   T   T   T
  0.6222949111676157  0.6225944701350580  0.6552217646107017   T   T   T
  0.2682604982291752  0.5152281210560853  0.6543653948359121   T   T   T
  0.4017950450137869  0.6491281148196942  0.6553211646309262   T   T   T
  0.7317047610332912  0.4847488221200589  0.6542967821086987   T   T   T
  0.5981852833661474  0.3508366715018615  0.6551986272606298   T   T   T
 
  0.00000000E+00  0.00000000E+00  0.00000000E+00
  0.00000000E+00  0.00000000E+00  0.00000000E+00
  0.00000000E+00  0.00000000E+00  0.00000000E+00
  0.00000000E+00  0.00000000E+00  0.00000000E+00
  0.00000000E+00  0.00000000E+00  0.00000000E+00
  0.00000000E+00  0.00000000E+00  0.00000000E+00
  0.00000000E+00  0.00000000E+00  0.00000000E+00
  0.00000000E+00  0.00000000E+00  0.00000000E+00
  0.00000000E+00  0.00000000E+00  0.00000000E+00
  0.00000000E+00  0.00000000E+00  0.00000000E+00
  0.00000000E+00  0.00000000E+00  0.00000000E+00
  0.00000000E+00  0.00000000E+00  0.00000000E+00
  0.00000000E+00  0.00000000E+00  0.00000000E+00
  0.00000000E+00  0.00000000E+00  0.00000000E+00
  0.00000000E+00  0.00000000E+00  0.00000000E+00
  0.00000000E+00  0.00000000E+00  0.00000000E+00
  0.00000000E+00  0.00000000E+00  0.00000000E+00
  0.00000000E+00  0.00000000E+00  0.00000000E+00
  0.00000000E+00  0.00000000E+00  0.00000000E+00
  0.00000000E+00  0.00000000E+00  0.00000000E+00
  0.00000000E+00  0.00000000E+00  0.00000000E+00
  0.00000000E+00  0.00000000E+00  0.00000000E+00
  0.00000000E+00  0.00000000E+00  0.00000000E+00
  0.00000000E+00  0.00000000E+00  0.00000000E+00
  0.00000000E+00  0.00000000E+00  0.00000000E+00
  0.00000000E+00  0.00000000E+00  0.00000000E+00
  0.00000000E+00  0.00000000E+00  0.00000000E+00
  0.00000000E+00  0.00000000E+00  0.00000000E+00
  0.00000000E+00  0.00000000E+00  0.00000000E+00
  0.00000000E+00  0.00000000E+00  0.00000000E+00
  0.00000000E+00  0.00000000E+00  0.00000000E+00
  0.00000000E+00  0.00000000E+00  0.00000000E+00
  0.00000000E+00  0.00000000E+00  0.00000000E+00
  0.00000000E+00  0.00000000E+00  0.00000000E+00
  0.00000000E+00  0.00000000E+00  0.00000000E+00
  0.00000000E+00  0.00000000E+00  0.00000000E+00
  0.00000000E+00  0.00000000E+00  0.00000000E+00
  0.00000000E+00  0.00000000E+00  0.00000000E+00
  0.00000000E+00  0.00000000E+00  0.00000000E+00
  0.00000000E+00  0.00000000E+00  0.00000000E+00
  0.00000000E+00  0.00000000E+00  0.00000000E+00
  0.00000000E+00  0.00000000E+00  0.00000000E+00
  0.00000000E+00  0.00000000E+00  0.00000000E+00
  0.00000000E+00  0.00000000E+00  0.00000000E+00
  0.00000000E+00  0.00000000E+00  0.00000000E+00
  0.00000000E+00  0.00000000E+00  0.00000000E+00
  0.00000000E+00  0.00000000E+00  0.00000000E+00
  0.00000000E+00  0.00000000E+00  0.00000000E+00
  0.00000000E+00  0.00000000E+00  0.00000000E+00
  0.00000000E+00  0.00000000E+00  0.00000000E+00
  0.00000000E+00  0.00000000E+00  0.00000000E+00
  0.00000000E+00  0.00000000E+00  0.00000000E+00
  0.00000000E+00  0.00000000E+00  0.00000000E+00
  0.00000000E+00  0.00000000E+00  0.00000000E+00
  0.00000000E+00  0.00000000E+00  0.00000000E+00
  0.00000000E+00  0.00000000E+00  0.00000000E+00
  0.00000000E+00  0.00000000E+00  0.00000000E+00
  0.00000000E+00  0.00000000E+00  0.00000000E+00
  0.00000000E+00  0.00000000E+00  0.00000000E+00
  0.00000000E+00  0.00000000E+00  0.00000000E+00
  0.00000000E+00  0.00000000E+00  0.00000000E+00
  0.00000000E+00  0.00000000E+00  0.00000000E+00
  0.00000000E+00  0.00000000E+00  0.00000000E+00
  0.00000000E+00  0.00000000E+00  0.00000000E+00
  0.00000000E+00  0.00000000E+00  0.00000000E+00
  0.00000000E+00  0.00000000E+00  0.00000000E+00
  0.00000000E+00  0.00000000E+00  0.00000000E+00
  0.00000000E+00  0.00000000E+00  0.00000000E+00
  0.00000000E+00  0.00000000E+00  0.00000000E+00
  0.00000000E+00  0.00000000E+00  0.00000000E+00
  0.00000000E+00  0.00000000E+00  0.00000000E+00
  0.00000000E+00  0.00000000E+00  0.00000000E+00
  0.00000000E+00  0.00000000E+00  0.00000000E+00
  0.00000000E+00  0.00000000E+00  0.00000000E+00
  0.00000000E+00  0.00000000E+00  0.00000000E+00
  0.00000000E+00  0.00000000E+00  0.00000000E+00
