Ag  C  H Cl                             
    1.000000000000000     
    11.7702790000000004    0.0000000000000000    0.0000000000000000
     0.0000000000000000   16.6456881000000010    0.0000000000000000
     0.0000000000000000    0.0000000000000000   22.4138546100000013
   Ag   C    H    Cl
    64     6     4     2
Selective dynamics
Direct
  0.0000000000000000  0.2500000003003748  0.3346144663869595   F   F   F
  0.7499999974512050  0.7500000015018884  0.3346144663869595   F   F   F
  0.0000000000000000  0.5000000012015136  0.3346144663869595   F   F   F
  0.0000000000000000  0.7500000015018884  0.3346144663869595   F   F   F
  0.0000000000000000  0.0000000000000000  0.3346144663869595   F   F   F
  0.2499999991504041  0.2500000003003748  0.3346144663869595   F   F   F
  0.2499999991504041  0.5000000012015136  0.3346144663869595   F   F   F
  0.7499999974512050  0.0000000000000000  0.3346144663869595   F   F   F
  0.2499999991504041  0.7500000015018884  0.3346144663869595   F   F   F
  0.2499999991504041  0.0000000000000000  0.3346144663869595   F   F   F
  0.4999999983008081  0.2500000003003748  0.3346144663869595   F   F   F
  0.4999999983008081  0.5000000012015136  0.3346144663869595   F   F   F
  0.4999999983008081  0.7500000015018884  0.3346144663869595   F   F   F
  0.4999999983008081  0.0000000000000000  0.3346144663869595   F   F   F
  0.7499999974512050  0.2500000003003748  0.3346144663869595   F   F   F
  0.7499999974512050  0.5000000012015136  0.3346144663869595   F   F   F
  0.9997875346019657  0.2500047694927539  0.4627105902287821   T   T   T
 -0.0000009580094814  0.5000011085910805  0.4627651720140613   T   T   T
  0.0002118730393498  0.7499959304637936  0.4627105230196444   T   T   T
  0.0000010756327754  0.0000017722491510  0.4627224698577836   T   T   T
  0.2496458201015855  0.2498411354794910  0.4624332337482108   T   T   T
  0.2498697749749145  0.4999159194381902  0.4626314884777920   T   T   T
  0.2502486901324593  0.7497368669109481  0.4629096903119850   T   T   T
  0.2500142828620756  0.9999936301082332  0.4626802037601725   T   T   T
  0.5003418055171607  0.2501159724575862  0.4626699897807330   T   T   T
  0.4999995272561001  0.5000011366865657  0.4622976961422279   T   T   T
  0.4996575857244058  0.7498850757786903  0.4626712244866188   T   T   T
  0.4999994586275118  0.0000002776300266  0.4626772082185408   T   T   T
  0.7497505350704032  0.2502640774199509  0.4629099300985173   T   T   T
  0.7501289502206332  0.5000865996087023  0.4626330954513972   T   T   T
  0.7503534046521600  0.7501595426113740  0.4624373026769769   T   T   T
  0.7499847148815589  0.0000085667500019  0.4626794732852822   T   T   T
  0.1249068956068190  0.1250051457801548  0.5213792138747887   T   T   T
  0.1241308022351103  0.3750544840979756  0.5212617650457099   T   T   T
  0.1253441412285747  0.6248417076631914  0.5214405579199448   T   T   T
  0.1249947086663143  0.8749709783612231  0.5213548951907807   T   T   T
  0.3750203422421313  0.1251077231309716  0.5212693849662678   T   T   T
  0.3746942401647917  0.3746696120620457  0.5206086194533091   T   T   T
  0.3750591924780175  0.6242107409508995  0.5216647015555882   T   T   T
  0.3750204593288098  0.8749535597180892  0.5213182483192245   T   T   T
  0.6249789644135958  0.1250482590619279  0.5213185647983386   T   T   T
  0.6249401022116038  0.3757905787123909  0.5216645308907681   T   T   T
  0.6253041704478758  0.6253320657058367  0.5206124346376896   T   T   T
  0.6249805358448977  0.8748938746456849  0.5212709520497559   T   T   T
  0.8750051756895251  0.1250309414970161  0.5213548844993433   T   T   T
  0.8746549472238501  0.3751598304904917  0.5214405148251454   T   T   T
  0.8758660389217144  0.6249483220258304  0.5212632434455126   T   T   T
  0.8750941498982400  0.8749973394652735  0.5213815256694745   T   T   T
  0.1249999995752020  0.1250000004505694  0.4002562266107219   F   F   F
  0.1249999995752020  0.3750000007509442  0.4002562266107219   F   F   F
  0.1249999995752020  0.6250000016520829  0.4002562266107219   F   F   F
  0.1249999995752020  0.8750000019524578  0.4002562266107219   F   F   F
  0.3749999987256061  0.1250000004505694  0.4002562266107219   F   F   F
  0.3749999987256061  0.3750000007509442  0.4002562266107219   F   F   F
  0.3749999987256061  0.6250000016520829  0.4002562266107219   F   F   F
  0.3749999987256061  0.8750000019524578  0.4002562266107219   F   F   F
  0.6249999978760030  0.1250000004505694  0.4002562266107219   F   F   F
  0.6249999978760030  0.3750000007509442  0.4002562266107219   F   F   F
  0.6249999978760030  0.6250000016520829  0.4002562266107219   F   F   F
  0.6249999978760030  0.8750000019524578  0.4002562266107219   F   F   F
  0.8749999970264071  0.1250000004505694  0.4002562266107219   F   F   F
  0.8749999970264071  0.3750000007509442  0.4002562266107219   F   F   F
  0.8749999970264071  0.6250000016520829  0.4002562266107219   F   F   F
  0.8749999970264071  0.8750000019524578  0.4002562266107219   F   F   F
  0.4317913729415671  0.4322796894139261  0.6548061559871884   T   T   T
  0.3814042386545560  0.5081579833266144  0.6541652976646163   T   T   T
  0.4500274772932786  0.5766376134997037  0.6539099091520620   T   T   T
  0.5682058505018348  0.5677090843966073  0.6548242963000391   T   T   T
  0.6185895698193474  0.4918373266448515  0.6541721109629155   T   T   T
  0.5499666681447205  0.4233594489862200  0.6539025200255497   T   T   T
  0.2891410525547978  0.5138582682525460  0.6538211592884910   T   T   T
  0.4118169046149913  0.6363157292522568  0.6544777777765159   T   T   T
  0.7108492745094933  0.4861418921946166  0.6538351442227067   T   T   T
  0.5881804660325131  0.3636844461619165  0.6544717584445295   T   T   T
  0.3457066313840617  0.3476569344818521  0.6555402116115328   T   T   T
  0.6543515166611500  0.6522985317069745  0.6555798004984668   T   T   T
 
  0.00000000E+00  0.00000000E+00  0.00000000E+00
  0.00000000E+00  0.00000000E+00  0.00000000E+00
  0.00000000E+00  0.00000000E+00  0.00000000E+00
  0.00000000E+00  0.00000000E+00  0.00000000E+00
  0.00000000E+00  0.00000000E+00  0.00000000E+00
  0.00000000E+00  0.00000000E+00  0.00000000E+00
  0.00000000E+00  0.00000000E+00  0.00000000E+00
  0.00000000E+00  0.00000000E+00  0.00000000E+00
  0.00000000E+00  0.00000000E+00  0.00000000E+00
  0.00000000E+00  0.00000000E+00  0.00000000E+00
  0.00000000E+00  0.00000000E+00  0.00000000E+00
  0.00000000E+00  0.00000000E+00  0.00000000E+00
  0.00000000E+00  0.00000000E+00  0.00000000E+00
  0.00000000E+00  0.00000000E+00  0.00000000E+00
  0.00000000E+00  0.00000000E+00  0.00000000E+00
  0.00000000E+00  0.00000000E+00  0.00000000E+00
  0.00000000E+00  0.00000000E+00  0.00000000E+00
  0.00000000E+00  0.00000000E+00  0.00000000E+00
  0.00000000E+00  0.00000000E+00  0.00000000E+00
  0.00000000E+00  0.00000000E+00  0.00000000E+00
  0.00000000E+00  0.00000000E+00  0.00000000E+00
  0.00000000E+00  0.00000000E+00  0.00000000E+00
  0.00000000E+00  0.00000000E+00  0.00000000E+00
  0.00000000E+00  0.00000000E+00  0.00000000E+00
  0.00000000E+00  0.00000000E+00  0.00000000E+00
  0.00000000E+00  0.00000000E+00  0.00000000E+00
  0.00000000E+00  0.00000000E+00  0.00000000E+00
  0.00000000E+00  0.00000000E+00  0.00000000E+00
  0.00000000E+00  0.00000000E+00  0.00000000E+00
  0.00000000E+00  0.00000000E+00  0.00000000E+00
  0.00000000E+00  0.00000000E+00  0.00000000E+00
  0.00000000E+00  0.00000000E+00  0.00000000E+00
  0.00000000E+00  0.00000000E+00  0.00000000E+00
  0.00000000E+00  0.00000000E+00  0.00000000E+00
  0.00000000E+00  0.00000000E+00  0.00000000E+00
  0.00000000E+00  0.00000000E+00  0.00000000E+00
  0.00000000E+00  0.00000000E+00  0.00000000E+00
  0.00000000E+00  0.00000000E+00  0.00000000E+00
  0.00000000E+00  0.00000000E+00  0.00000000E+00
  0.00000000E+00  0.00000000E+00  0.00000000E+00
  0.00000000E+00  0.00000000E+00  0.00000000E+00
  0.00000000E+00  0.00000000E+00  0.00000000E+00
  0.00000000E+00  0.00000000E+00  0.00000000E+00
  0.00000000E+00  0.00000000E+00  0.00000000E+00
  0.00000000E+00  0.00000000E+00  0.00000000E+00
  0.00000000E+00  0.00000000E+00  0.00000000E+00
  0.00000000E+00  0.00000000E+00  0.00000000E+00
  0.00000000E+00  0.00000000E+00  0.00000000E+00
  0.00000000E+00  0.00000000E+00  0.00000000E+00
  0.00000000E+00  0.00000000E+00  0.00000000E+00
  0.00000000E+00  0.00000000E+00  0.00000000E+00
  0.00000000E+00  0.00000000E+00  0.00000000E+00
  0.00000000E+00  0.00000000E+00  0.00000000E+00
  0.00000000E+00  0.00000000E+00  0.00000000E+00
  0.00000000E+00  0.00000000E+00  0.00000000E+00
  0.00000000E+00  0.00000000E+00  0.00000000E+00
  0.00000000E+00  0.00000000E+00  0.00000000E+00
  0.00000000E+00  0.00000000E+00  0.00000000E+00
  0.00000000E+00  0.00000000E+00  0.00000000E+00
  0.00000000E+00  0.00000000E+00  0.00000000E+00
  0.00000000E+00  0.00000000E+00  0.00000000E+00
  0.00000000E+00  0.00000000E+00  0.00000000E+00
  0.00000000E+00  0.00000000E+00  0.00000000E+00
  0.00000000E+00  0.00000000E+00  0.00000000E+00
  0.00000000E+00  0.00000000E+00  0.00000000E+00
  0.00000000E+00  0.00000000E+00  0.00000000E+00
  0.00000000E+00  0.00000000E+00  0.00000000E+00
  0.00000000E+00  0.00000000E+00  0.00000000E+00
  0.00000000E+00  0.00000000E+00  0.00000000E+00
  0.00000000E+00  0.00000000E+00  0.00000000E+00
  0.00000000E+00  0.00000000E+00  0.00000000E+00
  0.00000000E+00  0.00000000E+00  0.00000000E+00
  0.00000000E+00  0.00000000E+00  0.00000000E+00
  0.00000000E+00  0.00000000E+00  0.00000000E+00
  0.00000000E+00  0.00000000E+00  0.00000000E+00
  0.00000000E+00  0.00000000E+00  0.00000000E+00
