Ir48 C6 Br6                             
    1.000000000000000     
    10.9622135000000007    0.0000000000000000    0.0000000000000000
     0.0000000000000000   15.5029109999999992    0.0000000000000000
     0.0000000000000000    0.0000000000000000   15.5426444200000002
   Ir   C    Br
    48     6     6
Selective dynamics
Direct
  0.2496833164695644  0.9998121432479365  0.3949840862663407   T   T   T
  0.2484631105464317  0.2496366042590807  0.3984337502756503   T   T   T
  0.2516781344077614  0.5003613248332783  0.3959588618529182   T   T   T
  0.2513365174064432  0.7488943317281311  0.4005125533014606   T   T   T
  0.4999927753456603  0.0000032359946616  0.4089947652916166   T   T   T
  0.4979275165649426  0.2480841769933519  0.4071799027795038   T   T   T
  0.5000054211502274  0.4999978865948123  0.3980673288173122   T   T   T
  0.5020622014757379  0.7519152388463226  0.4071731207151643   T   T   T
  0.7503232770521109  0.0001869259413141  0.3949872852307976   T   T   T
  0.7486662188430486  0.2511149503227941  0.4005086610663753   T   T   T
  0.7483184897416422  0.4996290248146025  0.3959490540717496   T   T   T
  0.7515546049032125  0.7503715491183556  0.3984226189828561   T   T   T
  0.0000060676169937  0.9999925405985266  0.4087712837770923   T   T   T
  0.9974517784472425  0.2493296264647498  0.4099716322081548   T   T   T
  0.0000055145454567  0.4999996370135023  0.4094015179597577   T   T   T
  0.0025427139401160  0.7506812949122406  0.4099614695542613   T   T   T
  0.1251563462002068  0.1249036322779915  0.4878614368790721   T   T   T
  0.1221153572296245  0.3753824004688582  0.4839120700147390   T   T   T
  0.1321354979979077  0.6202947247211057  0.4884829789606968   T   T   T
  0.1264382622903852  0.8753123120754722  0.4876787243736302   T   T   T
  0.3736289464329161  0.1242067909421962  0.4874420438022682   T   T   T
  0.3642580331055356  0.3754494501540933  0.4885758293900935   T   T   T
  0.3847809741184633  0.6280271819337102  0.4888876945119662   T   T   T
  0.3745546757382456  0.8750655249519070  0.4875415350268426   T   T   T
  0.6254711496366241  0.1249400900265627  0.4875617653828641   T   T   T
  0.6152422769011707  0.3719612822106697  0.4888660731801977   T   T   T
  0.6357193828536793  0.6245358601633342  0.4886004489689455   T   T   T
  0.6263783389438515  0.8757934039900590  0.4874514637669805   T   T   T
  0.8735374061813275  0.1246972675745468  0.4877051121818639   T   T   T
  0.8678665110788018  0.3797038188647122  0.4884780582784458   T   T   T
  0.8778813470551228  0.6246110551707815  0.4839162015693930   T   T   T
  0.8748488037394608  0.8750963611681613  0.4878519401927974   T   T   T
  0.1249999993158326  0.1249999996774775  0.3216955792648832   F   F   F
  0.1249999993158326  0.3749999996774775  0.3216955792648832   F   F   F
  0.1250000002280558  0.6249999990324397  0.3216955792648832   F   F   F
  0.1250000002280558  0.8749999983874019  0.3216955792648832   F   F   F
  0.3749999988597210  0.1249999996774775  0.3216955792648832   F   F   F
  0.3749999997719442  0.3749999996774775  0.3216955792648832   F   F   F
  0.3749999997719442  0.6249999990324397  0.3216955792648832   F   F   F
  0.3749999997719442  0.8749999983874019  0.3216955792648832   F   F   F
  0.6249999993158326  0.1249999996774775  0.3216955792648832   F   F   F
  0.6249999984036094  0.3749999996774775  0.3216955792648832   F   F   F
  0.6249999993158326  0.6249999990324397  0.3216955792648832   F   F   F
  0.6249999993158326  0.8749999983874019  0.3216955792648832   F   F   F
  0.8749999979474978  0.1249999996774775  0.3216955792648832   F   F   F
  0.8749999988597210  0.3749999996774775  0.3216955792648832   F   F   F
  0.8749999988597210  0.6249999990324397  0.3216955792648832   F   F   F
  0.8749999988597210  0.8749999983874019  0.3216955792648832   F   F   F
  0.3745150060765354  0.5102103187951244  0.6192482132542878   T   T   T
  0.4480699468385083  0.5819908846929351  0.6004000068519773   T   T   T
  0.5796428783538232  0.5727251682260786  0.5988249588802290   T   T   T
  0.6254712376164662  0.4897946558783133  0.6192512918477746   T   T   T
  0.5519054370752130  0.4180387375893559  0.6004143364560406   T   T   T
  0.4203548837122426  0.4273076638985103  0.5988395218535061   T   T   T
  0.1904060341875606  0.5322924575149912  0.6248559260288786   T   T   T
  0.2507514271569420  0.8689983241263235  0.6225187170891218   T   T   T
  0.7497415784759411  0.8719422021408079  0.6223948248864986   T   T   T
  0.8095935779403476  0.4677279585310288  0.6248584705031135   T   T   T
  0.7492759725395572  0.1309836064088117  0.6224884136639801   T   T   T
  0.2502492512370438  0.1280565458635365  0.6223955767293106   T   T   T
 
  0.00000000E+00  0.00000000E+00  0.00000000E+00
  0.00000000E+00  0.00000000E+00  0.00000000E+00
  0.00000000E+00  0.00000000E+00  0.00000000E+00
  0.00000000E+00  0.00000000E+00  0.00000000E+00
  0.00000000E+00  0.00000000E+00  0.00000000E+00
  0.00000000E+00  0.00000000E+00  0.00000000E+00
  0.00000000E+00  0.00000000E+00  0.00000000E+00
  0.00000000E+00  0.00000000E+00  0.00000000E+00
  0.00000000E+00  0.00000000E+00  0.00000000E+00
  0.00000000E+00  0.00000000E+00  0.00000000E+00
  0.00000000E+00  0.00000000E+00  0.00000000E+00
  0.00000000E+00  0.00000000E+00  0.00000000E+00
  0.00000000E+00  0.00000000E+00  0.00000000E+00
  0.00000000E+00  0.00000000E+00  0.00000000E+00
  0.00000000E+00  0.00000000E+00  0.00000000E+00
  0.00000000E+00  0.00000000E+00  0.00000000E+00
  0.00000000E+00  0.00000000E+00  0.00000000E+00
  0.00000000E+00  0.00000000E+00  0.00000000E+00
  0.00000000E+00  0.00000000E+00  0.00000000E+00
  0.00000000E+00  0.00000000E+00  0.00000000E+00
  0.00000000E+00  0.00000000E+00  0.00000000E+00
  0.00000000E+00  0.00000000E+00  0.00000000E+00
  0.00000000E+00  0.00000000E+00  0.00000000E+00
  0.00000000E+00  0.00000000E+00  0.00000000E+00
  0.00000000E+00  0.00000000E+00  0.00000000E+00
  0.00000000E+00  0.00000000E+00  0.00000000E+00
  0.00000000E+00  0.00000000E+00  0.00000000E+00
  0.00000000E+00  0.00000000E+00  0.00000000E+00
  0.00000000E+00  0.00000000E+00  0.00000000E+00
  0.00000000E+00  0.00000000E+00  0.00000000E+00
  0.00000000E+00  0.00000000E+00  0.00000000E+00
  0.00000000E+00  0.00000000E+00  0.00000000E+00
  0.00000000E+00  0.00000000E+00  0.00000000E+00
  0.00000000E+00  0.00000000E+00  0.00000000E+00
  0.00000000E+00  0.00000000E+00  0.00000000E+00
  0.00000000E+00  0.00000000E+00  0.00000000E+00
  0.00000000E+00  0.00000000E+00  0.00000000E+00
  0.00000000E+00  0.00000000E+00  0.00000000E+00
  0.00000000E+00  0.00000000E+00  0.00000000E+00
  0.00000000E+00  0.00000000E+00  0.00000000E+00
  0.00000000E+00  0.00000000E+00  0.00000000E+00
  0.00000000E+00  0.00000000E+00  0.00000000E+00
  0.00000000E+00  0.00000000E+00  0.00000000E+00
  0.00000000E+00  0.00000000E+00  0.00000000E+00
  0.00000000E+00  0.00000000E+00  0.00000000E+00
  0.00000000E+00  0.00000000E+00  0.00000000E+00
  0.00000000E+00  0.00000000E+00  0.00000000E+00
  0.00000000E+00  0.00000000E+00  0.00000000E+00
  0.00000000E+00  0.00000000E+00  0.00000000E+00
  0.00000000E+00  0.00000000E+00  0.00000000E+00
  0.00000000E+00  0.00000000E+00  0.00000000E+00
  0.00000000E+00  0.00000000E+00  0.00000000E+00
  0.00000000E+00  0.00000000E+00  0.00000000E+00
  0.00000000E+00  0.00000000E+00  0.00000000E+00
  0.00000000E+00  0.00000000E+00  0.00000000E+00
  0.00000000E+00  0.00000000E+00  0.00000000E+00
  0.00000000E+00  0.00000000E+00  0.00000000E+00
  0.00000000E+00  0.00000000E+00  0.00000000E+00
  0.00000000E+00  0.00000000E+00  0.00000000E+00
  0.00000000E+00  0.00000000E+00  0.00000000E+00
