Ir48 C4 N2 F4                           
    1.000000000000000     
    10.9622135000000007    0.0000000000000000    0.0000000000000000
     0.0000000000000000   15.5029109999999992    0.0000000000000000
     0.0000000000000000    0.0000000000000000   15.5412342500000005
   Ir   C    N    F 
    48     4     2     4
Selective dynamics
Direct
  0.2499024064611319  0.9998833285304585  0.4032097131930215   T   T   T
  0.2500366375405463  0.2501297088246375  0.4032649430839399   T   T   T
  0.2502978119004382  0.4998584218244204  0.4055634213707791   T   T   T
  0.2498210900973064  0.7502114218290785  0.4023563184273797   T   T   T
  0.4999963654683981  0.0000009974962225  0.4037651441497019   T   T   T
  0.5001254977947127  0.2498289430245890  0.4033314332994280   T   T   T
  0.4999990644545989  0.5000020434809187  0.4037484726948861   T   T   T
  0.4998695236598678  0.7501632247443837  0.4033391738723822   T   T   T
  0.7500985269288023  0.0001132471134753  0.4032078081566581   T   T   T
  0.7501768379512086  0.2497826043464428  0.4023585852208242   T   T   T
  0.7496986426485819  0.5001406600042841  0.4055567151237653   T   T   T
  0.7499619984434247  0.7498702120366971  0.4032577112013129   T   T   T
  0.9999977488733904  0.9999955191659708  0.4043973295063878   T   T   T
  0.0000457571262586  0.2501411075363578  0.4035836865782727   T   T   T
  0.9999991845506457  0.4999980122310603  0.4032225913780820   T   T   T
  0.9999513653345247  0.7498592752103264  0.4035695244988560   T   T   T
  0.1251073035543300  0.1251236857905624  0.4852453178456315   T   T   T
  0.1246841333641200  0.3748827200282392  0.4855211809293749   T   T   T
  0.1250184970987789  0.6251474158645678  0.4854940289447285   T   T   T
  0.1247354511872345  0.8749361719545021  0.4853442121190739   T   T   T
  0.3749306366698377  0.1250594463647658  0.4851779383926527   T   T   T
  0.3749124436352034  0.3743421534879161  0.4857502463979415   T   T   T
  0.3734928015486574  0.6258582302661893  0.4849964416930206   T   T   T
  0.3750642028090923  0.8749232096769575  0.4852842607699159   T   T   T
  0.6249340927626434  0.1250691972202844  0.4852869509146274   T   T   T
  0.6265070984517109  0.3741430534360362  0.4850076348319945   T   T   T
  0.6250847443377481  0.6256562171656981  0.4857483274115424   T   T   T
  0.6250590006874361  0.8749329346848782  0.4851784684488507   T   T   T
  0.8752679230736717  0.1250563516255880  0.4853365021515117   T   T   T
  0.8749781911002117  0.3748513301608369  0.4854986603748515   T   T   T
  0.8753087196739813  0.6251148939845024  0.4855304746603935   T   T   T
  0.8748875596487267  0.8748687747927875  0.4852503251527267   T   T   T
  0.1249999993158326  0.1249999996774775  0.3217247690607294   F   F   F
  0.1249999993158326  0.3749999996774775  0.3217247690607294   F   F   F
  0.1250000002280558  0.6249999990324397  0.3217247690607294   F   F   F
  0.1250000002280558  0.8749999983874019  0.3217247690607294   F   F   F
  0.3749999988597210  0.1249999996774775  0.3217247690607294   F   F   F
  0.3749999997719442  0.3749999996774775  0.3217247690607294   F   F   F
  0.3749999997719442  0.6249999990324397  0.3217247690607294   F   F   F
  0.3749999997719442  0.8749999983874019  0.3217247690607294   F   F   F
  0.6249999993158326  0.1249999996774775  0.3217247690607294   F   F   F
  0.6249999984036094  0.3749999996774775  0.3217247690607294   F   F   F
  0.6249999993158326  0.6249999990324397  0.3217247690607294   F   F   F
  0.6249999993158326  0.8749999983874019  0.3217247690607294   F   F   F
  0.8749999979474978  0.1249999996774775  0.3217247690607294   F   F   F
  0.8749999988597210  0.3749999996774775  0.3217247690607294   F   F   F
  0.8749999988597210  0.6249999990324397  0.3217247690607294   F   F   F
  0.8749999988597210  0.8749999983874019  0.3217247690607294   F   F   F
  0.5470087929412699  0.4211285939883993  0.6760579666881341   T   T   T
  0.6210736151221923  0.4947592999643646  0.6762601214932999   T   T   T
  0.4530134370458327  0.5788912731012985  0.6760660248165209   T   T   T
  0.3789466253863836  0.5052710368652527  0.6762560999993426   T   T   T
  0.5734067654406303  0.5730435246529879  0.6749543656071495   T   T   T
  0.4266277755776358  0.4269953464986074  0.6749439690761534   T   T   T
  0.2571403231028953  0.5119333831793966  0.6805757659137299   T   T   T
  0.4037381559628201  0.6582806986526322  0.6823408841741312   T   T   T
  0.5962801506698980  0.3417507397957138  0.6823277965723733   T   T   T
  0.7428918394278483  0.4880992058472131  0.6805789164995204   T   T   T
 
  0.00000000E+00  0.00000000E+00  0.00000000E+00
  0.00000000E+00  0.00000000E+00  0.00000000E+00
  0.00000000E+00  0.00000000E+00  0.00000000E+00
  0.00000000E+00  0.00000000E+00  0.00000000E+00
  0.00000000E+00  0.00000000E+00  0.00000000E+00
  0.00000000E+00  0.00000000E+00  0.00000000E+00
  0.00000000E+00  0.00000000E+00  0.00000000E+00
  0.00000000E+00  0.00000000E+00  0.00000000E+00
  0.00000000E+00  0.00000000E+00  0.00000000E+00
  0.00000000E+00  0.00000000E+00  0.00000000E+00
  0.00000000E+00  0.00000000E+00  0.00000000E+00
  0.00000000E+00  0.00000000E+00  0.00000000E+00
  0.00000000E+00  0.00000000E+00  0.00000000E+00
  0.00000000E+00  0.00000000E+00  0.00000000E+00
  0.00000000E+00  0.00000000E+00  0.00000000E+00
  0.00000000E+00  0.00000000E+00  0.00000000E+00
  0.00000000E+00  0.00000000E+00  0.00000000E+00
  0.00000000E+00  0.00000000E+00  0.00000000E+00
  0.00000000E+00  0.00000000E+00  0.00000000E+00
  0.00000000E+00  0.00000000E+00  0.00000000E+00
  0.00000000E+00  0.00000000E+00  0.00000000E+00
  0.00000000E+00  0.00000000E+00  0.00000000E+00
  0.00000000E+00  0.00000000E+00  0.00000000E+00
  0.00000000E+00  0.00000000E+00  0.00000000E+00
  0.00000000E+00  0.00000000E+00  0.00000000E+00
  0.00000000E+00  0.00000000E+00  0.00000000E+00
  0.00000000E+00  0.00000000E+00  0.00000000E+00
  0.00000000E+00  0.00000000E+00  0.00000000E+00
  0.00000000E+00  0.00000000E+00  0.00000000E+00
  0.00000000E+00  0.00000000E+00  0.00000000E+00
  0.00000000E+00  0.00000000E+00  0.00000000E+00
  0.00000000E+00  0.00000000E+00  0.00000000E+00
  0.00000000E+00  0.00000000E+00  0.00000000E+00
  0.00000000E+00  0.00000000E+00  0.00000000E+00
  0.00000000E+00  0.00000000E+00  0.00000000E+00
  0.00000000E+00  0.00000000E+00  0.00000000E+00
  0.00000000E+00  0.00000000E+00  0.00000000E+00
  0.00000000E+00  0.00000000E+00  0.00000000E+00
  0.00000000E+00  0.00000000E+00  0.00000000E+00
  0.00000000E+00  0.00000000E+00  0.00000000E+00
  0.00000000E+00  0.00000000E+00  0.00000000E+00
  0.00000000E+00  0.00000000E+00  0.00000000E+00
  0.00000000E+00  0.00000000E+00  0.00000000E+00
  0.00000000E+00  0.00000000E+00  0.00000000E+00
  0.00000000E+00  0.00000000E+00  0.00000000E+00
  0.00000000E+00  0.00000000E+00  0.00000000E+00
  0.00000000E+00  0.00000000E+00  0.00000000E+00
  0.00000000E+00  0.00000000E+00  0.00000000E+00
  0.00000000E+00  0.00000000E+00  0.00000000E+00
  0.00000000E+00  0.00000000E+00  0.00000000E+00
  0.00000000E+00  0.00000000E+00  0.00000000E+00
  0.00000000E+00  0.00000000E+00  0.00000000E+00
  0.00000000E+00  0.00000000E+00  0.00000000E+00
  0.00000000E+00  0.00000000E+00  0.00000000E+00
  0.00000000E+00  0.00000000E+00  0.00000000E+00
  0.00000000E+00  0.00000000E+00  0.00000000E+00
  0.00000000E+00  0.00000000E+00  0.00000000E+00
  0.00000000E+00  0.00000000E+00  0.00000000E+00
