Pt  C  F                                
   1.00000000000000     
    11.2480069999999994    0.0000000000000000    0.0000000000000000
    -5.6240030000000001    9.7410599999999992    0.0000000000000000
     0.0000000000000000    0.0000000000000000   24.8879693399999979
   Pt   C    F 
    64     6     6
Selective dynamics
Direct
  0.9999999587182344  0.7499999743354451  0.3013504194553178   F   F   F
  0.2499999964438118  0.0000000000000000  0.3013504194553178   F   F   F
  0.2499999825579735  0.2499999917873410  0.3013504194553178   F   F   F
  0.2499999690478916  0.4999999825481041  0.3013504194553178   F   F   F
  0.2499999551620533  0.7499999743354451  0.3013504194553178   F   F   F
  0.4999999928876306  0.0000000000000000  0.3013504194553178   F   F   F
  0.4999999790017924  0.2499999917873410  0.3013504194553178   F   F   F
  0.4999999654917033  0.4999999825481041  0.3013504194553178   F   F   F
  0.7499999893314424  0.0000000000000000  0.3013504194553178   F   F   F
  0.7499999754456042  0.2499999917873410  0.3013504194553178   F   F   F
  0.7499999619355222  0.4999999825481041  0.3013504194553178   F   F   F
  0.7499999480496840  0.7499999743354451  0.3013504194553178   F   F   F
  0.0000000000000000  0.0000000000000000  0.3013504194553178   F   F   F
  0.9999999861141617  0.2499999917873410  0.3013504194553178   F   F   F
  0.9999999583793340  0.4999999825481041  0.3013504194553178   F   F   F
  0.4999999516058651  0.7499999743354451  0.3013504194553178   F   F   F
  0.0833330000000032  0.1666669999999968  0.3936034172243978   F   F   F
  0.0833330000000032  0.4166669999999968  0.3936034172243978   F   F   F
  0.0833330000000032  0.6666669999999968  0.3936034172243978   F   F   F
  0.0833330000000032  0.9166669999999968  0.3936034172243978   F   F   F
  0.3333330000000032  0.1666669999999968  0.3936034172243978   F   F   F
  0.3333330000000032  0.4166669999999968  0.3936034172243978   F   F   F
  0.3333330000000032  0.6666669999999968  0.3936034172243978   F   F   F
  0.3333330000000032  0.9166669999999968  0.3936034172243978   F   F   F
  0.5833330000000032  0.1666669999999968  0.3936034172243978   F   F   F
  0.5833330000000032  0.4166669999999968  0.3936034172243978   F   F   F
  0.5833330000000032  0.6666669999999968  0.3936034172243978   F   F   F
  0.5833330000000032  0.9166669999999968  0.3936034172243978   F   F   F
  0.8333330000000032  0.1666669999999968  0.3936034172243978   F   F   F
  0.8333330000000032  0.4166669999999968  0.3936034172243978   F   F   F
  0.8333330000000032  0.6666669999999968  0.3936034172243978   F   F   F
  0.8333330000000032  0.9166669999999968  0.3936034172243978   F   F   F
  0.2498578509122517  0.2499123833948955  0.5787090122080941   T   T   T
  0.2498483200562099  0.5000121678989660  0.5785134406554140   T   T   T
  0.2500198861337264  0.7500904924099583  0.5785738618598529   T   T   T
  0.2499645468034186 -0.0000181014941637  0.5787570787239175   T   T   T
  0.4998338216102015  0.2497605833628689  0.5785274956663295   T   T   T
  0.4998244881231356  0.4998261406336263  0.5781604167259906   T   T   T
  0.4999876675960763  0.7500540755531564  0.5780455342979743   T   T   T
  0.4998706332752060 -0.0000737894882001  0.5785811408760082   T   T   T
  0.7499023025416529  0.2500390041545756  0.5785966828357574   T   T   T
  0.7499697568479146  0.4999537583282493  0.5780505690374820   T   T   T
  0.7501510537922662  0.7501497268626087  0.5781421781307339   T   T   T
  0.7499832204723944  0.0001432141502627  0.5784977593380706   T   T   T
  0.9999162815856267  0.2500291321551216  0.5787492855752855   T   T   T
  0.9998829244484324  0.4999988028978652  0.5785875651715284   T   T   T
  0.0002073159065302  0.7501282892180184  0.5784937915053704   T   T   T
  0.0000754858878147  0.0001543028425776  0.5786913948843282   T   T   T
  0.1666277152637368  0.0833425302183542  0.4854138817945632   T   T   T
  0.1665473547607042  0.3332929145753689  0.4854098466917780   T   T   T
  0.1666227563164834  0.5834502768922792  0.4853700187967711   T   T   T
  0.1666639484632767  0.8334855561768754  0.4853498588801999   T   T   T
  0.4164870614077388  0.0833216897933673  0.4853587902722624   T   T   T
  0.4165308813236960  0.3332124826106370  0.4852789042087381   T   T   T
  0.4164725916521753  0.5832872987504053  0.4851547826822746   T   T   T
  0.4165364386707245  0.8334924205017229  0.4852201596273871   T   T   T
  0.6665160145054261  0.0833456148574069  0.4853623077099918   T   T   T
  0.6665282542722077  0.3331461491354888  0.4852412625338421   T   T   T
  0.6666957839498056  0.5832799979272635  0.4850228961376805   T   T   T
  0.6667148275340825  0.8335153344024577  0.4851430616184300   T   T   T
  0.9166633256604183  0.0834092403480144  0.4853966428584352   T   T   T
  0.9166214934601883  0.3333243725233914  0.4854020939684343   T   T   T
  0.9168163924829948  0.5834311392640191  0.4852445428053671   T   T   T
  0.9167753432268642  0.8334558668968232  0.4852680422037862   T   T   T
  0.6968020944184883  0.7685650637322671  0.7088494289500082   T   T   T
  0.7685933768885114  0.6968476929273650  0.7088321514236885   T   T   T
  0.6967430303416791  0.5534531903022346  0.7093222218888490   T   T   T
  0.5533735211234208  0.4816307555067279  0.7088596247824557   T   T   T
  0.4816550552930009  0.5533955650504676  0.7088816189444619   T   T   T
  0.5534562615059742  0.6967196492261131  0.7093502356075821   T   T   T
  0.7656743582686960  0.9065229879734622  0.7100124457439831   T   T   T
  0.9065620835154651  0.7657016559907204  0.7100131026009153   T   T   T
  0.7658644392042454  0.4843839907964393  0.7112206021368621   T   T   T
  0.4845021930775081  0.3436081013382257  0.7100391049372353   T   T   T
  0.3436339516440052  0.4844685758028831  0.7100350881758033   T   T   T
  0.4843808406754860  0.7657848497816817  0.7112007609478559   T   T   T
 
  0.00000000E+00  0.00000000E+00  0.00000000E+00
  0.00000000E+00  0.00000000E+00  0.00000000E+00
  0.00000000E+00  0.00000000E+00  0.00000000E+00
  0.00000000E+00  0.00000000E+00  0.00000000E+00
  0.00000000E+00  0.00000000E+00  0.00000000E+00
  0.00000000E+00  0.00000000E+00  0.00000000E+00
  0.00000000E+00  0.00000000E+00  0.00000000E+00
  0.00000000E+00  0.00000000E+00  0.00000000E+00
  0.00000000E+00  0.00000000E+00  0.00000000E+00
  0.00000000E+00  0.00000000E+00  0.00000000E+00
  0.00000000E+00  0.00000000E+00  0.00000000E+00
  0.00000000E+00  0.00000000E+00  0.00000000E+00
  0.00000000E+00  0.00000000E+00  0.00000000E+00
  0.00000000E+00  0.00000000E+00  0.00000000E+00
  0.00000000E+00  0.00000000E+00  0.00000000E+00
  0.00000000E+00  0.00000000E+00  0.00000000E+00
  0.00000000E+00  0.00000000E+00  0.00000000E+00
  0.00000000E+00  0.00000000E+00  0.00000000E+00
  0.00000000E+00  0.00000000E+00  0.00000000E+00
  0.00000000E+00  0.00000000E+00  0.00000000E+00
  0.00000000E+00  0.00000000E+00  0.00000000E+00
  0.00000000E+00  0.00000000E+00  0.00000000E+00
  0.00000000E+00  0.00000000E+00  0.00000000E+00
  0.00000000E+00  0.00000000E+00  0.00000000E+00
  0.00000000E+00  0.00000000E+00  0.00000000E+00
  0.00000000E+00  0.00000000E+00  0.00000000E+00
  0.00000000E+00  0.00000000E+00  0.00000000E+00
  0.00000000E+00  0.00000000E+00  0.00000000E+00
  0.00000000E+00  0.00000000E+00  0.00000000E+00
  0.00000000E+00  0.00000000E+00  0.00000000E+00
  0.00000000E+00  0.00000000E+00  0.00000000E+00
  0.00000000E+00  0.00000000E+00  0.00000000E+00
  0.00000000E+00  0.00000000E+00  0.00000000E+00
  0.00000000E+00  0.00000000E+00  0.00000000E+00
  0.00000000E+00  0.00000000E+00  0.00000000E+00
  0.00000000E+00  0.00000000E+00  0.00000000E+00
  0.00000000E+00  0.00000000E+00  0.00000000E+00
  0.00000000E+00  0.00000000E+00  0.00000000E+00
  0.00000000E+00  0.00000000E+00  0.00000000E+00
  0.00000000E+00  0.00000000E+00  0.00000000E+00
  0.00000000E+00  0.00000000E+00  0.00000000E+00
  0.00000000E+00  0.00000000E+00  0.00000000E+00
  0.00000000E+00  0.00000000E+00  0.00000000E+00
  0.00000000E+00  0.00000000E+00  0.00000000E+00
  0.00000000E+00  0.00000000E+00  0.00000000E+00
  0.00000000E+00  0.00000000E+00  0.00000000E+00
  0.00000000E+00  0.00000000E+00  0.00000000E+00
  0.00000000E+00  0.00000000E+00  0.00000000E+00
  0.00000000E+00  0.00000000E+00  0.00000000E+00
  0.00000000E+00  0.00000000E+00  0.00000000E+00
  0.00000000E+00  0.00000000E+00  0.00000000E+00
  0.00000000E+00  0.00000000E+00  0.00000000E+00
  0.00000000E+00  0.00000000E+00  0.00000000E+00
  0.00000000E+00  0.00000000E+00  0.00000000E+00
  0.00000000E+00  0.00000000E+00  0.00000000E+00
  0.00000000E+00  0.00000000E+00  0.00000000E+00
  0.00000000E+00  0.00000000E+00  0.00000000E+00
  0.00000000E+00  0.00000000E+00  0.00000000E+00
  0.00000000E+00  0.00000000E+00  0.00000000E+00
  0.00000000E+00  0.00000000E+00  0.00000000E+00
  0.00000000E+00  0.00000000E+00  0.00000000E+00
  0.00000000E+00  0.00000000E+00  0.00000000E+00
  0.00000000E+00  0.00000000E+00  0.00000000E+00
  0.00000000E+00  0.00000000E+00  0.00000000E+00
  0.00000000E+00  0.00000000E+00  0.00000000E+00
  0.00000000E+00  0.00000000E+00  0.00000000E+00
  0.00000000E+00  0.00000000E+00  0.00000000E+00
  0.00000000E+00  0.00000000E+00  0.00000000E+00
  0.00000000E+00  0.00000000E+00  0.00000000E+00
  0.00000000E+00  0.00000000E+00  0.00000000E+00
  0.00000000E+00  0.00000000E+00  0.00000000E+00
  0.00000000E+00  0.00000000E+00  0.00000000E+00
  0.00000000E+00  0.00000000E+00  0.00000000E+00
  0.00000000E+00  0.00000000E+00  0.00000000E+00
  0.00000000E+00  0.00000000E+00  0.00000000E+00
  0.00000000E+00  0.00000000E+00  0.00000000E+00
