Pt48 C6 F2 H4                           
    1.000000000000000     
    11.2480068000000006    0.0000000000000000    0.0000000000000000
     0.0000000000000000   11.2480068000000006    0.0000000000000000
     0.0000000000000000    0.0000000000000000   16.9148942799999986
   Pt   C    F    H 
    48     6     2     4
Selective dynamics
Direct
  0.2499686008395727  0.9998595974314952  0.4112651764176007   T   T   T
  0.2499953930317318  0.2499890282449400  0.4110524198331049   T   T   T
  0.2500895438148305  0.5006023399914241  0.4112978773268878   T   T   T
  0.2502537840182626  0.7497586390921995  0.4116726180285326   T   T   T
  0.4999941641817713  0.9999981606598922  0.4112012913470835   T   T   T
  0.5005961832229389  0.2500801742655696  0.4112961100937582   T   T   T
  0.4999980809975284  0.5000055445417360  0.4118491133204998   T   T   T
  0.4993958249130870  0.7499170194806837  0.4113080895059014   T   T   T
  0.7500341254507745  0.0001465789949862  0.4112603043263405   T   T   T
  0.7497576010664844  0.2502381517514891  0.4116592565090471   T   T   T
  0.7499129238670363  0.4994031813396731  0.4112943195823107   T   T   T
  0.7499982620375576  0.7500055112196051  0.4110546696189630   T   T   T
  0.9999991093757927  0.0000082005687432  0.4113994201137956   T   T   T
  0.9998572682752069  0.2499571230351592  0.4112529030376777   T   T   T
  0.9999997026462495  0.4999994599922104  0.4111882903454287   T   T   T
  0.0001416920022166  0.7500375326158348  0.4112578168455272   T   T   T
  0.1251610555532991  0.1251650167204303  0.5268131273667791   T   T   T
  0.1249882259342598  0.3751813703778097  0.5268609575159360   T   T   T
  0.1245272169257063  0.6248298313054903  0.5271063854353883   T   T   T
  0.1249939901322534  0.8750023938540537  0.5271586145652591   T   T   T
  0.3751757291439688  0.1249951124197892  0.5268796886236942   T   T   T
  0.3743329180690509  0.3743342754580539  0.5263444728205116   T   T   T
  0.3740341218904817  0.6259617177372547  0.5293366547712850   T   T   T
  0.3751646704029810  0.8754725595804800  0.5271264493539576   T   T   T
  0.6248279966073440  0.1245327654959212  0.5271210720973158   T   T   T
  0.6259666639884998  0.3740367509258888  0.5293199349957547   T   T   T
  0.6256699560948960  0.6256649713455431  0.5263585593790978   T   T   T
  0.6248213470735564  0.8750090840616878  0.5268751266042599   T   T   T
  0.8750043690756257  0.1250008021097315  0.5271691946993613   T   T   T
  0.8754729171452169  0.3751717858784644  0.5271043264018687   T   T   T
  0.8750124509889972  0.6248192648689468  0.5268604744957415   T   T   T
  0.8748402406594451  0.8748363692701631  0.5268049140442130   T   T   T
  0.1250000008890453  0.1250000000000000  0.2955974726907939   F   F   F
  0.1250000008890453  0.3750000008890453  0.2955974726907939   F   F   F
  0.1250000008890453  0.6250000026671358  0.2955974726907939   F   F   F
  0.1250000008890453  0.8750000026671358  0.2955974726907939   F   F   F
  0.3750000017780906  0.1250000000000000  0.2955974726907939   F   F   F
  0.3750000017780906  0.3750000008890453  0.2955974726907939   F   F   F
  0.3750000017780906  0.6250000026671358  0.2955974726907939   F   F   F
  0.3750000017780906  0.8750000026671358  0.2955974726907939   F   F   F
  0.6250000026671358  0.1250000000000000  0.2955974726907939   F   F   F
  0.6250000026671358  0.3750000008890453  0.2955974726907939   F   F   F
  0.6250000026671358  0.6250000026671358  0.2955974726907939   F   F   F
  0.6250000026671358  0.8750000026671358  0.2955974726907939   F   F   F
  0.8750000035561882  0.1250000000000000  0.2955974726907939   F   F   F
  0.8750000026671358  0.3750000008890453  0.2955974726907939   F   F   F
  0.8750000035561882  0.6250000026671358  0.2955974726907939   F   F   F
  0.8750000035561882  0.8750000026671358  0.2955974726907939   F   F   F
  0.4135940924332431  0.4135923992588388  0.7027973673950285   T   T   T
  0.3789882302684404  0.5329058316180237  0.7013629135624768   T   T   T
  0.4672142547237144  0.6210641115546878  0.7013958578610726   T   T   T
  0.5864420657020872  0.5864634992625426  0.7028390492599286   T   T   T
  0.6210912127283095  0.4672046145708109  0.7013919932793229   T   T   T
  0.5328878296395274  0.3789948968845565  0.7013574492338606   T   T   T
  0.3284821733101353  0.3284710276346345  0.7114882853101108   T   T   T
  0.6715072643920763  0.6714893755714613  0.7115821840145387   T   T   T
  0.2849551322586521  0.5560451597232117  0.7041466966840559   T   T   T
  0.4440068441840737  0.7150510630199065  0.7041898511256193   T   T   T
  0.7150743239402146  0.4439769803970464  0.7041804822306474   T   T   T
  0.5560318473684305  0.2849258202717806  0.7041399846424170   T   T   T
 
  0.00000000E+00  0.00000000E+00  0.00000000E+00
  0.00000000E+00  0.00000000E+00  0.00000000E+00
  0.00000000E+00  0.00000000E+00  0.00000000E+00
  0.00000000E+00  0.00000000E+00  0.00000000E+00
  0.00000000E+00  0.00000000E+00  0.00000000E+00
  0.00000000E+00  0.00000000E+00  0.00000000E+00
  0.00000000E+00  0.00000000E+00  0.00000000E+00
  0.00000000E+00  0.00000000E+00  0.00000000E+00
  0.00000000E+00  0.00000000E+00  0.00000000E+00
  0.00000000E+00  0.00000000E+00  0.00000000E+00
  0.00000000E+00  0.00000000E+00  0.00000000E+00
  0.00000000E+00  0.00000000E+00  0.00000000E+00
  0.00000000E+00  0.00000000E+00  0.00000000E+00
  0.00000000E+00  0.00000000E+00  0.00000000E+00
  0.00000000E+00  0.00000000E+00  0.00000000E+00
  0.00000000E+00  0.00000000E+00  0.00000000E+00
  0.00000000E+00  0.00000000E+00  0.00000000E+00
  0.00000000E+00  0.00000000E+00  0.00000000E+00
  0.00000000E+00  0.00000000E+00  0.00000000E+00
  0.00000000E+00  0.00000000E+00  0.00000000E+00
  0.00000000E+00  0.00000000E+00  0.00000000E+00
  0.00000000E+00  0.00000000E+00  0.00000000E+00
  0.00000000E+00  0.00000000E+00  0.00000000E+00
  0.00000000E+00  0.00000000E+00  0.00000000E+00
  0.00000000E+00  0.00000000E+00  0.00000000E+00
  0.00000000E+00  0.00000000E+00  0.00000000E+00
  0.00000000E+00  0.00000000E+00  0.00000000E+00
  0.00000000E+00  0.00000000E+00  0.00000000E+00
  0.00000000E+00  0.00000000E+00  0.00000000E+00
  0.00000000E+00  0.00000000E+00  0.00000000E+00
  0.00000000E+00  0.00000000E+00  0.00000000E+00
  0.00000000E+00  0.00000000E+00  0.00000000E+00
  0.00000000E+00  0.00000000E+00  0.00000000E+00
  0.00000000E+00  0.00000000E+00  0.00000000E+00
  0.00000000E+00  0.00000000E+00  0.00000000E+00
  0.00000000E+00  0.00000000E+00  0.00000000E+00
  0.00000000E+00  0.00000000E+00  0.00000000E+00
  0.00000000E+00  0.00000000E+00  0.00000000E+00
  0.00000000E+00  0.00000000E+00  0.00000000E+00
  0.00000000E+00  0.00000000E+00  0.00000000E+00
  0.00000000E+00  0.00000000E+00  0.00000000E+00
  0.00000000E+00  0.00000000E+00  0.00000000E+00
  0.00000000E+00  0.00000000E+00  0.00000000E+00
  0.00000000E+00  0.00000000E+00  0.00000000E+00
  0.00000000E+00  0.00000000E+00  0.00000000E+00
  0.00000000E+00  0.00000000E+00  0.00000000E+00
  0.00000000E+00  0.00000000E+00  0.00000000E+00
  0.00000000E+00  0.00000000E+00  0.00000000E+00
  0.00000000E+00  0.00000000E+00  0.00000000E+00
  0.00000000E+00  0.00000000E+00  0.00000000E+00
  0.00000000E+00  0.00000000E+00  0.00000000E+00
  0.00000000E+00  0.00000000E+00  0.00000000E+00
  0.00000000E+00  0.00000000E+00  0.00000000E+00
  0.00000000E+00  0.00000000E+00  0.00000000E+00
  0.00000000E+00  0.00000000E+00  0.00000000E+00
  0.00000000E+00  0.00000000E+00  0.00000000E+00
  0.00000000E+00  0.00000000E+00  0.00000000E+00
  0.00000000E+00  0.00000000E+00  0.00000000E+00
  0.00000000E+00  0.00000000E+00  0.00000000E+00
  0.00000000E+00  0.00000000E+00  0.00000000E+00
