Pt48 C6 Cl2 H4                          
    1.000000000000000     
    11.2480068000000006    0.0000000000000000    0.0000000000000000
     0.0000000000000000   11.2480068000000006    0.0000000000000000
     0.0000000000000000    0.0000000000000000   16.9154553700000001
   Pt   C    Cl   H 
    48     6     2     4
Selective dynamics
Direct
  0.2500218277791930  0.9998721775676245  0.4113453875615178   T   T   T
  0.2500227047510108  0.2500254485711153  0.4110236734873212   T   T   T
  0.2499302980818427  0.5006663148600978  0.4113052920712335   T   T   T
  0.2502164283251460  0.7497801425966841  0.4117998444297157   T   T   T
  0.5000037305590581  0.9999980774313002  0.4112901950171377   T   T   T
  0.5006734058489428  0.2499319047748187  0.4113035295815450   T   T   T
  0.4999984861323199  0.4999931191153237  0.4116392295563926   T   T   T
  0.4993296461815007  0.7500708573198409  0.4113014765352929   T   T   T
  0.7499768303939831  0.0001284657087623  0.4113488347359606   T   T   T
  0.7497860068279749  0.2502178054465389  0.4118046151415768   T   T   T
  0.7500734083282836  0.4993192339485120  0.4112991598854023   T   T   T
  0.7499763328717535  0.7499781009003641  0.4110158851401309   T   T   T
  0.9999995965585313  0.0000027032462313  0.4112916357330292   T   T   T
  0.9998705758544943  0.2500237242447270  0.4113544134702991   T   T   T
  0.0000005391700526  0.4999932156540865  0.4112930389050646   T   T   T
  0.0001300066193934  0.7499739620304879  0.4113446404670213   T   T   T
  0.1251340191645269  0.1251303368981809  0.5267751183383851   T   T   T
  0.1250859833589573  0.3751345725434234  0.5270759406176069   T   T   T
  0.1245775580114028  0.6249033870936742  0.5272257752331484   T   T   T
  0.1248998513727173  0.8750967572854478  0.5272333252712471   T   T   T
  0.3751391276201446  0.1250781400360665  0.5270766004316414   T   T   T
  0.3746599548780054  0.3746605921646875  0.5259005843396523   T   T   T
  0.3742523571672081  0.6257485216204230  0.5293451938225360   T   T   T
  0.3750968435273236  0.8754199745825275  0.5272295139731327   T   T   T
  0.6249080410244474  0.1245699694492544  0.5272299025528255   T   T   T
  0.6257509282399241  0.3742471274193946  0.5293581552236688   T   T   T
  0.6253401343366534  0.6253412436238719  0.5258982246309927   T   T   T
  0.6248647706751740  0.8749153757557266  0.5270735234437467   T   T   T
  0.8750991190141875  0.1248936323093588  0.5272368633369808   T   T   T
  0.8754269232285168  0.3750912858697575  0.5272354100817367   T   T   T
  0.8749181483032658  0.6248642780857807  0.5270743744643980   T   T   T
  0.8748656309034146  0.8748636843344642  0.5267737698972468   T   T   T
  0.1250000008890453  0.1250000000000000  0.2955876676466929   F   F   F
  0.1250000008890453  0.3750000008890453  0.2955876676466929   F   F   F
  0.1250000008890453  0.6250000026671358  0.2955876676466929   F   F   F
  0.1250000008890453  0.8750000026671358  0.2955876676466929   F   F   F
  0.3750000017780906  0.1250000000000000  0.2955876676466929   F   F   F
  0.3750000017780906  0.3750000008890453  0.2955876676466929   F   F   F
  0.3750000017780906  0.6250000026671358  0.2955876676466929   F   F   F
  0.3750000017780906  0.8750000026671358  0.2955876676466929   F   F   F
  0.6250000026671358  0.1250000000000000  0.2955876676466929   F   F   F
  0.6250000026671358  0.3750000008890453  0.2955876676466929   F   F   F
  0.6250000026671358  0.6250000026671358  0.2955876676466929   F   F   F
  0.6250000026671358  0.8750000026671358  0.2955876676466929   F   F   F
  0.8750000035561882  0.1250000000000000  0.2955876676466929   F   F   F
  0.8750000026671358  0.3750000008890453  0.2955876676466929   F   F   F
  0.8750000035561882  0.6250000026671358  0.2955876676466929   F   F   F
  0.8750000035561882  0.8750000026671358  0.2955876676466929   F   F   F
  0.4123053714421374  0.4123321831351845  0.7032422316072555   T   T   T
  0.3793853265928888  0.5325493017643410  0.7015195285066511   T   T   T
  0.4674570160190825  0.6206099463337793  0.7015266980383146   T   T   T
  0.5876748460721828  0.5876850065124373  0.7032571567359227   T   T   T
  0.6206140623154823  0.4674838642200925  0.7015269855689539   T   T   T
  0.5325355189098318  0.3794076357826057  0.7015190666937130   T   T   T
  0.3038775168580514  0.3038909857354994  0.7133750678604116   T   T   T
  0.6961119959246744  0.6961341853116210  0.7134021992146202   T   T   T
  0.2857096755344983  0.5574675927001493  0.7035239310642538   T   T   T
  0.4425505958481466  0.7143080064456129  0.7035362556060747   T   T   T
  0.7142773177569524  0.4425550812214851  0.7035363415490110   T   T   T
  0.5574402989181024  0.2857174062574259  0.7035234461730013   T   T   T
 
  0.00000000E+00  0.00000000E+00  0.00000000E+00
  0.00000000E+00  0.00000000E+00  0.00000000E+00
  0.00000000E+00  0.00000000E+00  0.00000000E+00
  0.00000000E+00  0.00000000E+00  0.00000000E+00
  0.00000000E+00  0.00000000E+00  0.00000000E+00
  0.00000000E+00  0.00000000E+00  0.00000000E+00
  0.00000000E+00  0.00000000E+00  0.00000000E+00
  0.00000000E+00  0.00000000E+00  0.00000000E+00
  0.00000000E+00  0.00000000E+00  0.00000000E+00
  0.00000000E+00  0.00000000E+00  0.00000000E+00
  0.00000000E+00  0.00000000E+00  0.00000000E+00
  0.00000000E+00  0.00000000E+00  0.00000000E+00
  0.00000000E+00  0.00000000E+00  0.00000000E+00
  0.00000000E+00  0.00000000E+00  0.00000000E+00
  0.00000000E+00  0.00000000E+00  0.00000000E+00
  0.00000000E+00  0.00000000E+00  0.00000000E+00
  0.00000000E+00  0.00000000E+00  0.00000000E+00
  0.00000000E+00  0.00000000E+00  0.00000000E+00
  0.00000000E+00  0.00000000E+00  0.00000000E+00
  0.00000000E+00  0.00000000E+00  0.00000000E+00
  0.00000000E+00  0.00000000E+00  0.00000000E+00
  0.00000000E+00  0.00000000E+00  0.00000000E+00
  0.00000000E+00  0.00000000E+00  0.00000000E+00
  0.00000000E+00  0.00000000E+00  0.00000000E+00
  0.00000000E+00  0.00000000E+00  0.00000000E+00
  0.00000000E+00  0.00000000E+00  0.00000000E+00
  0.00000000E+00  0.00000000E+00  0.00000000E+00
  0.00000000E+00  0.00000000E+00  0.00000000E+00
  0.00000000E+00  0.00000000E+00  0.00000000E+00
  0.00000000E+00  0.00000000E+00  0.00000000E+00
  0.00000000E+00  0.00000000E+00  0.00000000E+00
  0.00000000E+00  0.00000000E+00  0.00000000E+00
  0.00000000E+00  0.00000000E+00  0.00000000E+00
  0.00000000E+00  0.00000000E+00  0.00000000E+00
  0.00000000E+00  0.00000000E+00  0.00000000E+00
  0.00000000E+00  0.00000000E+00  0.00000000E+00
  0.00000000E+00  0.00000000E+00  0.00000000E+00
  0.00000000E+00  0.00000000E+00  0.00000000E+00
  0.00000000E+00  0.00000000E+00  0.00000000E+00
  0.00000000E+00  0.00000000E+00  0.00000000E+00
  0.00000000E+00  0.00000000E+00  0.00000000E+00
  0.00000000E+00  0.00000000E+00  0.00000000E+00
  0.00000000E+00  0.00000000E+00  0.00000000E+00
  0.00000000E+00  0.00000000E+00  0.00000000E+00
  0.00000000E+00  0.00000000E+00  0.00000000E+00
  0.00000000E+00  0.00000000E+00  0.00000000E+00
  0.00000000E+00  0.00000000E+00  0.00000000E+00
  0.00000000E+00  0.00000000E+00  0.00000000E+00
  0.00000000E+00  0.00000000E+00  0.00000000E+00
  0.00000000E+00  0.00000000E+00  0.00000000E+00
  0.00000000E+00  0.00000000E+00  0.00000000E+00
  0.00000000E+00  0.00000000E+00  0.00000000E+00
  0.00000000E+00  0.00000000E+00  0.00000000E+00
  0.00000000E+00  0.00000000E+00  0.00000000E+00
  0.00000000E+00  0.00000000E+00  0.00000000E+00
  0.00000000E+00  0.00000000E+00  0.00000000E+00
  0.00000000E+00  0.00000000E+00  0.00000000E+00
  0.00000000E+00  0.00000000E+00  0.00000000E+00
  0.00000000E+00  0.00000000E+00  0.00000000E+00
  0.00000000E+00  0.00000000E+00  0.00000000E+00
