Ag48 C6 F6                              
    1.000000000000000     
    11.7678089999999997    0.0000000000000000    0.0000000000000000
    -5.8839040000000002   10.1912210000000005    0.0000000000000000
     0.0000000000000000    0.0000000000000000   17.8041879999999999
   Ag   C    F 
    48     6     6
Selective dynamics
Direct
  0.0833330000000032  0.1666669999999968  0.3369989999999987   F   F   F
  0.0833330000000032  0.4166669999999968  0.3369989999999987   F   F   F
  0.0833330000000032  0.6666669999999968  0.3369989999999987   F   F   F
  0.0833330000000032  0.9166669999999968  0.3369989999999987   F   F   F
  0.3333330000000032  0.1666669999999968  0.3369989999999987   F   F   F
  0.3333330000000032  0.4166669999999968  0.3369989999999987   F   F   F
  0.3333330000000032  0.6666669999999968  0.3369989999999987   F   F   F
  0.3333330000000032  0.9166669999999968  0.3369989999999987   F   F   F
  0.5833330000000032  0.1666669999999968  0.3369989999999987   F   F   F
  0.5833330000000032  0.4166669999999968  0.3369989999999987   F   F   F
  0.5833330000000032  0.6666669999999968  0.3369989999999987   F   F   F
  0.5833330000000032  0.9166669999999968  0.3369989999999987   F   F   F
  0.8333330000000032  0.1666669999999968  0.3369989999999987   F   F   F
  0.8333330000000032  0.4166669999999968  0.3369989999999987   F   F   F
  0.8333330000000032  0.6666669999999968  0.3369989999999987   F   F   F
  0.8333330000000032  0.9166669999999968  0.3369989999999987   F   F   F
  0.2502041331953535  0.2502204204428793  0.5898724105956532   T   T   T
  0.2500710364185394  0.4998409823807819  0.5895663718695801   T   T   T
  0.2500357278460186  0.7499434416903910  0.5894481563215592   T   T   T
  0.2500674859764160  0.0002561436389286  0.5896518029599633   T   T   T
  0.4998036761704370  0.2500823475299683  0.5895609097147201   T   T   T
  0.4996370948830418  0.4996631203809727  0.5898023703030262   T   T   T
  0.4998711819523933  0.7496476057294785  0.5896282468717544   T   T   T
  0.4998872071714331  0.9999982555264353  0.5893949150726172   T   T   T
  0.7499145428081988  0.2500180339221885  0.5894364394325109   T   T   T
  0.7496610098504775  0.4998447256621148  0.5896334021341545   T   T   T
  0.7497494838072072  0.7497782492990979  0.5895561119639083   T   T   T
  0.7499554906113843  0.9999570246501222  0.5894216653801223   T   T   T
  0.0003003481381754  0.2500554819939609  0.5896371343063933   T   T   T
  0.9999885428759967  0.4998805291531880  0.5893996149957417   T   T   T
  0.9999272890238728  0.7499952118310063  0.5894344913308984   T   T   T
  0.0001672753557287  0.0001889286954011  0.5895281356908058   T   T   T
  0.1667991333884089  0.0835372452340835  0.4633176569116912   T   T   T
  0.1667262344871787  0.3332486591325008  0.4632637819321488   T   T   T
  0.1667497573288159  0.5832853904587978  0.4632351278936611   T   T   T
  0.1666642007502048  0.8334107482820983  0.4632874962940292   T   T   T
  0.4166013197821385  0.0833734897126348  0.4632498724108345   T   T   T
  0.4165479573484276  0.3332827219653041  0.4632228573292423   T   T   T
  0.4166684796216700  0.5832660083289767  0.4632560743212011   T   T   T
  0.4166782648683380  0.8331941587510840  0.4632636955250149   T   T   T
  0.6666877945358891  0.0833320670922078  0.4632232841148110   T   T   T
  0.6665689505270009  0.3332983104767919  0.4632496980391565   T   T   T
  0.6664798049845757  0.5832198216320492  0.4633097548785372   T   T   T
  0.6666067877444632  0.8332851779800521  0.4632705297916289   T   T   T
  0.9166389916032500  0.0833652559204268  0.4632723754686836   T   T   T
  0.9166826836906097  0.3331908471432428  0.4632652752832911   T   T   T
  0.9165066649726867  0.5833036299264194  0.4632807080735333   T   T   T
  0.9165609920603686  0.8333073579136894  0.4632920499482012   T   T   T
  0.3067397819774271  0.2382028727863599  0.7747019429927278   T   T   T
  0.2382015833254982  0.3067322091264586  0.7746997434354341   T   T   T
  0.3067587067096014  0.4436429627665675  0.7748195933385134   T   T   T
  0.4436818336971626  0.5122115131571618  0.7746234823797948   T   T   T
  0.5122142386838178  0.4436962367041417  0.7746252619591019   T   T   T
  0.4436619653192864  0.3067798587509571  0.7748237872238306   T   T   T
  0.2407791159661770  0.1059877753319398  0.7751522088737559   T   T   T
  0.1059913550324296  0.2407661855426610  0.7751576366671245   T   T   T
  0.2405844165655751  0.5097295971719973  0.7749333330854213   T   T   T
  0.5095619645775642  0.6444711076474334  0.7749824689447351   T   T   T
  0.6444686157231558  0.5095956199415141  0.7749714272875110   T   T   T
  0.5097488853751102  0.2406130186637583  0.7749349778424985   T   T   T
 
  0.00000000E+00  0.00000000E+00  0.00000000E+00
  0.00000000E+00  0.00000000E+00  0.00000000E+00
  0.00000000E+00  0.00000000E+00  0.00000000E+00
  0.00000000E+00  0.00000000E+00  0.00000000E+00
  0.00000000E+00  0.00000000E+00  0.00000000E+00
  0.00000000E+00  0.00000000E+00  0.00000000E+00
  0.00000000E+00  0.00000000E+00  0.00000000E+00
  0.00000000E+00  0.00000000E+00  0.00000000E+00
  0.00000000E+00  0.00000000E+00  0.00000000E+00
  0.00000000E+00  0.00000000E+00  0.00000000E+00
  0.00000000E+00  0.00000000E+00  0.00000000E+00
  0.00000000E+00  0.00000000E+00  0.00000000E+00
  0.00000000E+00  0.00000000E+00  0.00000000E+00
  0.00000000E+00  0.00000000E+00  0.00000000E+00
  0.00000000E+00  0.00000000E+00  0.00000000E+00
  0.00000000E+00  0.00000000E+00  0.00000000E+00
  0.00000000E+00  0.00000000E+00  0.00000000E+00
  0.00000000E+00  0.00000000E+00  0.00000000E+00
  0.00000000E+00  0.00000000E+00  0.00000000E+00
  0.00000000E+00  0.00000000E+00  0.00000000E+00
  0.00000000E+00  0.00000000E+00  0.00000000E+00
  0.00000000E+00  0.00000000E+00  0.00000000E+00
  0.00000000E+00  0.00000000E+00  0.00000000E+00
  0.00000000E+00  0.00000000E+00  0.00000000E+00
  0.00000000E+00  0.00000000E+00  0.00000000E+00
  0.00000000E+00  0.00000000E+00  0.00000000E+00
  0.00000000E+00  0.00000000E+00  0.00000000E+00
  0.00000000E+00  0.00000000E+00  0.00000000E+00
  0.00000000E+00  0.00000000E+00  0.00000000E+00
  0.00000000E+00  0.00000000E+00  0.00000000E+00
  0.00000000E+00  0.00000000E+00  0.00000000E+00
  0.00000000E+00  0.00000000E+00  0.00000000E+00
  0.00000000E+00  0.00000000E+00  0.00000000E+00
  0.00000000E+00  0.00000000E+00  0.00000000E+00
  0.00000000E+00  0.00000000E+00  0.00000000E+00
  0.00000000E+00  0.00000000E+00  0.00000000E+00
  0.00000000E+00  0.00000000E+00  0.00000000E+00
  0.00000000E+00  0.00000000E+00  0.00000000E+00
  0.00000000E+00  0.00000000E+00  0.00000000E+00
  0.00000000E+00  0.00000000E+00  0.00000000E+00
  0.00000000E+00  0.00000000E+00  0.00000000E+00
  0.00000000E+00  0.00000000E+00  0.00000000E+00
  0.00000000E+00  0.00000000E+00  0.00000000E+00
  0.00000000E+00  0.00000000E+00  0.00000000E+00
  0.00000000E+00  0.00000000E+00  0.00000000E+00
  0.00000000E+00  0.00000000E+00  0.00000000E+00
  0.00000000E+00  0.00000000E+00  0.00000000E+00
  0.00000000E+00  0.00000000E+00  0.00000000E+00
  0.00000000E+00  0.00000000E+00  0.00000000E+00
  0.00000000E+00  0.00000000E+00  0.00000000E+00
  0.00000000E+00  0.00000000E+00  0.00000000E+00
  0.00000000E+00  0.00000000E+00  0.00000000E+00
  0.00000000E+00  0.00000000E+00  0.00000000E+00
  0.00000000E+00  0.00000000E+00  0.00000000E+00
  0.00000000E+00  0.00000000E+00  0.00000000E+00
  0.00000000E+00  0.00000000E+00  0.00000000E+00
  0.00000000E+00  0.00000000E+00  0.00000000E+00
  0.00000000E+00  0.00000000E+00  0.00000000E+00
  0.00000000E+00  0.00000000E+00  0.00000000E+00
  0.00000000E+00  0.00000000E+00  0.00000000E+00
