Ag  C  H Br                             
   1.00000000000000     
    11.7678089999999997    0.0000000000000000    0.0000000000000000
    -5.8839040000000002   10.1912210000000005    0.0000000000000000
     0.0000000000000000    0.0000000000000000   25.2062817300000006
   Ag   C    H    Br
    64     6     4     2
Selective dynamics
Direct
  0.7499999754973956  0.7500000274746270  0.2975448771198046   F   F   F
  0.9999999830044857  0.0000000000000000  0.2975448771198046   F   F   F
  0.9999999789222898  0.2500000088311296  0.2975448771198046   F   F   F
  0.9999999748400938  0.5000000176622592  0.2975448771198046   F   F   F
  0.9999999882440349  0.7500000274746270  0.2975448771198046   F   F   F
  0.2499999957511179  0.0000000000000000  0.2975448771198046   F   F   F
  0.2499999916689291  0.2500000088311296  0.2975448771198046   F   F   F
  0.2499999875867331  0.5000000176622592  0.2975448771198046   F   F   F
  0.4999999915022428  0.0000000000000000  0.2975448771198046   F   F   F
  0.4999999874200469  0.2500000088311296  0.2975448771198046   F   F   F
  0.4999999833378510  0.5000000176622592  0.2975448771198046   F   F   F
  0.4999999797462777  0.7500000274746270  0.2975448771198046   F   F   F
  0.7499999872533607  0.0000000000000000  0.2975448771198046   F   F   F
  0.7499999831711648  0.2500000088311296  0.2975448771198046   F   F   F
  0.7499999790889760  0.5000000176622592  0.2975448771198046   F   F   F
  0.2499999839951599  0.7500000274746270  0.2975448771198046   F   F   F
  0.0833330000000032  0.1666669999999968  0.3928423087572952   F   F   F
  0.0833330000000032  0.4166669999999968  0.3928423087572952   F   F   F
  0.0833330000000032  0.6666669999999968  0.3928423087572952   F   F   F
  0.0833330000000032  0.9166669999999968  0.3928423087572952   F   F   F
  0.3333330000000032  0.1666669999999968  0.3928423087572952   F   F   F
  0.3333330000000032  0.4166669999999968  0.3928423087572952   F   F   F
  0.3333330000000032  0.6666669999999968  0.3928423087572952   F   F   F
  0.3333330000000032  0.9166669999999968  0.3928423087572952   F   F   F
  0.5833330000000032  0.1666669999999968  0.3928423087572952   F   F   F
  0.5833330000000032  0.4166669999999968  0.3928423087572952   F   F   F
  0.5833330000000032  0.6666669999999968  0.3928423087572952   F   F   F
  0.5833330000000032  0.9166669999999968  0.3928423087572952   F   F   F
  0.8333330000000032  0.1666669999999968  0.3928423087572952   F   F   F
  0.8333330000000032  0.4166669999999968  0.3928423087572952   F   F   F
  0.8333330000000032  0.6666669999999968  0.3928423087572952   F   F   F
  0.8333330000000032  0.9166669999999968  0.3928423087572952   F   F   F
  0.2486749220410177  0.2488995550346776  0.5713553858139157   T   T   T
  0.2497922952081306  0.5000565834463911  0.5701423421322340   T   T   T
  0.2499852798777372  0.7504801848669609  0.5712943226549835   T   T   T
  0.2493123555732253  0.9994491315869513  0.5712849919301601   T   T   T
  0.4999954552214134  0.2498270441655854  0.5701863903086413   T   T   T
  0.5011221942330277  0.5013482922496384  0.5713153794860463   T   T   T
  0.5004662177966810  0.7506251639462072  0.5712856664381206   T   T   T
  0.4996874917492200  0.9993655305207305  0.5712849266285784   T   T   T
  0.7503712463499913  0.2500866078391312  0.5713363083750337   T   T   T
  0.7503834187885117  0.5005209631147292  0.5712587143686665   T   T   T
  0.7502450170336477  0.7504085228307561  0.5714716592078353   T   T   T
  0.7498338666092276  0.9999968114445027  0.5716027315564264   T   T   T
  0.9992581852296371  0.2494270502207034  0.5713012226582743   T   T   T
  0.9992891479451462  0.4997977409255500  0.5712387549582166   T   T   T
 -0.0000377122207119  0.7498871016413095  0.5715647486282009   T   T   T
  0.9994589392707933  0.9996219911263189  0.5714538349947436   T   T   T
  0.1664893404152441  0.0831069302289131  0.4819202837409903   T   T   T
  0.1662586882229592  0.3327826792714952  0.4818640271911263   T   T   T
  0.1663261299715096  0.5836601741903963  0.4817263192650125   T   T   T
  0.1662640236670044  0.8331300304349953  0.4818583846030358   T   T   T
  0.4162437415318312  0.0827346129926442  0.4817786499269658   T   T   T
  0.4162167324724278  0.3336658524569386  0.4820785916770631   T   T   T
  0.4171129380563304  0.5836730408349330  0.4818537207996084   T   T   T
  0.4164301089419011  0.8329595727522148  0.4818429911013948   T   T   T
  0.6665788909972982  0.0833763895550313  0.4819876907736786   T   T   T
  0.6671673694716185  0.3335990915616764  0.4817878384646070   T   T   T
  0.6668990618412288  0.5835153868047646  0.4819024456022412   T   T   T
  0.6669729649233093  0.8335576459056012  0.4819181808047408   T   T   T
  0.9163338251349572  0.0829525334297875  0.4819162717513027   T   T   T
  0.9168385514520634  0.3333480757081834  0.4818438547896069   T   T   T
  0.9167880947006484  0.5836981330999252  0.4818373981020335   T   T   T
  0.9166313777385582  0.8332703266673881  0.4819292201730032   T   T   T
  0.3083008468675135  0.4437845706040133  0.6942372949422163   T   T   T
  0.4451653764668916  0.5137250056444230  0.6929694017578817   T   T   T
  0.5138023415639250  0.4450818166253537  0.6929752589345373   T   T   T
  0.4438891964367484  0.3082296137828470  0.6943268895003939   T   T   T
  0.3071004536955617  0.2383435853555783  0.6929780445498759   T   T   T
  0.2384444262011701  0.3069793371270494  0.6929745774887029   T   T   T
  0.4987237098738474  0.6206484350104298  0.6921493279735976   T   T   T
  0.6207441191076528  0.4986299200561796  0.6922125446752888   T   T   T
  0.2534954981087694  0.1314007676277499  0.6922509820930478   T   T   T
  0.1315298147316312  0.2533870032658224  0.6921898688197629   T   T   T
  0.2149010765447230  0.5370974289981634  0.6955022068723008   T   T   T
  0.5371396823875993  0.2148092976207009  0.6955500224950486   T   T   T
 
  0.00000000E+00  0.00000000E+00  0.00000000E+00
  0.00000000E+00  0.00000000E+00  0.00000000E+00
  0.00000000E+00  0.00000000E+00  0.00000000E+00
  0.00000000E+00  0.00000000E+00  0.00000000E+00
  0.00000000E+00  0.00000000E+00  0.00000000E+00
  0.00000000E+00  0.00000000E+00  0.00000000E+00
  0.00000000E+00  0.00000000E+00  0.00000000E+00
  0.00000000E+00  0.00000000E+00  0.00000000E+00
  0.00000000E+00  0.00000000E+00  0.00000000E+00
  0.00000000E+00  0.00000000E+00  0.00000000E+00
  0.00000000E+00  0.00000000E+00  0.00000000E+00
  0.00000000E+00  0.00000000E+00  0.00000000E+00
  0.00000000E+00  0.00000000E+00  0.00000000E+00
  0.00000000E+00  0.00000000E+00  0.00000000E+00
  0.00000000E+00  0.00000000E+00  0.00000000E+00
  0.00000000E+00  0.00000000E+00  0.00000000E+00
  0.00000000E+00  0.00000000E+00  0.00000000E+00
  0.00000000E+00  0.00000000E+00  0.00000000E+00
  0.00000000E+00  0.00000000E+00  0.00000000E+00
  0.00000000E+00  0.00000000E+00  0.00000000E+00
  0.00000000E+00  0.00000000E+00  0.00000000E+00
  0.00000000E+00  0.00000000E+00  0.00000000E+00
  0.00000000E+00  0.00000000E+00  0.00000000E+00
  0.00000000E+00  0.00000000E+00  0.00000000E+00
  0.00000000E+00  0.00000000E+00  0.00000000E+00
  0.00000000E+00  0.00000000E+00  0.00000000E+00
  0.00000000E+00  0.00000000E+00  0.00000000E+00
  0.00000000E+00  0.00000000E+00  0.00000000E+00
  0.00000000E+00  0.00000000E+00  0.00000000E+00
  0.00000000E+00  0.00000000E+00  0.00000000E+00
  0.00000000E+00  0.00000000E+00  0.00000000E+00
  0.00000000E+00  0.00000000E+00  0.00000000E+00
  0.00000000E+00  0.00000000E+00  0.00000000E+00
  0.00000000E+00  0.00000000E+00  0.00000000E+00
  0.00000000E+00  0.00000000E+00  0.00000000E+00
  0.00000000E+00  0.00000000E+00  0.00000000E+00
  0.00000000E+00  0.00000000E+00  0.00000000E+00
  0.00000000E+00  0.00000000E+00  0.00000000E+00
  0.00000000E+00  0.00000000E+00  0.00000000E+00
  0.00000000E+00  0.00000000E+00  0.00000000E+00
  0.00000000E+00  0.00000000E+00  0.00000000E+00
  0.00000000E+00  0.00000000E+00  0.00000000E+00
  0.00000000E+00  0.00000000E+00  0.00000000E+00
  0.00000000E+00  0.00000000E+00  0.00000000E+00
  0.00000000E+00  0.00000000E+00  0.00000000E+00
  0.00000000E+00  0.00000000E+00  0.00000000E+00
  0.00000000E+00  0.00000000E+00  0.00000000E+00
  0.00000000E+00  0.00000000E+00  0.00000000E+00
  0.00000000E+00  0.00000000E+00  0.00000000E+00
  0.00000000E+00  0.00000000E+00  0.00000000E+00
  0.00000000E+00  0.00000000E+00  0.00000000E+00
  0.00000000E+00  0.00000000E+00  0.00000000E+00
  0.00000000E+00  0.00000000E+00  0.00000000E+00
  0.00000000E+00  0.00000000E+00  0.00000000E+00
  0.00000000E+00  0.00000000E+00  0.00000000E+00
  0.00000000E+00  0.00000000E+00  0.00000000E+00
  0.00000000E+00  0.00000000E+00  0.00000000E+00
  0.00000000E+00  0.00000000E+00  0.00000000E+00
  0.00000000E+00  0.00000000E+00  0.00000000E+00
  0.00000000E+00  0.00000000E+00  0.00000000E+00
  0.00000000E+00  0.00000000E+00  0.00000000E+00
  0.00000000E+00  0.00000000E+00  0.00000000E+00
  0.00000000E+00  0.00000000E+00  0.00000000E+00
  0.00000000E+00  0.00000000E+00  0.00000000E+00
  0.00000000E+00  0.00000000E+00  0.00000000E+00
  0.00000000E+00  0.00000000E+00  0.00000000E+00
  0.00000000E+00  0.00000000E+00  0.00000000E+00
  0.00000000E+00  0.00000000E+00  0.00000000E+00
  0.00000000E+00  0.00000000E+00  0.00000000E+00
  0.00000000E+00  0.00000000E+00  0.00000000E+00
  0.00000000E+00  0.00000000E+00  0.00000000E+00
  0.00000000E+00  0.00000000E+00  0.00000000E+00
  0.00000000E+00  0.00000000E+00  0.00000000E+00
  0.00000000E+00  0.00000000E+00  0.00000000E+00
  0.00000000E+00  0.00000000E+00  0.00000000E+00
  0.00000000E+00  0.00000000E+00  0.00000000E+00
