H4 Rh48 C6 Br2                          
    1.000000000000000     
    10.8721879999999995    0.0000000000000000    0.0000000000000000
    -5.4360939999999998    9.4155909999999992    0.0000000000000000
     0.0000000000000000    0.0000000000000000   16.4418399999999991
   H    Rh   C    Br
     4    48     6     2
Selective dynamics
Direct
  0.5070941867075973  0.6360698151451984  0.7710715220959230   T   T   T
  0.6383142718781372  0.5051720117765655  0.7701635167423362   T   T   T
  0.2446896940568095  0.1114824216203658  0.7701133388473451   T   T   T
  0.1137456966018817  0.2426647979234176  0.7710232599217477   T   T   T
  0.0833330000000032  0.1666669999999968  0.3649229999999974   F   F   F
  0.0833330000000032  0.4166669999999968  0.3649229999999974   F   F   F
  0.0833330000000032  0.6666669999999968  0.3649229999999974   F   F   F
  0.0833330000000032  0.9166669999999968  0.3649229999999974   F   F   F
  0.3333330000000032  0.1666669999999968  0.3649229999999974   F   F   F
  0.3333330000000032  0.4166669999999968  0.3649229999999974   F   F   F
  0.3333330000000032  0.6666669999999968  0.3649229999999974   F   F   F
  0.3333330000000032  0.9166669999999968  0.3649229999999974   F   F   F
  0.5833330000000032  0.1666669999999968  0.3649229999999974   F   F   F
  0.5833330000000032  0.4166669999999968  0.3649229999999974   F   F   F
  0.5833330000000032  0.6666669999999968  0.3649229999999974   F   F   F
  0.5833330000000032  0.9166669999999968  0.3649229999999974   F   F   F
  0.8333330000000032  0.1666669999999968  0.3649229999999974   F   F   F
  0.8333330000000032  0.4166669999999968  0.3649229999999974   F   F   F
  0.8333330000000032  0.6666669999999968  0.3649229999999974   F   F   F
  0.8333330000000032  0.9166669999999968  0.3649229999999974   F   F   F
  0.9969584383919141  0.9964040439015562  0.6193923067166764   T   T   T
  0.9955041481251286  0.2481863865445249  0.6199071433545953   T   T   T
  0.0004009380336285  0.4994433088375558  0.6208206048320477   T   T   T
  0.0009575009368916  0.7490186263461922  0.6198876022706941   T   T   T
  0.2471051752330240  0.9949422215966450  0.6197847959379104   T   T   T
  0.2426442437653478  0.2422334132725297  0.6250355690380687   T   T   T
  0.2520765708970245  0.4979334775825492  0.6245341138692098   T   T   T
  0.2505496976015067  0.7495948644441199  0.6208064287315835   T   T   T
  0.4997490219355498  0.0005990381414662  0.6206948995925217   T   T   T
  0.4983471847318057  0.2516584276172438  0.6246324922123989   T   T   T
  0.5077803918913375  0.5073702774191133  0.6250826223350785   T   T   T
  0.5018197892025356  0.7545025323651728  0.6199088988165968   T   T   T
  0.7498269796185895  0.0001866271635222  0.6196331543597111   T   T   T
  0.7494056955742252  0.2502571096837514  0.6206809176770918   T   T   T
  0.7550610944442724  0.5028794352769594  0.6198038576021645   T   T   T
  0.7536399255998134  0.7530776510733048  0.6194118618547577   T   T   T
  0.1676666116100876  0.0852368005150339  0.4925607041223614   T   T   T
  0.1682028133471292  0.3337643634571066  0.4932224072567806   T   T   T
  0.1684915965133058  0.5814880437791530  0.4937043784864201   T   T   T
  0.1678434999347473  0.8329643992419591  0.4923012425482938   T   T   T
  0.4173642459741487  0.0859793002562625  0.4934363429337409   T   T   T
  0.4156648080236565  0.3343399649117771  0.4940936763892907   T   T   T
  0.4162355205915844  0.5817881896358159  0.4932251415674713   T   T   T
  0.4168960988122521  0.8337510344669141  0.4927179188277222   T   T   T
  0.6661537519923826  0.0838547949248252  0.4926611745293954   T   T   T
  0.6640443442097421  0.3326593119431394  0.4934330226315709   T   T   T
  0.6647724948382034  0.5823334180047226  0.4925636099035415   T   T   T
  0.6661684132348071  0.8329618397952387  0.4922444952591931   T   T   T
  0.9170440598337493  0.0838394803456950  0.4922497405565665   T   T   T
  0.9162480422795412  0.3331021901648370  0.4927298381019867   T   T   T
  0.9170322360659284  0.5821500197166500  0.4923070972939882   T   T   T
  0.9173305163431920  0.8326932180521354  0.4918345983321117   T   T   T
  0.2962312634189956  0.4535687632997067  0.7441181116326803   T   T   T
  0.4521059256042577  0.5260874649199465  0.7494926123509416   T   T   T
  0.5281457109915593  0.4499420638745875  0.7490545383275133   T   T   T
  0.4558435938925456  0.2940245139919853  0.7441658406212284   T   T   T
  0.2999408444186429  0.2217069228983632  0.7490168947672657   T   T   T
  0.2237138907254987  0.2976709162698583  0.7494671053433990   T   T   T
  0.2100489108516328  0.5396863652796426  0.8133372352345347   T   T   T
  0.5408065801788098  0.2090909850452221  0.8150509161228570   T   T   T
 
  0.00000000E+00  0.00000000E+00  0.00000000E+00
  0.00000000E+00  0.00000000E+00  0.00000000E+00
  0.00000000E+00  0.00000000E+00  0.00000000E+00
  0.00000000E+00  0.00000000E+00  0.00000000E+00
  0.00000000E+00  0.00000000E+00  0.00000000E+00
  0.00000000E+00  0.00000000E+00  0.00000000E+00
  0.00000000E+00  0.00000000E+00  0.00000000E+00
  0.00000000E+00  0.00000000E+00  0.00000000E+00
  0.00000000E+00  0.00000000E+00  0.00000000E+00
  0.00000000E+00  0.00000000E+00  0.00000000E+00
  0.00000000E+00  0.00000000E+00  0.00000000E+00
  0.00000000E+00  0.00000000E+00  0.00000000E+00
  0.00000000E+00  0.00000000E+00  0.00000000E+00
  0.00000000E+00  0.00000000E+00  0.00000000E+00
  0.00000000E+00  0.00000000E+00  0.00000000E+00
  0.00000000E+00  0.00000000E+00  0.00000000E+00
  0.00000000E+00  0.00000000E+00  0.00000000E+00
  0.00000000E+00  0.00000000E+00  0.00000000E+00
  0.00000000E+00  0.00000000E+00  0.00000000E+00
  0.00000000E+00  0.00000000E+00  0.00000000E+00
  0.00000000E+00  0.00000000E+00  0.00000000E+00
  0.00000000E+00  0.00000000E+00  0.00000000E+00
  0.00000000E+00  0.00000000E+00  0.00000000E+00
  0.00000000E+00  0.00000000E+00  0.00000000E+00
  0.00000000E+00  0.00000000E+00  0.00000000E+00
  0.00000000E+00  0.00000000E+00  0.00000000E+00
  0.00000000E+00  0.00000000E+00  0.00000000E+00
  0.00000000E+00  0.00000000E+00  0.00000000E+00
  0.00000000E+00  0.00000000E+00  0.00000000E+00
  0.00000000E+00  0.00000000E+00  0.00000000E+00
  0.00000000E+00  0.00000000E+00  0.00000000E+00
  0.00000000E+00  0.00000000E+00  0.00000000E+00
  0.00000000E+00  0.00000000E+00  0.00000000E+00
  0.00000000E+00  0.00000000E+00  0.00000000E+00
  0.00000000E+00  0.00000000E+00  0.00000000E+00
  0.00000000E+00  0.00000000E+00  0.00000000E+00
  0.00000000E+00  0.00000000E+00  0.00000000E+00
  0.00000000E+00  0.00000000E+00  0.00000000E+00
  0.00000000E+00  0.00000000E+00  0.00000000E+00
  0.00000000E+00  0.00000000E+00  0.00000000E+00
  0.00000000E+00  0.00000000E+00  0.00000000E+00
  0.00000000E+00  0.00000000E+00  0.00000000E+00
  0.00000000E+00  0.00000000E+00  0.00000000E+00
  0.00000000E+00  0.00000000E+00  0.00000000E+00
  0.00000000E+00  0.00000000E+00  0.00000000E+00
  0.00000000E+00  0.00000000E+00  0.00000000E+00
  0.00000000E+00  0.00000000E+00  0.00000000E+00
  0.00000000E+00  0.00000000E+00  0.00000000E+00
  0.00000000E+00  0.00000000E+00  0.00000000E+00
  0.00000000E+00  0.00000000E+00  0.00000000E+00
  0.00000000E+00  0.00000000E+00  0.00000000E+00
  0.00000000E+00  0.00000000E+00  0.00000000E+00
  0.00000000E+00  0.00000000E+00  0.00000000E+00
  0.00000000E+00  0.00000000E+00  0.00000000E+00
  0.00000000E+00  0.00000000E+00  0.00000000E+00
  0.00000000E+00  0.00000000E+00  0.00000000E+00
  0.00000000E+00  0.00000000E+00  0.00000000E+00
  0.00000000E+00  0.00000000E+00  0.00000000E+00
  0.00000000E+00  0.00000000E+00  0.00000000E+00
  0.00000000E+00  0.00000000E+00  0.00000000E+00
