Pt48 C6 F6                              
    1.000000000000000     
    11.2480068000000006    0.0000000000000000    0.0000000000000000
     0.0000000000000000   11.2480068000000006    0.0000000000000000
     0.0000000000000000    0.0000000000000000   16.9136689300000000
   Pt   C    F 
    48     6     6
Selective dynamics
Direct
  0.2500953491788280  0.0001302946269846  0.4113820969563875   T   T   T
  0.2500010592350534  0.2499977810338194  0.4113030670417999   T   T   T
  0.2496246986436432  0.5000677644975653  0.4111658290750242   T   T   T
  0.2498411790040151  0.7501507436360058  0.4112864956721012   T   T   T
  0.5000000017780906  0.0000000000000000  0.4115978669040743   T   T   T
  0.5000616163956408  0.2496257870483376  0.4111792208074405   T   T   T
  0.5000000017780906  0.5000000017780906  0.4109026356176742   T   T   T
  0.4999383871605403  0.7503742165078435  0.4111792208074405   T   T   T
  0.7499046543773531  0.9998697053730154  0.4113820969563875   T   T   T
  0.7501588245521660  0.2498492599201754  0.4112864956721012   T   T   T
  0.7503753049125379  0.4999322390586158  0.4111658290750242   T   T   T
  0.7499989443211277  0.7500022225223617  0.4113030670417999   T   T   T
  0.0000000000000000  0.0000000000000000  0.4112040542957800   T   T   T
  0.0001239211512640  0.2500952301891459  0.4113706359993543   T   T   T
  0.0000000000000000  0.5000000017780906  0.4115686841356023   T   T   T
  0.9998760788487360  0.7499047733670352  0.4113706359993543   T   T   T
  0.1248385460761199  0.1248487092610304  0.5270378628098271   T   T   T
  0.1253201960668449  0.3748916452412416  0.5270987691088820   T   T   T
  0.1250532918087259  0.6251726345288517  0.5270784573651355   T   T   T
  0.1248642925547614  0.8751273925977614  0.5269821823506007   T   T   T
  0.3748787904258393  0.1253299781763957  0.5270792436588607   T   T   T
  0.3752002814403852  0.3752093180344289  0.5265335107753870   T   T   T
  0.3751151033402351  0.6248775119111372  0.5263692269931823   T   T   T
  0.3748117818590941  0.8749344841586293  0.5270575628812679   T   T   T
  0.6251882225861323  0.1250655185085066  0.5270575628812679   T   T   T
  0.6248849011049913  0.3751224916450440  0.5263692269931823   T   T   T
  0.6247997230048412  0.6247906855217522  0.5265335107753870   T   T   T
  0.6251212140193871  0.8746700244907402  0.5270792436588607   T   T   T
  0.8751357118904721  0.1248726100693744  0.5269821823506007   T   T   T
  0.8749467117474552  0.3748273690273294  0.5270784573651355   T   T   T
  0.8746798083783887  0.6251083583149395  0.5270987691088820   T   T   T
  0.8751614583691136  0.8751512934061054  0.5270378628098271   T   T   T
  0.1250000008890453  0.1250000000000000  0.2956188879357455   F   F   F
  0.1250000008890453  0.3750000008890453  0.2956188879357455   F   F   F
  0.1250000008890453  0.6250000026671358  0.2956188879357455   F   F   F
  0.1250000008890453  0.8750000026671358  0.2956188879357455   F   F   F
  0.3750000017780906  0.1250000000000000  0.2956188879357455   F   F   F
  0.3750000017780906  0.3750000008890453  0.2956188879357455   F   F   F
  0.3750000017780906  0.6250000026671358  0.2956188879357455   F   F   F
  0.3750000017780906  0.8750000026671358  0.2956188879357455   F   F   F
  0.6250000026671358  0.1250000000000000  0.2956188879357455   F   F   F
  0.6250000026671358  0.3750000008890453  0.2956188879357455   F   F   F
  0.6250000026671358  0.6250000026671358  0.2956188879357455   F   F   F
  0.6250000026671358  0.8750000026671358  0.2956188879357455   F   F   F
  0.8750000035561882  0.1250000000000000  0.2956188879357455   F   F   F
  0.8750000026671358  0.3750000008890453  0.2956188879357455   F   F   F
  0.8750000035561882  0.6250000026671358  0.2956188879357455   F   F   F
  0.8750000035561882  0.8750000026671358  0.2956188879357455   F   F   F
  0.6201257358701255  0.4677738829924607  0.7135490305390917   T   T   T
  0.5322439707034334  0.3799113821469291  0.7135493183940156   T   T   T
  0.4122027882817179  0.4122018830847338  0.7138337237686017   T   T   T
  0.3798742970245854  0.5322261338994210  0.7135490305390917   T   T   T
  0.4677560052923155  0.6200886080735657  0.7135493183940156   T   T   T
  0.5877972161635086  0.5877981204714473  0.7138337237686017   T   T   T
  0.7355985646214762  0.4370769357140816  0.7159644208312770   T   T   T
  0.5629249393104843  0.2643618939299230  0.7159651568613086   T   T   T
  0.3276760416212596  0.3276771864570733  0.7177073346219558   T   T   T
  0.2644014398237573  0.5629230678420996  0.7159644208312770   T   T   T
  0.4370749957891249  0.7356380918453311  0.7159651568613086   T   T   T
  0.6723239352635346  0.6723228037634215  0.7177073346219558   T   T   T
 
  0.00000000E+00  0.00000000E+00  0.00000000E+00
  0.00000000E+00  0.00000000E+00  0.00000000E+00
  0.00000000E+00  0.00000000E+00  0.00000000E+00
  0.00000000E+00  0.00000000E+00  0.00000000E+00
  0.00000000E+00  0.00000000E+00  0.00000000E+00
  0.00000000E+00  0.00000000E+00  0.00000000E+00
  0.00000000E+00  0.00000000E+00  0.00000000E+00
  0.00000000E+00  0.00000000E+00  0.00000000E+00
  0.00000000E+00  0.00000000E+00  0.00000000E+00
  0.00000000E+00  0.00000000E+00  0.00000000E+00
  0.00000000E+00  0.00000000E+00  0.00000000E+00
  0.00000000E+00  0.00000000E+00  0.00000000E+00
  0.00000000E+00  0.00000000E+00  0.00000000E+00
  0.00000000E+00  0.00000000E+00  0.00000000E+00
  0.00000000E+00  0.00000000E+00  0.00000000E+00
  0.00000000E+00  0.00000000E+00  0.00000000E+00
  0.00000000E+00  0.00000000E+00  0.00000000E+00
  0.00000000E+00  0.00000000E+00  0.00000000E+00
  0.00000000E+00  0.00000000E+00  0.00000000E+00
  0.00000000E+00  0.00000000E+00  0.00000000E+00
  0.00000000E+00  0.00000000E+00  0.00000000E+00
  0.00000000E+00  0.00000000E+00  0.00000000E+00
  0.00000000E+00  0.00000000E+00  0.00000000E+00
  0.00000000E+00  0.00000000E+00  0.00000000E+00
  0.00000000E+00  0.00000000E+00  0.00000000E+00
  0.00000000E+00  0.00000000E+00  0.00000000E+00
  0.00000000E+00  0.00000000E+00  0.00000000E+00
  0.00000000E+00  0.00000000E+00  0.00000000E+00
  0.00000000E+00  0.00000000E+00  0.00000000E+00
  0.00000000E+00  0.00000000E+00  0.00000000E+00
  0.00000000E+00  0.00000000E+00  0.00000000E+00
  0.00000000E+00  0.00000000E+00  0.00000000E+00
  0.00000000E+00  0.00000000E+00  0.00000000E+00
  0.00000000E+00  0.00000000E+00  0.00000000E+00
  0.00000000E+00  0.00000000E+00  0.00000000E+00
  0.00000000E+00  0.00000000E+00  0.00000000E+00
  0.00000000E+00  0.00000000E+00  0.00000000E+00
  0.00000000E+00  0.00000000E+00  0.00000000E+00
  0.00000000E+00  0.00000000E+00  0.00000000E+00
  0.00000000E+00  0.00000000E+00  0.00000000E+00
  0.00000000E+00  0.00000000E+00  0.00000000E+00
  0.00000000E+00  0.00000000E+00  0.00000000E+00
  0.00000000E+00  0.00000000E+00  0.00000000E+00
  0.00000000E+00  0.00000000E+00  0.00000000E+00
  0.00000000E+00  0.00000000E+00  0.00000000E+00
  0.00000000E+00  0.00000000E+00  0.00000000E+00
  0.00000000E+00  0.00000000E+00  0.00000000E+00
  0.00000000E+00  0.00000000E+00  0.00000000E+00
  0.00000000E+00  0.00000000E+00  0.00000000E+00
  0.00000000E+00  0.00000000E+00  0.00000000E+00
  0.00000000E+00  0.00000000E+00  0.00000000E+00
  0.00000000E+00  0.00000000E+00  0.00000000E+00
  0.00000000E+00  0.00000000E+00  0.00000000E+00
  0.00000000E+00  0.00000000E+00  0.00000000E+00
  0.00000000E+00  0.00000000E+00  0.00000000E+00
  0.00000000E+00  0.00000000E+00  0.00000000E+00
  0.00000000E+00  0.00000000E+00  0.00000000E+00
  0.00000000E+00  0.00000000E+00  0.00000000E+00
  0.00000000E+00  0.00000000E+00  0.00000000E+00
  0.00000000E+00  0.00000000E+00  0.00000000E+00
