Ir  C  H  F                             
   1.00000000000000     
    10.9622130000000002    0.0000000000000000    0.0000000000000000
    -5.4811069999999997    9.4935550000000006    0.0000000000000000
     0.0000000000000000    0.0000000000000000   24.7129573799999989
   Ir   C    H    F 
    64     6     4     2
Selective dynamics
Direct
  0.7500000643925233  0.7500000284403470  0.3034845196661777   F   F   F
  0.0000000000000000  0.0000000000000000  0.3034845196661777   F   F   F
  0.0000000102134052  0.2500000094801180  0.3034845196661777   F   F   F
  0.0000000213390337  0.5000000189602289  0.3034845196661777   F   F   F
  0.0000000753392229  0.7500000284403470  0.3034845196661777   F   F   F
  0.2500000109466924  0.0000000000000000  0.3034845196661777   F   F   F
  0.2500000211600977  0.2500000094801180  0.3034845196661777   F   F   F
  0.2500000322857332  0.5000000189602289  0.3034845196661777   F   F   F
  0.5000000218933920  0.0000000000000000  0.3034845196661777   F   F   F
  0.5000000321067972  0.2500000094801180  0.3034845196661777   F   F   F
  0.5000000432324256  0.5000000189602289  0.3034845196661777   F   F   F
  0.5000000534458309  0.7500000284403470  0.3034845196661777   F   F   F
  0.7500000328400844  0.0000000000000000  0.3034845196661777   F   F   F
  0.7500000430534897  0.2500000094801180  0.3034845196661777   F   F   F
  0.7500000541791181  0.5000000189602289  0.3034845196661777   F   F   F
  0.2500000424991384  0.7500000284403470  0.3034845196661777   F   F   F
  0.0833330000000032  0.1666669999999968  0.3940302372665698   F   F   F
  0.0833330000000032  0.4166669999999968  0.3940302372665698   F   F   F
  0.0833330000000032  0.6666669999999968  0.3940302372665698   F   F   F
  0.0833330000000032  0.9166669999999968  0.3940302372665698   F   F   F
  0.3333330000000032  0.1666669999999968  0.3940302372665698   F   F   F
  0.3333330000000032  0.4166669999999968  0.3940302372665698   F   F   F
  0.3333330000000032  0.6666669999999968  0.3940302372665698   F   F   F
  0.3333330000000032  0.9166669999999968  0.3940302372665698   F   F   F
  0.5833330000000032  0.1666669999999968  0.3940302372665698   F   F   F
  0.5833330000000032  0.4166669999999968  0.3940302372665698   F   F   F
  0.5833330000000032  0.6666669999999968  0.3940302372665698   F   F   F
  0.5833330000000032  0.9166669999999968  0.3940302372665698   F   F   F
  0.8333330000000032  0.1666669999999968  0.3940302372665698   F   F   F
  0.8333330000000032  0.4166669999999968  0.3940302372665698   F   F   F
  0.8333330000000032  0.6666669999999968  0.3940302372665698   F   F   F
  0.8333330000000032  0.9166669999999968  0.3940302372665698   F   F   F
  0.9971474305961556  0.9967294074568759  0.5721925760763559   T   T   T
  0.9952618835855233  0.2481953368421040  0.5721287547839055   T   T   T
  0.0016572321559042  0.4999897050839746  0.5725278759023515   T   T   T
  0.0007912613596237  0.7493633529883879  0.5725554092788289   T   T   T
  0.2484917612027565  0.9950581216417638  0.5720484807086684   T   T   T
  0.2434027986922473  0.2421497042670143  0.5775014910206153   T   T   T
  0.2506107252752161  0.4997664014123244  0.5769128293685021   T   T   T
  0.2503642573697691  0.7491076865473610  0.5727609801972275   T   T   T
  0.5009349993109433  0.0014744006404117  0.5727858730589979   T   T   T
  0.5003650355487632  0.2498885723773452  0.5778806244236019   T   T   T
  0.5081423207393079  0.5070378282909512  0.5775806119171502   T   T   T
  0.5018031614304431  0.7550074042140225  0.5722012504150734   T   T   T
  0.7500463606673144 -0.0000127267053254  0.5726781975013873   T   T   T
  0.7494184260598238  0.2496851215474548  0.5728127543423739   T   T   T
  0.7556080155518163  0.5020435794818112  0.5719575084387180   T   T   T
  0.7535681253935083  0.7531755333405858  0.5722969490229554   T   T   T
  0.1674237662882772  0.0850650471157634  0.4837798724102194   T   T   T
  0.1681839847858223  0.3343945975577119  0.4842148601267053   T   T   T
  0.1681001760912609  0.5821420587604699  0.4837801941709581   T   T   T
  0.1680257806247046  0.8338840131105245  0.4833746956831157   T   T   T
  0.4172196938825191  0.0856060887663184  0.4839628291949201   T   T   T
  0.4159413935703686  0.3339391396300690  0.4854706802605304   T   T   T
  0.4158539890824196  0.5820821646738679  0.4842212511188159   T   T   T
  0.4168903048537869  0.8334776584913007  0.4835481095847484   T   T   T
  0.6664350205520948  0.0836003783972554  0.4833668211412867   T   T   T
  0.6643989794105499  0.3329316639123375  0.4839931643979871   T   T   T
  0.6649856938595338  0.5825055132597491  0.4837689793431482   T   T   T
  0.6660402759305184  0.8325673551471632  0.4832987764882823   T   T   T
  0.9171377635783153  0.0837449431838910  0.4831503174086481   T   T   T
  0.9166198432967263  0.3332271697590966  0.4834041138313329   T   T   T
  0.9164822754755861  0.5824650360391418  0.4831625501678768   T   T   T
  0.9171177743384280  0.8329654468459301  0.4828336270724101   T   T   T
  0.2940393280266484  0.4558036367890682  0.6571043365647503   T   T   T
  0.4505200735930563  0.5261276481568756  0.6598338276063406   T   T   T
  0.5262342441155102  0.4505336767933734  0.6600136277036160   T   T   T
  0.4559660835957098  0.2937457888283111  0.6577015099413865   T   T   T
  0.2991312383992010  0.2234436069908688  0.6599236798126515   T   T   T
  0.2235481173953034  0.2991670641105094  0.6597412018843843   T   T   T
  0.5031204984152596  0.6341605571457246  0.6752088301870809   T   T   T
  0.6340076922330649  0.5035452239618194  0.6756843172722141   T   T   T
  0.2462096261219379  0.1158028839373863  0.6756851665685180   T   T   T
  0.1156693385684142  0.2466502887455878  0.6751484126595629   T   T   T
  0.2408180293175343  0.5085437039922207  0.6966937771073519   T   T   T
  0.5074954396711041  0.2415680424586972  0.6981288552684543   T   T   T
 
  0.00000000E+00  0.00000000E+00  0.00000000E+00
  0.00000000E+00  0.00000000E+00  0.00000000E+00
  0.00000000E+00  0.00000000E+00  0.00000000E+00
  0.00000000E+00  0.00000000E+00  0.00000000E+00
  0.00000000E+00  0.00000000E+00  0.00000000E+00
  0.00000000E+00  0.00000000E+00  0.00000000E+00
  0.00000000E+00  0.00000000E+00  0.00000000E+00
  0.00000000E+00  0.00000000E+00  0.00000000E+00
  0.00000000E+00  0.00000000E+00  0.00000000E+00
  0.00000000E+00  0.00000000E+00  0.00000000E+00
  0.00000000E+00  0.00000000E+00  0.00000000E+00
  0.00000000E+00  0.00000000E+00  0.00000000E+00
  0.00000000E+00  0.00000000E+00  0.00000000E+00
  0.00000000E+00  0.00000000E+00  0.00000000E+00
  0.00000000E+00  0.00000000E+00  0.00000000E+00
  0.00000000E+00  0.00000000E+00  0.00000000E+00
  0.00000000E+00  0.00000000E+00  0.00000000E+00
  0.00000000E+00  0.00000000E+00  0.00000000E+00
  0.00000000E+00  0.00000000E+00  0.00000000E+00
  0.00000000E+00  0.00000000E+00  0.00000000E+00
  0.00000000E+00  0.00000000E+00  0.00000000E+00
  0.00000000E+00  0.00000000E+00  0.00000000E+00
  0.00000000E+00  0.00000000E+00  0.00000000E+00
  0.00000000E+00  0.00000000E+00  0.00000000E+00
  0.00000000E+00  0.00000000E+00  0.00000000E+00
  0.00000000E+00  0.00000000E+00  0.00000000E+00
  0.00000000E+00  0.00000000E+00  0.00000000E+00
  0.00000000E+00  0.00000000E+00  0.00000000E+00
  0.00000000E+00  0.00000000E+00  0.00000000E+00
  0.00000000E+00  0.00000000E+00  0.00000000E+00
  0.00000000E+00  0.00000000E+00  0.00000000E+00
  0.00000000E+00  0.00000000E+00  0.00000000E+00
  0.00000000E+00  0.00000000E+00  0.00000000E+00
  0.00000000E+00  0.00000000E+00  0.00000000E+00
  0.00000000E+00  0.00000000E+00  0.00000000E+00
  0.00000000E+00  0.00000000E+00  0.00000000E+00
  0.00000000E+00  0.00000000E+00  0.00000000E+00
  0.00000000E+00  0.00000000E+00  0.00000000E+00
  0.00000000E+00  0.00000000E+00  0.00000000E+00
  0.00000000E+00  0.00000000E+00  0.00000000E+00
  0.00000000E+00  0.00000000E+00  0.00000000E+00
  0.00000000E+00  0.00000000E+00  0.00000000E+00
  0.00000000E+00  0.00000000E+00  0.00000000E+00
  0.00000000E+00  0.00000000E+00  0.00000000E+00
  0.00000000E+00  0.00000000E+00  0.00000000E+00
  0.00000000E+00  0.00000000E+00  0.00000000E+00
  0.00000000E+00  0.00000000E+00  0.00000000E+00
  0.00000000E+00  0.00000000E+00  0.00000000E+00
  0.00000000E+00  0.00000000E+00  0.00000000E+00
  0.00000000E+00  0.00000000E+00  0.00000000E+00
  0.00000000E+00  0.00000000E+00  0.00000000E+00
  0.00000000E+00  0.00000000E+00  0.00000000E+00
  0.00000000E+00  0.00000000E+00  0.00000000E+00
  0.00000000E+00  0.00000000E+00  0.00000000E+00
  0.00000000E+00  0.00000000E+00  0.00000000E+00
  0.00000000E+00  0.00000000E+00  0.00000000E+00
  0.00000000E+00  0.00000000E+00  0.00000000E+00
  0.00000000E+00  0.00000000E+00  0.00000000E+00
  0.00000000E+00  0.00000000E+00  0.00000000E+00
  0.00000000E+00  0.00000000E+00  0.00000000E+00
  0.00000000E+00  0.00000000E+00  0.00000000E+00
  0.00000000E+00  0.00000000E+00  0.00000000E+00
  0.00000000E+00  0.00000000E+00  0.00000000E+00
  0.00000000E+00  0.00000000E+00  0.00000000E+00
  0.00000000E+00  0.00000000E+00  0.00000000E+00
  0.00000000E+00  0.00000000E+00  0.00000000E+00
  0.00000000E+00  0.00000000E+00  0.00000000E+00
  0.00000000E+00  0.00000000E+00  0.00000000E+00
  0.00000000E+00  0.00000000E+00  0.00000000E+00
  0.00000000E+00  0.00000000E+00  0.00000000E+00
  0.00000000E+00  0.00000000E+00  0.00000000E+00
  0.00000000E+00  0.00000000E+00  0.00000000E+00
  0.00000000E+00  0.00000000E+00  0.00000000E+00
  0.00000000E+00  0.00000000E+00  0.00000000E+00
  0.00000000E+00  0.00000000E+00  0.00000000E+00
  0.00000000E+00  0.00000000E+00  0.00000000E+00
