H2 Pd48 C6 F4                           
    1.000000000000000     
    11.1922750000000004    0.0000000000000000    0.0000000000000000
    -5.5961369999999997    9.6927939999999992    0.0000000000000000
     0.0000000000000000    0.0000000000000000   16.7935340000000011
   H    Pd   C    F 
     2    48     6     4
Selective dynamics
Direct
  0.2490629582770296  0.2498608326406355  0.7857631238515310   T   T   T
  0.7495611196911511  0.5000030898930348  0.7862773101113945   T   T   T
  0.0833330000000032  0.1666669999999968  0.3572800000000029   F   F   F
  0.0833330000000032  0.4166669999999968  0.3572800000000029   F   F   F
  0.0833330000000032  0.6666669999999968  0.3572800000000029   F   F   F
  0.0833330000000032  0.9166669999999968  0.3572800000000029   F   F   F
  0.3333330000000032  0.1666669999999968  0.3572800000000029   F   F   F
  0.3333330000000032  0.4166669999999968  0.3572800000000029   F   F   F
  0.3333330000000032  0.6666669999999968  0.3572800000000029   F   F   F
  0.3333330000000032  0.9166669999999968  0.3572800000000029   F   F   F
  0.5833330000000032  0.1666669999999968  0.3572800000000029   F   F   F
  0.5833330000000032  0.4166669999999968  0.3572800000000029   F   F   F
  0.5833330000000032  0.6666669999999968  0.3572800000000029   F   F   F
  0.5833330000000032  0.9166669999999968  0.3572800000000029   F   F   F
  0.8333330000000032  0.1666669999999968  0.3572800000000029   F   F   F
  0.8333330000000032  0.4166669999999968  0.3572800000000029   F   F   F
  0.8333330000000032  0.6666669999999968  0.3572800000000029   F   F   F
  0.8333330000000032  0.9166669999999968  0.3572800000000029   F   F   F
  0.2468097605882207  0.9942639156424420  0.6231001826185505   T   T   T
  0.2564929886503080  0.2532431618898769  0.6335201456345345   T   T   T
  0.2467538510947094  0.5023273774088466  0.6230176695407152   T   T   T
  0.2483742747547382  0.7490500273933378  0.6254308321792692   T   T   T
  0.5006346651744167  0.9958424634628074  0.6243236698898968   T   T   T
  0.5014374457170589  0.2414568431032862  0.6331910915704384   T   T   T
  0.5014807943667137  0.5100458354451689  0.6331282191709064   T   T   T
  0.5006630995113639  0.7547205570971087  0.6242807226320295   T   T   T
  0.7533825418481115  0.0015775732727192  0.6256022647647086   T   T   T
  0.7549138445695007  0.2483632993327518  0.6235523354553720   T   T   T
  0.7467818463048985  0.4983582809947222  0.6345579272353206   T   T   T
  0.7549858152801789  0.7563977962614459  0.6234976155831404   T   T   T
  0.0028096320390745  0.0017809910470135  0.6260156029583186   T   T   T
  0.0027106266866639  0.2507136618104653  0.6260177447614552   T   T   T
  0.9985062858966245  0.4994719689842171  0.6260552715870631   T   T   T
  0.9985488975398056  0.7487952148747326  0.6260523039984420   T   T   T
  0.1688272785369165  0.0864770640351011  0.4929028741081112   T   T   T
  0.1687417857044125  0.3321816886450861  0.4928477789233696   T   T   T
  0.1649824149639940  0.5825368263182327  0.4905309231587722   T   T   T
  0.1650512971785432  0.8323855781755043  0.4905498488202014   T   T   T
  0.4180018503807759  0.0852375789353914  0.4924560648857792   T   T   T
  0.4181347924982077  0.3340202776276442  0.4938893492850767   T   T   T
  0.4179246588812831  0.5826688683788319  0.4924124062684498   T   T   T
  0.4154732038382818  0.8327168668080986  0.4903312863707328   T   T   T
  0.6670537621024835  0.0829473650718953  0.4906940752539271   T   T   T
  0.6657745247410034  0.3333446851543016  0.4938028970484609   T   T   T
  0.6657973890219679  0.5823116001213862  0.4937711109999725   T   T   T
  0.6670671989094856  0.8339624638542844  0.4906848863547353   T   T   T
  0.9177617467278125  0.0837790381112100  0.4913327930188558   T   T   T
  0.9177180243496608  0.3330065097764390  0.4907910816554661   T   T   T
  0.9120486103123682  0.5809592117439948  0.4940584632335998   T   T   T
  0.9177863087786235  0.8345643826167191  0.4907764900985470   T   T   T
  0.3441303586801752  0.2972583997359095  0.7501578365679649   T   T   T
  0.4253102813095566  0.4474733453715416  0.7539439347147621   T   T   T
  0.5734780582761942  0.5216076024603566  0.7540629894919348   T   T   T
  0.6546833108442485  0.4525292228333697  0.7504670458941618   T   T   T
  0.5733580992795240  0.3022709823294676  0.7541003595376168   T   T   T
  0.4253157699780417  0.2283161740195965  0.7539767706111249   T   T   T
  0.3617108512560492  0.5113840943483083  0.7887460730237450   T   T   T
  0.6368596738722729  0.6489123910407741  0.7890783254624623   T   T   T
  0.6366799419575102  0.2384406038350733  0.7891585977941276   T   T   T
  0.3616036859128471  0.1009511009998505  0.7887573359701534   T   T   T
 
  0.00000000E+00  0.00000000E+00  0.00000000E+00
  0.00000000E+00  0.00000000E+00  0.00000000E+00
  0.00000000E+00  0.00000000E+00  0.00000000E+00
  0.00000000E+00  0.00000000E+00  0.00000000E+00
  0.00000000E+00  0.00000000E+00  0.00000000E+00
  0.00000000E+00  0.00000000E+00  0.00000000E+00
  0.00000000E+00  0.00000000E+00  0.00000000E+00
  0.00000000E+00  0.00000000E+00  0.00000000E+00
  0.00000000E+00  0.00000000E+00  0.00000000E+00
  0.00000000E+00  0.00000000E+00  0.00000000E+00
  0.00000000E+00  0.00000000E+00  0.00000000E+00
  0.00000000E+00  0.00000000E+00  0.00000000E+00
  0.00000000E+00  0.00000000E+00  0.00000000E+00
  0.00000000E+00  0.00000000E+00  0.00000000E+00
  0.00000000E+00  0.00000000E+00  0.00000000E+00
  0.00000000E+00  0.00000000E+00  0.00000000E+00
  0.00000000E+00  0.00000000E+00  0.00000000E+00
  0.00000000E+00  0.00000000E+00  0.00000000E+00
  0.00000000E+00  0.00000000E+00  0.00000000E+00
  0.00000000E+00  0.00000000E+00  0.00000000E+00
  0.00000000E+00  0.00000000E+00  0.00000000E+00
  0.00000000E+00  0.00000000E+00  0.00000000E+00
  0.00000000E+00  0.00000000E+00  0.00000000E+00
  0.00000000E+00  0.00000000E+00  0.00000000E+00
  0.00000000E+00  0.00000000E+00  0.00000000E+00
  0.00000000E+00  0.00000000E+00  0.00000000E+00
  0.00000000E+00  0.00000000E+00  0.00000000E+00
  0.00000000E+00  0.00000000E+00  0.00000000E+00
  0.00000000E+00  0.00000000E+00  0.00000000E+00
  0.00000000E+00  0.00000000E+00  0.00000000E+00
  0.00000000E+00  0.00000000E+00  0.00000000E+00
  0.00000000E+00  0.00000000E+00  0.00000000E+00
  0.00000000E+00  0.00000000E+00  0.00000000E+00
  0.00000000E+00  0.00000000E+00  0.00000000E+00
  0.00000000E+00  0.00000000E+00  0.00000000E+00
  0.00000000E+00  0.00000000E+00  0.00000000E+00
  0.00000000E+00  0.00000000E+00  0.00000000E+00
  0.00000000E+00  0.00000000E+00  0.00000000E+00
  0.00000000E+00  0.00000000E+00  0.00000000E+00
  0.00000000E+00  0.00000000E+00  0.00000000E+00
  0.00000000E+00  0.00000000E+00  0.00000000E+00
  0.00000000E+00  0.00000000E+00  0.00000000E+00
  0.00000000E+00  0.00000000E+00  0.00000000E+00
  0.00000000E+00  0.00000000E+00  0.00000000E+00
  0.00000000E+00  0.00000000E+00  0.00000000E+00
  0.00000000E+00  0.00000000E+00  0.00000000E+00
  0.00000000E+00  0.00000000E+00  0.00000000E+00
  0.00000000E+00  0.00000000E+00  0.00000000E+00
  0.00000000E+00  0.00000000E+00  0.00000000E+00
  0.00000000E+00  0.00000000E+00  0.00000000E+00
  0.00000000E+00  0.00000000E+00  0.00000000E+00
  0.00000000E+00  0.00000000E+00  0.00000000E+00
  0.00000000E+00  0.00000000E+00  0.00000000E+00
  0.00000000E+00  0.00000000E+00  0.00000000E+00
  0.00000000E+00  0.00000000E+00  0.00000000E+00
  0.00000000E+00  0.00000000E+00  0.00000000E+00
  0.00000000E+00  0.00000000E+00  0.00000000E+00
  0.00000000E+00  0.00000000E+00  0.00000000E+00
  0.00000000E+00  0.00000000E+00  0.00000000E+00
  0.00000000E+00  0.00000000E+00  0.00000000E+00
