Pt48 C6 H2 Cl4                          
    1.000000000000000     
    11.2480068000000006    0.0000000000000000    0.0000000000000000
     0.0000000000000000   11.2480068000000006    0.0000000000000000
     0.0000000000000000    0.0000000000000000   16.9157626599999986
   Pt   C    H    Cl
    48     6     2     4
Selective dynamics
Direct
  0.2495617930811420  0.9982453860655482  0.4103116934507511   T   T   T
  0.2504018028690567  0.2504024032061167  0.4103586774306223   T   T   T
  0.2535126725949439  0.5009055483807643  0.4128294235458227   T   T   T
  0.2535516718061430  0.7464456246175288  0.4136457257151207   T   T   T
  0.5000017538636286  0.0000004642371465  0.4101318983183546   T   T   T
  0.5009024276949390  0.2535129497933539  0.4128320135169332   T   T   T
  0.4999971661037179  0.5000052760519935  0.4140820829707721   T   T   T
  0.4990948876785168  0.7464857431172831  0.4128285619806817   T   T   T
  0.7504395803500756  0.0017637044359304  0.4103117348258820   T   T   T
  0.7464550551433504  0.2535476926378593  0.4136496840740449   T   T   T
  0.7464898403576186  0.4990970610937282  0.4128325453606720   T   T   T
  0.7495941654818452  0.7495929234867305  0.4103538166781178   T   T   T
  0.0000032948923874  0.0000085732735684  0.4104841440641778   T   T   T
  0.9982431504608584  0.2495592909088415  0.4103166978175778   T   T   T
  0.0000002163610304  0.4999997808384649  0.4101332854172171   T   T   T
  0.0017630882131883  0.7504332388893928  0.4103091260198042   T   T   T
  0.1241520556599767  0.1241490922771789  0.5256400681207083   T   T   T
  0.1225106927915363  0.3737903749763376  0.5253512636978002   T   T   T
  0.1239778906162812  0.6240180866303362  0.5269639752693323   T   T   T
  0.1251075604558167  0.8748971789665489  0.5265884453397192   T   T   T
  0.3737859682069384  0.1225105612145185  0.5253562571985526   T   T   T
  0.3676866310504394  0.3676889437676323  0.5307051787281480   T   T   T
  0.3751560629784052  0.6248408410216086  0.5409501068121401   T   T   T
  0.3759749211914496  0.8760300811500557  0.5269622537798355   T   T   T
  0.6240201490562995  0.1239749174332943  0.5269709883005120   T   T   T
  0.6248402049882813  0.3751566842225174  0.5409424277073498   T   T   T
  0.6323074307293410  0.6323071270953804  0.5307035973397021   T   T   T
  0.6262120417326500  0.8774892242654388  0.5253598865800129   T   T   T
  0.8748987469175020  0.1251050726154332  0.5266060670861918   T   T   T
  0.8760328311342818  0.3759761303763298  0.5269664169371282   T   T   T
  0.8774951637863850  0.6262105544682157  0.5253604813073167   T   T   T
  0.8758591463872563  0.8758526488606648  0.5256274333094879   T   T   T
  0.1250000008890453  0.1250000000000000  0.2955822980316043   F   F   F
  0.1250000008890453  0.3750000008890453  0.2955822980316043   F   F   F
  0.1250000008890453  0.6250000026671358  0.2955822980316043   F   F   F
  0.1250000008890453  0.8750000026671358  0.2955822980316043   F   F   F
  0.3750000017780906  0.1250000000000000  0.2955822980316043   F   F   F
  0.3750000017780906  0.3750000008890453  0.2955822980316043   F   F   F
  0.3750000017780906  0.6250000026671358  0.2955822980316043   F   F   F
  0.3750000017780906  0.8750000026671358  0.2955822980316043   F   F   F
  0.6250000026671358  0.1250000000000000  0.2955822980316043   F   F   F
  0.6250000026671358  0.3750000008890453  0.2955822980316043   F   F   F
  0.6250000026671358  0.6250000026671358  0.2955822980316043   F   F   F
  0.6250000026671358  0.8750000026671358  0.2955822980316043   F   F   F
  0.8750000035561882  0.1250000000000000  0.2955822980316043   F   F   F
  0.8750000026671358  0.3750000008890453  0.2955822980316043   F   F   F
  0.8750000035561882  0.6250000026671358  0.2955822980316043   F   F   F
  0.8750000035561882  0.8750000026671358  0.2955822980316043   F   F   F
  0.4069320904253289  0.4069444711563222  0.6474180697241252   T   T   T
  0.3736503983339574  0.5349621456529903  0.6543632070855736   T   T   T
  0.4650351175006620  0.6263404541638096  0.6543624942554089   T   T   T
  0.5930496824857414  0.5930484835688503  0.6474157453564189   T   T   T
  0.6263398486373219  0.4650236044715825  0.6543535135108129   T   T   T
  0.5349651882652324  0.3736584587152691  0.6543561378900478   T   T   T
  0.3492224871586345  0.3492267997635992  0.6827253150326626   T   T   T
  0.6507831955426937  0.6507725625679939  0.6827186034620851   T   T   T
  0.2412924385595616  0.5578156154852749  0.7061241391469650   T   T   T
  0.4421784046403587  0.7587005866444372  0.7061232641868358   T   T   T
  0.7587125389073819  0.4421671238630580  0.7061070754703778   T   T   T
  0.5578094554251152  0.2412884674088360  0.7061123183667775   T   T   T
 
  0.00000000E+00  0.00000000E+00  0.00000000E+00
  0.00000000E+00  0.00000000E+00  0.00000000E+00
  0.00000000E+00  0.00000000E+00  0.00000000E+00
  0.00000000E+00  0.00000000E+00  0.00000000E+00
  0.00000000E+00  0.00000000E+00  0.00000000E+00
  0.00000000E+00  0.00000000E+00  0.00000000E+00
  0.00000000E+00  0.00000000E+00  0.00000000E+00
  0.00000000E+00  0.00000000E+00  0.00000000E+00
  0.00000000E+00  0.00000000E+00  0.00000000E+00
  0.00000000E+00  0.00000000E+00  0.00000000E+00
  0.00000000E+00  0.00000000E+00  0.00000000E+00
  0.00000000E+00  0.00000000E+00  0.00000000E+00
  0.00000000E+00  0.00000000E+00  0.00000000E+00
  0.00000000E+00  0.00000000E+00  0.00000000E+00
  0.00000000E+00  0.00000000E+00  0.00000000E+00
  0.00000000E+00  0.00000000E+00  0.00000000E+00
  0.00000000E+00  0.00000000E+00  0.00000000E+00
  0.00000000E+00  0.00000000E+00  0.00000000E+00
  0.00000000E+00  0.00000000E+00  0.00000000E+00
  0.00000000E+00  0.00000000E+00  0.00000000E+00
  0.00000000E+00  0.00000000E+00  0.00000000E+00
  0.00000000E+00  0.00000000E+00  0.00000000E+00
  0.00000000E+00  0.00000000E+00  0.00000000E+00
  0.00000000E+00  0.00000000E+00  0.00000000E+00
  0.00000000E+00  0.00000000E+00  0.00000000E+00
  0.00000000E+00  0.00000000E+00  0.00000000E+00
  0.00000000E+00  0.00000000E+00  0.00000000E+00
  0.00000000E+00  0.00000000E+00  0.00000000E+00
  0.00000000E+00  0.00000000E+00  0.00000000E+00
  0.00000000E+00  0.00000000E+00  0.00000000E+00
  0.00000000E+00  0.00000000E+00  0.00000000E+00
  0.00000000E+00  0.00000000E+00  0.00000000E+00
  0.00000000E+00  0.00000000E+00  0.00000000E+00
  0.00000000E+00  0.00000000E+00  0.00000000E+00
  0.00000000E+00  0.00000000E+00  0.00000000E+00
  0.00000000E+00  0.00000000E+00  0.00000000E+00
  0.00000000E+00  0.00000000E+00  0.00000000E+00
  0.00000000E+00  0.00000000E+00  0.00000000E+00
  0.00000000E+00  0.00000000E+00  0.00000000E+00
  0.00000000E+00  0.00000000E+00  0.00000000E+00
  0.00000000E+00  0.00000000E+00  0.00000000E+00
  0.00000000E+00  0.00000000E+00  0.00000000E+00
  0.00000000E+00  0.00000000E+00  0.00000000E+00
  0.00000000E+00  0.00000000E+00  0.00000000E+00
  0.00000000E+00  0.00000000E+00  0.00000000E+00
  0.00000000E+00  0.00000000E+00  0.00000000E+00
  0.00000000E+00  0.00000000E+00  0.00000000E+00
  0.00000000E+00  0.00000000E+00  0.00000000E+00
  0.00000000E+00  0.00000000E+00  0.00000000E+00
  0.00000000E+00  0.00000000E+00  0.00000000E+00
  0.00000000E+00  0.00000000E+00  0.00000000E+00
  0.00000000E+00  0.00000000E+00  0.00000000E+00
  0.00000000E+00  0.00000000E+00  0.00000000E+00
  0.00000000E+00  0.00000000E+00  0.00000000E+00
  0.00000000E+00  0.00000000E+00  0.00000000E+00
  0.00000000E+00  0.00000000E+00  0.00000000E+00
  0.00000000E+00  0.00000000E+00  0.00000000E+00
  0.00000000E+00  0.00000000E+00  0.00000000E+00
  0.00000000E+00  0.00000000E+00  0.00000000E+00
  0.00000000E+00  0.00000000E+00  0.00000000E+00
