Cu48 C6 H2 Cl4                          
    1.000000000000000     
    10.2424774999999997    0.0000000000000000    0.0000000000000000
     0.0000000000000000   10.2424774999999997    0.0000000000000000
     0.0000000000000000    0.0000000000000000   16.5505490900000005
   Cu   C    H    Cl
    48     6     2     4
Selective dynamics
Direct
  0.2492846717997068  0.9996600207619792  0.4088840475331139   T   T   T
  0.2499775174266787  0.2499883479773573  0.4089288173966921   T   T   T
  0.2503114379418960  0.4994963617632635  0.4090226278191480   T   T   T
  0.2502332773645719  0.7497651518658159  0.4092948067856454   T   T   T
  0.5000060181540320  0.0000019493626766  0.4088366102954240   T   T   T
  0.4995053894910839  0.2503188593347758  0.4090152134870664   T   T   T
  0.5000088824051403  0.5000003544116822  0.4092275005296386   T   T   T
  0.5005044095549920  0.7496814418894076  0.4090228541817851   T   T   T
  0.7507059360522632  0.0003452339361587  0.4088920312882678   T   T   T
  0.7497643149296422  0.2502375801955168  0.4092977155981714   T   T   T
  0.7496807536168575  0.5005006945042609  0.4090292438845111   T   T   T
  0.7500141880226039  0.7500089358910813  0.4089348876355388   T   T   T
  0.0000029818698053  0.0000052684471328  0.4091598991204322   T   T   T
  0.9996652353786644  0.2492927142618129  0.4088965786026790   T   T   T
  0.0000012295108149  0.5000005703515669  0.4088501667294011   T   T   T
  0.0003395259508139  0.7507015145426195  0.4088939592791689   T   T   T
  0.1249910021218739  0.1249978250875117  0.5165130590386013   T   T   T
  0.1240889909682537  0.3739102330760460  0.5150791259572927   T   T   T
  0.1241356042498154  0.6253271979469162  0.5156108004015891   T   T   T
  0.1247078920555964  0.8752895559460256  0.5164969415054941   T   T   T
  0.3739131281593870  0.1240939616938306  0.5150863887857966   T   T   T
  0.3728453267885854  0.3728422816478485  0.5174022357706889   T   T   T
  0.3749111285336681  0.6250931730436378  0.5154290933137702   T   T   T
  0.3746746812424462  0.8758578381140438  0.5156194559482685   T   T   T
  0.6253344164696841  0.1241407734869000  0.5156174880712214   T   T   T
  0.6250947086410577  0.3749065387326809  0.5154283747522044   T   T   T
  0.6271605053795710  0.6271567406895286  0.5173986884410908   T   T   T
  0.6260913995345874  0.8759120553448696  0.5150792342057713   T   T   T
  0.8752892295590442  0.1247103882661378  0.5164877219531618   T   T   T
  0.8758593021597321  0.3746687721532354  0.5156108433700410   T   T   T
  0.8759097965133122  0.6260892537660254  0.5150753102797481   T   T   T
  0.8750013619946344  0.8750062548553714  0.5165116687984721   T   T   T
  0.1250000002440785  0.1249999992677573  0.3021047805006702   F   F   F
  0.1250000002440785  0.3749999997559215  0.3021047805006702   F   F   F
  0.1250000002440785  0.6249999982914289  0.3021047805006702   F   F   F
  0.1250000002440785  0.8749999987795931  0.3021047805006702   F   F   F
  0.3749999997559215  0.1249999992677573  0.3021047805006702   F   F   F
  0.3749999997559215  0.3749999997559215  0.3021047805006702   F   F   F
  0.3749999997559215  0.6249999982914289  0.3021047805006702   F   F   F
  0.3749999997559215  0.8749999987795931  0.3021047805006702   F   F   F
  0.6249999982914289  0.1249999992677573  0.3021047805006702   F   F   F
  0.6249999982914289  0.3749999997559215  0.3021047805006702   F   F   F
  0.6249999992677573  0.6249999982914289  0.3021047805006702   F   F   F
  0.6249999992677573  0.8749999987795931  0.3021047805006702   F   F   F
  0.8749999987795931  0.1249999992677573  0.3021047805006702   F   F   F
  0.8749999978032648  0.3749999997559215  0.3021047805006702   F   F   F
  0.8749999987795931  0.6249999982914289  0.3021047805006702   F   F   F
  0.8749999987795931  0.8749999987795931  0.3021047805006702   F   F   F
  0.5987033704081668  0.5987587237331553  0.6449047883560084   T   T   T
  0.6332658809544824  0.4632273538916891  0.6558410343724148   T   T   T
  0.5367627454996935  0.3666990238370218  0.6558427855676641   T   T   T
  0.4012344657326352  0.4012739306678839  0.6449045490531233   T   T   T
  0.3667075225691789  0.5368093644830054  0.6558483671714725   T   T   T
  0.4632112498863705  0.6333026581790193  0.6558516799221081   T   T   T
  0.6705341935682725  0.6705047544292668  0.6648604127381930   T   T   T
  0.3294801363850794  0.3294809478546412  0.6648503367630596   T   T   T
  0.7930080828220483  0.4292783878750370  0.6821906543223832   T   T   T
  0.5706886117779675  0.2070022713165471  0.6821861311696793   T   T   T
  0.2070589362670461  0.5706889619796129  0.6821829892924640   T   T   T
  0.4293289784677299  0.7929244291035076  0.6821787617688528   T   T   T
 
  0.00000000E+00  0.00000000E+00  0.00000000E+00
  0.00000000E+00  0.00000000E+00  0.00000000E+00
  0.00000000E+00  0.00000000E+00  0.00000000E+00
  0.00000000E+00  0.00000000E+00  0.00000000E+00
  0.00000000E+00  0.00000000E+00  0.00000000E+00
  0.00000000E+00  0.00000000E+00  0.00000000E+00
  0.00000000E+00  0.00000000E+00  0.00000000E+00
  0.00000000E+00  0.00000000E+00  0.00000000E+00
  0.00000000E+00  0.00000000E+00  0.00000000E+00
  0.00000000E+00  0.00000000E+00  0.00000000E+00
  0.00000000E+00  0.00000000E+00  0.00000000E+00
  0.00000000E+00  0.00000000E+00  0.00000000E+00
  0.00000000E+00  0.00000000E+00  0.00000000E+00
  0.00000000E+00  0.00000000E+00  0.00000000E+00
  0.00000000E+00  0.00000000E+00  0.00000000E+00
  0.00000000E+00  0.00000000E+00  0.00000000E+00
  0.00000000E+00  0.00000000E+00  0.00000000E+00
  0.00000000E+00  0.00000000E+00  0.00000000E+00
  0.00000000E+00  0.00000000E+00  0.00000000E+00
  0.00000000E+00  0.00000000E+00  0.00000000E+00
  0.00000000E+00  0.00000000E+00  0.00000000E+00
  0.00000000E+00  0.00000000E+00  0.00000000E+00
  0.00000000E+00  0.00000000E+00  0.00000000E+00
  0.00000000E+00  0.00000000E+00  0.00000000E+00
  0.00000000E+00  0.00000000E+00  0.00000000E+00
  0.00000000E+00  0.00000000E+00  0.00000000E+00
  0.00000000E+00  0.00000000E+00  0.00000000E+00
  0.00000000E+00  0.00000000E+00  0.00000000E+00
  0.00000000E+00  0.00000000E+00  0.00000000E+00
  0.00000000E+00  0.00000000E+00  0.00000000E+00
  0.00000000E+00  0.00000000E+00  0.00000000E+00
  0.00000000E+00  0.00000000E+00  0.00000000E+00
  0.00000000E+00  0.00000000E+00  0.00000000E+00
  0.00000000E+00  0.00000000E+00  0.00000000E+00
  0.00000000E+00  0.00000000E+00  0.00000000E+00
  0.00000000E+00  0.00000000E+00  0.00000000E+00
  0.00000000E+00  0.00000000E+00  0.00000000E+00
  0.00000000E+00  0.00000000E+00  0.00000000E+00
  0.00000000E+00  0.00000000E+00  0.00000000E+00
  0.00000000E+00  0.00000000E+00  0.00000000E+00
  0.00000000E+00  0.00000000E+00  0.00000000E+00
  0.00000000E+00  0.00000000E+00  0.00000000E+00
  0.00000000E+00  0.00000000E+00  0.00000000E+00
  0.00000000E+00  0.00000000E+00  0.00000000E+00
  0.00000000E+00  0.00000000E+00  0.00000000E+00
  0.00000000E+00  0.00000000E+00  0.00000000E+00
  0.00000000E+00  0.00000000E+00  0.00000000E+00
  0.00000000E+00  0.00000000E+00  0.00000000E+00
  0.00000000E+00  0.00000000E+00  0.00000000E+00
  0.00000000E+00  0.00000000E+00  0.00000000E+00
  0.00000000E+00  0.00000000E+00  0.00000000E+00
  0.00000000E+00  0.00000000E+00  0.00000000E+00
  0.00000000E+00  0.00000000E+00  0.00000000E+00
  0.00000000E+00  0.00000000E+00  0.00000000E+00
  0.00000000E+00  0.00000000E+00  0.00000000E+00
  0.00000000E+00  0.00000000E+00  0.00000000E+00
  0.00000000E+00  0.00000000E+00  0.00000000E+00
  0.00000000E+00  0.00000000E+00  0.00000000E+00
  0.00000000E+00  0.00000000E+00  0.00000000E+00
  0.00000000E+00  0.00000000E+00  0.00000000E+00
