Cu  C  H  F                             
    1.000000000000000     
    10.2424774999999997    0.0000000000000000    0.0000000000000000
     0.0000000000000000   10.2424774999999997    0.0000000000000000
     0.0000000000000000    0.0000000000000000   23.4318939600000000
   Cu   C    H    F 
    64     6     2     4
Selective dynamics
Direct
  0.2499999995118358  0.0000000000000000  0.3200765594451340   F   F   F
  0.0000000000000000  0.4999999990236716  0.3200765594451340   F   F   F
  0.2499999995118358  0.2499999995118358  0.3200765594451340   F   F   F
  0.2499999995118358  0.4999999990236716  0.3200765594451340   F   F   F
  0.2499999995118358  0.7499999985355075  0.3200765594451340   F   F   F
  0.4999999990236716  0.0000000000000000  0.3200765594451340   F   F   F
  0.4999999990236716  0.2499999995118358  0.3200765594451340   F   F   F
  0.0000000000000000  0.7499999985355075  0.3200765594451340   F   F   F
  0.4999999990236716  0.4999999990236716  0.3200765594451340   F   F   F
  0.4999999990236716  0.7499999985355075  0.3200765594451340   F   F   F
  0.7499999985355075  0.0000000000000000  0.3200765594451340   F   F   F
  0.7499999985355075  0.2499999995118358  0.3200765594451340   F   F   F
  0.7499999985355075  0.4999999990236716  0.3200765594451340   F   F   F
  0.7499999985355075  0.7499999985355075  0.3200765594451340   F   F   F
  0.0000000000000000  0.0000000000000000  0.3200765594451340   F   F   F
  0.0000000000000000  0.2499999995118358  0.3200765594451340   F   F   F
  0.2499983720013487  0.9999597009188872  0.4741599516245804   T   T   T
  0.2500102067816325  0.2500103747063304  0.4741650251360079   T   T   T
  0.2499641903138203  0.4999129017511293  0.4741779920101424   T   T   T
  0.2499888349043168  0.7500051907235390  0.4741365119704996   T   T   T
  0.4999985896843335  0.0000006019436105  0.4741570912166714   T   T   T
  0.4999122057510173  0.2499669354110397  0.4741778382942081   T   T   T
  0.4999969556964338  0.4999987037842636  0.4741222932490754   T   T   T
  0.5000847585682779  0.7500332441713315  0.4741775426206286   T   T   T
  0.7499986458469036  0.0000408679757940  0.4741595092259944   T   T   T
  0.7500025819234517  0.2499955516994617  0.4741428899157455   T   T   T
  0.7500312600926033  0.5000840033335873  0.4741795031051759   T   T   T
  0.7499898262964022  0.7499881851366390  0.4741668792914131   T   T   T
  0.0000002908486656 -0.0000022640894798  0.4741234267713076   T   T   T
  0.9999584693562279  0.2500004329085245  0.4741594540208726   T   T   T
 -0.0000006493884307  0.4999992547811817  0.4741590460279574   T   T   T
  0.0000407184955940  0.7499995332050358  0.4741616221053805   T   T   T
  0.1250529679705619  0.1250705148682464  0.5495254693612724   T   T   T
  0.1249556582554298  0.3748685602088525  0.5494924428431637   T   T   T
  0.1250733337575899  0.6249324766253974  0.5495401899560474   T   T   T
  0.1250020823923385  0.8749955639400989  0.5495052838890455   T   T   T
  0.3748705880115853  0.1249587592497491  0.5494928977083054   T   T   T
  0.3749191490764310  0.3749239825985064  0.5496502536299623   T   T   T
  0.3750786583037266  0.6249186596533917  0.5491074920477066   T   T   T
  0.3750661110757154  0.8749268561025386  0.5495385147562746   T   T   T
  0.6249357068052952  0.1250737932179568  0.5495372215440684   T   T   T
  0.6249208541076759  0.3750735771507837  0.5491048114808428   T   T   T
  0.6250711936303428  0.6250781978451304  0.5496509691302781   T   T   T
  0.6251295211148219  0.8750451966074931  0.5494908057547594   T   T   T
  0.8749918015353280  0.1250034867124220  0.5495012154342361   T   T   T
  0.8749225228495912  0.3750605058808225  0.5495395511132445   T   T   T
  0.8750390199091955  0.6251291315163640  0.5494925955791804   T   T   T
  0.8749271955583774  0.8749459691128258  0.5495228338730103   T   T   T
  0.1250000002440785  0.1249999992677573  0.3973486452223582   F   F   F
  0.1250000002440785  0.3749999997559215  0.3973486452223582   F   F   F
  0.1250000002440785  0.6249999982914289  0.3973486452223582   F   F   F
  0.1250000002440785  0.8749999987795931  0.3973486452223582   F   F   F
  0.3749999997559215  0.1249999992677573  0.3973486452223582   F   F   F
  0.3749999997559215  0.3749999997559215  0.3973486452223582   F   F   F
  0.3749999997559215  0.6249999982914289  0.3973486452223582   F   F   F
  0.3749999997559215  0.8749999987795931  0.3973486452223582   F   F   F
  0.6249999982914289  0.1249999992677573  0.3973486452223582   F   F   F
  0.6249999982914289  0.3749999997559215  0.3973486452223582   F   F   F
  0.6249999992677573  0.6249999982914289  0.3973486452223582   F   F   F
  0.6249999992677573  0.8749999987795931  0.3973486452223582   F   F   F
  0.8749999987795931  0.1249999992677573  0.3973486452223582   F   F   F
  0.8749999978032648  0.3749999997559215  0.3973486452223582   F   F   F
  0.8749999987795931  0.6249999982914289  0.3973486452223582   F   F   F
  0.8749999987795931  0.8749999987795931  0.3973486452223582   F   F   F
  0.5972203185323973  0.5972780665287378  0.6754273479245561   T   T   T
  0.6310280835330145  0.4654810003087342  0.6758732611826648   T   T   T
  0.5345548763053833  0.3690157375475933  0.6758806608947523   T   T   T
  0.4028128934505705  0.4027640259494709  0.6754433578877371   T   T   T
  0.3690257838758387  0.5345537923696200  0.6758538634202385   T   T   T
  0.4654856043646723  0.6310170921514676  0.6758470532124869   T   T   T
  0.6724203107760588  0.6724400521787560  0.6763557241398923   T   T   T
  0.3276355910124326  0.3276191758935076  0.6763834902753263   T   T   T
  0.7583388159531632  0.4307212528429650  0.6775807329439120   T   T   T
  0.5693769888034181  0.2417434783305324  0.6775949973195047   T   T   T
  0.2417299841633966  0.5693381038907755  0.6775355448888809   T   T   T
  0.4306911885626770  0.7583018535149139  0.6775239682001338   T   T   T
 
  0.00000000E+00  0.00000000E+00  0.00000000E+00
  0.00000000E+00  0.00000000E+00  0.00000000E+00
  0.00000000E+00  0.00000000E+00  0.00000000E+00
  0.00000000E+00  0.00000000E+00  0.00000000E+00
  0.00000000E+00  0.00000000E+00  0.00000000E+00
  0.00000000E+00  0.00000000E+00  0.00000000E+00
  0.00000000E+00  0.00000000E+00  0.00000000E+00
  0.00000000E+00  0.00000000E+00  0.00000000E+00
  0.00000000E+00  0.00000000E+00  0.00000000E+00
  0.00000000E+00  0.00000000E+00  0.00000000E+00
  0.00000000E+00  0.00000000E+00  0.00000000E+00
  0.00000000E+00  0.00000000E+00  0.00000000E+00
  0.00000000E+00  0.00000000E+00  0.00000000E+00
  0.00000000E+00  0.00000000E+00  0.00000000E+00
  0.00000000E+00  0.00000000E+00  0.00000000E+00
  0.00000000E+00  0.00000000E+00  0.00000000E+00
  0.00000000E+00  0.00000000E+00  0.00000000E+00
  0.00000000E+00  0.00000000E+00  0.00000000E+00
  0.00000000E+00  0.00000000E+00  0.00000000E+00
  0.00000000E+00  0.00000000E+00  0.00000000E+00
  0.00000000E+00  0.00000000E+00  0.00000000E+00
  0.00000000E+00  0.00000000E+00  0.00000000E+00
  0.00000000E+00  0.00000000E+00  0.00000000E+00
  0.00000000E+00  0.00000000E+00  0.00000000E+00
  0.00000000E+00  0.00000000E+00  0.00000000E+00
  0.00000000E+00  0.00000000E+00  0.00000000E+00
  0.00000000E+00  0.00000000E+00  0.00000000E+00
  0.00000000E+00  0.00000000E+00  0.00000000E+00
  0.00000000E+00  0.00000000E+00  0.00000000E+00
  0.00000000E+00  0.00000000E+00  0.00000000E+00
  0.00000000E+00  0.00000000E+00  0.00000000E+00
  0.00000000E+00  0.00000000E+00  0.00000000E+00
  0.00000000E+00  0.00000000E+00  0.00000000E+00
  0.00000000E+00  0.00000000E+00  0.00000000E+00
  0.00000000E+00  0.00000000E+00  0.00000000E+00
  0.00000000E+00  0.00000000E+00  0.00000000E+00
  0.00000000E+00  0.00000000E+00  0.00000000E+00
  0.00000000E+00  0.00000000E+00  0.00000000E+00
  0.00000000E+00  0.00000000E+00  0.00000000E+00
  0.00000000E+00  0.00000000E+00  0.00000000E+00
  0.00000000E+00  0.00000000E+00  0.00000000E+00
  0.00000000E+00  0.00000000E+00  0.00000000E+00
  0.00000000E+00  0.00000000E+00  0.00000000E+00
  0.00000000E+00  0.00000000E+00  0.00000000E+00
  0.00000000E+00  0.00000000E+00  0.00000000E+00
  0.00000000E+00  0.00000000E+00  0.00000000E+00
  0.00000000E+00  0.00000000E+00  0.00000000E+00
  0.00000000E+00  0.00000000E+00  0.00000000E+00
  0.00000000E+00  0.00000000E+00  0.00000000E+00
  0.00000000E+00  0.00000000E+00  0.00000000E+00
  0.00000000E+00  0.00000000E+00  0.00000000E+00
  0.00000000E+00  0.00000000E+00  0.00000000E+00
  0.00000000E+00  0.00000000E+00  0.00000000E+00
  0.00000000E+00  0.00000000E+00  0.00000000E+00
  0.00000000E+00  0.00000000E+00  0.00000000E+00
  0.00000000E+00  0.00000000E+00  0.00000000E+00
  0.00000000E+00  0.00000000E+00  0.00000000E+00
  0.00000000E+00  0.00000000E+00  0.00000000E+00
  0.00000000E+00  0.00000000E+00  0.00000000E+00
  0.00000000E+00  0.00000000E+00  0.00000000E+00
  0.00000000E+00  0.00000000E+00  0.00000000E+00
  0.00000000E+00  0.00000000E+00  0.00000000E+00
  0.00000000E+00  0.00000000E+00  0.00000000E+00
  0.00000000E+00  0.00000000E+00  0.00000000E+00
  0.00000000E+00  0.00000000E+00  0.00000000E+00
  0.00000000E+00  0.00000000E+00  0.00000000E+00
  0.00000000E+00  0.00000000E+00  0.00000000E+00
  0.00000000E+00  0.00000000E+00  0.00000000E+00
  0.00000000E+00  0.00000000E+00  0.00000000E+00
  0.00000000E+00  0.00000000E+00  0.00000000E+00
  0.00000000E+00  0.00000000E+00  0.00000000E+00
  0.00000000E+00  0.00000000E+00  0.00000000E+00
  0.00000000E+00  0.00000000E+00  0.00000000E+00
  0.00000000E+00  0.00000000E+00  0.00000000E+00
  0.00000000E+00  0.00000000E+00  0.00000000E+00
  0.00000000E+00  0.00000000E+00  0.00000000E+00
