Cu  C  F                                
    1.000000000000000     
    10.2424774999999997    0.0000000000000000    0.0000000000000000
     0.0000000000000000   14.4850505999999992    0.0000000000000000
     0.0000000000000000    0.0000000000000000   21.8409290399999989
   Cu   C    F 
    64     6     6
Selective dynamics
Direct
  0.2499999995118358  0.2499999993096296  0.3433919860398049   F   F   F
  0.0000000000000000  0.7499999965481621  0.3433919860398049   F   F   F
  0.2499999995118358  0.4999999986192663  0.3433919860398049   F   F   F
  0.2499999995118358  0.7499999979288958  0.3433919860398049   F   F   F
  0.2499999995118358  0.0000000000000000  0.3433919860398049   F   F   F
  0.4999999990236716  0.2499999993096296  0.3433919860398049   F   F   F
  0.4999999990236716  0.4999999986192663  0.3433919860398049   F   F   F
  0.0000000000000000  0.0000000000000000  0.3433919860398049   F   F   F
  0.4999999990236716  0.7499999979288958  0.3433919860398049   F   F   F
  0.4999999990236716  0.0000000000000000  0.3433919860398049   F   F   F
  0.7499999985355075  0.2499999993096296  0.3433919860398049   F   F   F
  0.7499999985355075  0.4999999986192663  0.3433919860398049   F   F   F
  0.7499999985355075  0.7499999979288958  0.3433919860398049   F   F   F
  0.7499999985355075  0.0000000000000000  0.3433919860398049   F   F   F
  0.9999999980473504  0.2499999993096296  0.3433919860398049   F   F   F
  0.0000000000000000  0.4999999986192663  0.3433919860398049   F   F   F
  0.2499640086363481  0.2500480812475127  0.4617354873606768   T   T   T
  0.2499586704905909  0.5000045181699141  0.4617500904544541   T   T   T
  0.2499739278667082  0.7499264622489432  0.4617537229223254   T   T   T
  0.2500080377091281 -0.0000003656243884  0.4617834845312113   T   T   T
  0.4999984137596840  0.2499571116705006  0.4616871804616018   T   T   T
  0.4999999990236716  0.4999999986192663  0.4615854055896148   T   T   T
  0.5000015842876595  0.7500428855680248  0.4616871804616018   T   T   T
  0.4999999990236716  0.0000000000000000  0.4617827151553054   T   T   T
  0.7500260701806351  0.2500735349895821  0.4617537229223254   T   T   T
  0.7500413275567523  0.4999954790686185  0.4617500904544541   T   T   T
  0.7500359894109951  0.7499519159910127  0.4617354873606768   T   T   T
  0.7499919603382151  0.0000003656243885  0.4617834845312113   T   T   T
  0.9999855658740383  0.2501062449096557  0.4617904233605332   T   T   T
 -0.0000000000000000  0.4999999986192663  0.4617175070503179   T   T   T
  0.0000144321733121  0.7498937509481363  0.4617904233605332   T   T   T
 -0.0000000000000000  0.0000000000000000  0.4617906432710806   T   T   T
  0.1250302028706375  0.1250486833580265  0.5166653127023311   T   T   T
  0.1250617377976659  0.3751532236633978  0.5167218234821719   T   T   T
  0.1251019279823701  0.6248249377596322  0.5167836445135883   T   T   T
  0.1250350560343946  0.8749510584396346  0.5166707137194282   T   T   T
  0.3749628595895229  0.1250752551214963  0.5166699790212431   T   T   T
  0.3751102986076845  0.3751661177683230  0.5163772602937635   T   T   T
  0.3751125831717050  0.6248108740449513  0.5164237707598927   T   T   T
  0.3749703175421679  0.8749285723493763  0.5166792405610117   T   T   T
  0.6250296814815107  0.1250714248891562  0.5166792405610117   T   T   T
  0.6248874158519740  0.3751891231935808  0.5164237707598927   T   T   T
  0.6248897004159942  0.6248338794702094  0.5163772602937635   T   T   T
  0.6250371394341557  0.8749247421170363  0.5166699790212431   T   T   T
  0.8749649429892771  0.1250489387988981  0.5166707137194282   T   T   T
  0.8748980710413017  0.3751750594789006  0.5167836445135883   T   T   T
  0.8749382612260057  0.6248467735751344  0.5167218234821719   T   T   T
  0.8749697961530341  0.8749513138805060  0.5166653127023311   T   T   T
  0.1250000002440785  0.1249999996548183  0.4020117305412967   F   F   F
  0.1250000002440785  0.3749999989644479  0.4020117305412967   F   F   F
  0.1250000002440785  0.6249999982740846  0.4020117305412967   F   F   F
  0.1250000002440785  0.8749999975837142  0.4020117305412967   F   F   F
  0.3749999997559215  0.1249999996548183  0.4020117305412967   F   F   F
  0.3749999997559215  0.3749999989644479  0.4020117305412967   F   F   F
  0.3749999997559215  0.6249999982740846  0.4020117305412967   F   F   F
  0.3749999997559215  0.8749999975837142  0.4020117305412967   F   F   F
  0.6249999982914289  0.1249999996548183  0.4020117305412967   F   F   F
  0.6249999992677573  0.3749999989644479  0.4020117305412967   F   F   F
  0.6249999992677573  0.6249999982740846  0.4020117305412967   F   F   F
  0.6249999992677573  0.8749999975837142  0.4020117305412967   F   F   F
  0.8749999987795931  0.1249999996548183  0.4020117305412967   F   F   F
  0.8749999978032648  0.3749999989644479  0.4020117305412967   F   F   F
  0.8749999987795931  0.6249999982740846  0.4020117305412967   F   F   F
  0.8749999987795931  0.8749999975837142  0.4020117305412967   F   F   F
  0.3641816320992842  0.5086906191019851  0.6514168951141995   T   T   T
  0.4426161056818158  0.5874771926436897  0.6513997373387280   T   T   T
  0.5784726316479523  0.5786656446648548  0.6515189665513569   T   T   T
  0.6358183386109220  0.4913093643292100  0.6514168951141995   T   T   T
  0.5573839216553210  0.4125228184021802  0.6513997373387280   T   T   T
  0.4215273673757265  0.4213343525736775  0.6515189665513569   T   T   T
  0.2331086435416748  0.5168627594576704  0.6515832269935403   T   T   T
  0.3871922390599695  0.6719201640787330  0.6534989150459700   T   T   T
  0.6545470683216871  0.6547436470541302  0.6533982319679065   T   T   T
  0.7668913554819968  0.4831372377808622  0.6515832269935403   T   T   T
  0.6128078312355226  0.3280798552515393  0.6534989150459700   T   T   T
  0.3454529590154504  0.3452563639917397  0.6533982319679065   T   T   T
 
  0.00000000E+00  0.00000000E+00  0.00000000E+00
  0.00000000E+00  0.00000000E+00  0.00000000E+00
  0.00000000E+00  0.00000000E+00  0.00000000E+00
  0.00000000E+00  0.00000000E+00  0.00000000E+00
  0.00000000E+00  0.00000000E+00  0.00000000E+00
  0.00000000E+00  0.00000000E+00  0.00000000E+00
  0.00000000E+00  0.00000000E+00  0.00000000E+00
  0.00000000E+00  0.00000000E+00  0.00000000E+00
  0.00000000E+00  0.00000000E+00  0.00000000E+00
  0.00000000E+00  0.00000000E+00  0.00000000E+00
  0.00000000E+00  0.00000000E+00  0.00000000E+00
  0.00000000E+00  0.00000000E+00  0.00000000E+00
  0.00000000E+00  0.00000000E+00  0.00000000E+00
  0.00000000E+00  0.00000000E+00  0.00000000E+00
  0.00000000E+00  0.00000000E+00  0.00000000E+00
  0.00000000E+00  0.00000000E+00  0.00000000E+00
  0.00000000E+00  0.00000000E+00  0.00000000E+00
  0.00000000E+00  0.00000000E+00  0.00000000E+00
  0.00000000E+00  0.00000000E+00  0.00000000E+00
  0.00000000E+00  0.00000000E+00  0.00000000E+00
  0.00000000E+00  0.00000000E+00  0.00000000E+00
  0.00000000E+00  0.00000000E+00  0.00000000E+00
  0.00000000E+00  0.00000000E+00  0.00000000E+00
  0.00000000E+00  0.00000000E+00  0.00000000E+00
  0.00000000E+00  0.00000000E+00  0.00000000E+00
  0.00000000E+00  0.00000000E+00  0.00000000E+00
  0.00000000E+00  0.00000000E+00  0.00000000E+00
  0.00000000E+00  0.00000000E+00  0.00000000E+00
  0.00000000E+00  0.00000000E+00  0.00000000E+00
  0.00000000E+00  0.00000000E+00  0.00000000E+00
  0.00000000E+00  0.00000000E+00  0.00000000E+00
  0.00000000E+00  0.00000000E+00  0.00000000E+00
  0.00000000E+00  0.00000000E+00  0.00000000E+00
  0.00000000E+00  0.00000000E+00  0.00000000E+00
  0.00000000E+00  0.00000000E+00  0.00000000E+00
  0.00000000E+00  0.00000000E+00  0.00000000E+00
  0.00000000E+00  0.00000000E+00  0.00000000E+00
  0.00000000E+00  0.00000000E+00  0.00000000E+00
  0.00000000E+00  0.00000000E+00  0.00000000E+00
  0.00000000E+00  0.00000000E+00  0.00000000E+00
  0.00000000E+00  0.00000000E+00  0.00000000E+00
  0.00000000E+00  0.00000000E+00  0.00000000E+00
  0.00000000E+00  0.00000000E+00  0.00000000E+00
  0.00000000E+00  0.00000000E+00  0.00000000E+00
  0.00000000E+00  0.00000000E+00  0.00000000E+00
  0.00000000E+00  0.00000000E+00  0.00000000E+00
  0.00000000E+00  0.00000000E+00  0.00000000E+00
  0.00000000E+00  0.00000000E+00  0.00000000E+00
  0.00000000E+00  0.00000000E+00  0.00000000E+00
  0.00000000E+00  0.00000000E+00  0.00000000E+00
  0.00000000E+00  0.00000000E+00  0.00000000E+00
  0.00000000E+00  0.00000000E+00  0.00000000E+00
  0.00000000E+00  0.00000000E+00  0.00000000E+00
  0.00000000E+00  0.00000000E+00  0.00000000E+00
  0.00000000E+00  0.00000000E+00  0.00000000E+00
  0.00000000E+00  0.00000000E+00  0.00000000E+00
  0.00000000E+00  0.00000000E+00  0.00000000E+00
  0.00000000E+00  0.00000000E+00  0.00000000E+00
  0.00000000E+00  0.00000000E+00  0.00000000E+00
  0.00000000E+00  0.00000000E+00  0.00000000E+00
  0.00000000E+00  0.00000000E+00  0.00000000E+00
  0.00000000E+00  0.00000000E+00  0.00000000E+00
  0.00000000E+00  0.00000000E+00  0.00000000E+00
  0.00000000E+00  0.00000000E+00  0.00000000E+00
  0.00000000E+00  0.00000000E+00  0.00000000E+00
  0.00000000E+00  0.00000000E+00  0.00000000E+00
  0.00000000E+00  0.00000000E+00  0.00000000E+00
  0.00000000E+00  0.00000000E+00  0.00000000E+00
  0.00000000E+00  0.00000000E+00  0.00000000E+00
  0.00000000E+00  0.00000000E+00  0.00000000E+00
  0.00000000E+00  0.00000000E+00  0.00000000E+00
  0.00000000E+00  0.00000000E+00  0.00000000E+00
  0.00000000E+00  0.00000000E+00  0.00000000E+00
  0.00000000E+00  0.00000000E+00  0.00000000E+00
  0.00000000E+00  0.00000000E+00  0.00000000E+00
  0.00000000E+00  0.00000000E+00  0.00000000E+00
