Ir48 C4 N2 F4                           
    1.000000000000000     
    10.9622135000000007    0.0000000000000000    0.0000000000000000
     0.0000000000000000   10.9622135000000007    0.0000000000000000
     0.0000000000000000    0.0000000000000000   16.7325000400000015
   Ir   C    N    F 
    48     4     2     4
Selective dynamics
Direct
  0.9999179176168198  0.2497481865452826  0.4101866187655645   T   T   T
  0.0000032090276321  0.5000022130527171  0.4102118357544384   T   T   T
  0.0000877646166444  0.7502518003691208  0.4101850393764579   T   T   T
  0.0000023188854783  0.0000009154583296  0.4102886168582316   T   T   T
  0.2499136581521384  0.2499169497988376  0.4102063354254710   T   T   T
  0.2502778872350362  0.4998405379352349  0.4100658489226703   T   T   T
  0.2499810807094320  0.7500216087485541  0.4102672790068667   T   T   T
  0.2497485780405171  0.9999131779534878  0.4101856003708662   T   T   T
  0.4998383708381198  0.2502777205385698  0.4100633657986990   T   T   T
  0.4999993694434650  0.5000042429977185  0.4105944686475311   T   T   T
  0.5001603295025419  0.7497202747554823  0.4100663415758774   T   T   T
  0.4999985339359299  0.0000011207883617  0.4102096282965135   T   T   T
  0.7500210515448913  0.2499749405369300  0.4102656443534300   T   T   T
  0.7497209052340637  0.5001686821240554  0.4100669069518972   T   T   T
  0.7500826319953191  0.7500807301115842  0.4102081640710225   T   T   T
  0.7502509906671122  0.0000884893391984  0.4101856706097777   T   T   T
  0.1250495782337566  0.1250490097077801  0.5217258050655005   T   T   T
  0.1246235817536245  0.3749822279640753  0.5216316174478948   T   T   T
  0.1249560625228909  0.6248282587171374  0.5216808299470230   T   T   T
  0.1251514033228247  0.8748504402801487  0.5217984357339560   T   T   T
  0.3749828438388079  0.1246242624092559  0.5216348799249886   T   T   T
  0.3741739171563125  0.3741739248506519  0.5221770633888028   T   T   T
  0.3748564770070217  0.6251465442723543  0.5213531119116439   T   T   T
  0.3751730358852541  0.8750464696083782  0.5216826087080975   T   T   T
  0.6248272894500815  0.1249557442030849  0.5216809957583024   T   T   T
  0.6251469228682680  0.3748530133383028  0.5213465607808203   T   T   T
  0.6258278636715744  0.6258281867664195  0.5221739444585651   T   T   T
  0.6250192291192675  0.8753763797307457  0.5216359584208448   T   T   T
  0.8748488655557765  0.1251513396907598  0.5217989870881610   T   T   T
  0.8750472178491222  0.3751737920890648  0.5216803302654895   T   T   T
  0.8753753152330503  0.6250199422414013  0.5216322104859330   T   T   T
  0.8749528009376846  0.8749522717688976  0.5217245172922702   T   T   T
  0.1250000002280558  0.1250000002280558  0.2988196616194330   F   F   F
  0.1250000002280558  0.3749999997719442  0.2988196616194330   F   F   F
  0.1250000002280558  0.6249999993158326  0.2988196616194330   F   F   F
  0.1250000002280558  0.8749999988597210  0.2988196616194330   F   F   F
  0.3749999997719442  0.1250000002280558  0.2988196616194330   F   F   F
  0.3749999997719442  0.3749999997719442  0.2988196616194330   F   F   F
  0.3749999997719442  0.6249999993158326  0.2988196616194330   F   F   F
  0.3749999997719442  0.8749999988597210  0.2988196616194330   F   F   F
  0.6249999993158326  0.1250000002280558  0.2988196616194330   F   F   F
  0.6249999993158326  0.3749999997719442  0.2988196616194330   F   F   F
  0.6249999993158326  0.6249999993158326  0.2988196616194330   F   F   F
  0.6249999993158326  0.8749999988597210  0.2988196616194330   F   F   F
  0.8749999988597210  0.1250000002280558  0.2988196616194330   F   F   F
  0.8749999988597210  0.3749999997719442  0.2988196616194330   F   F   F
  0.8749999988597210  0.6249999993158326  0.2988196616194330   F   F   F
  0.8749999988597210  0.8749999988597210  0.2988196616194330   F   F   F
  0.5275492347720530  0.3817188682863559  0.6999674700223792   T   T   T
  0.6183101155859845  0.4724337674927881  0.6999654384538800   T   T   T
  0.4724177421598057  0.6182775074535911  0.6999604170286347   T   T   T
  0.3817011739197369  0.5276003116985279  0.6999628405752958   T   T   T
  0.5896602357382648  0.5896821298346495  0.6997555456633009   T   T   T
  0.4102886665955481  0.4103570560812457  0.6997671587349217   T   T   T
  0.2634908921046630  0.5572116512695189  0.7066948642444970   T   T   T
  0.4428249791549561  0.7365433332437163  0.7066920530782781   T   T   T
  0.5572163436855746  0.2633731230835679  0.7067040246045693   T   T   T
  0.7365848324011139  0.4427487854683889  0.7066969933657674   T   T   T
 
  0.00000000E+00  0.00000000E+00  0.00000000E+00
  0.00000000E+00  0.00000000E+00  0.00000000E+00
  0.00000000E+00  0.00000000E+00  0.00000000E+00
  0.00000000E+00  0.00000000E+00  0.00000000E+00
  0.00000000E+00  0.00000000E+00  0.00000000E+00
  0.00000000E+00  0.00000000E+00  0.00000000E+00
  0.00000000E+00  0.00000000E+00  0.00000000E+00
  0.00000000E+00  0.00000000E+00  0.00000000E+00
  0.00000000E+00  0.00000000E+00  0.00000000E+00
  0.00000000E+00  0.00000000E+00  0.00000000E+00
  0.00000000E+00  0.00000000E+00  0.00000000E+00
  0.00000000E+00  0.00000000E+00  0.00000000E+00
  0.00000000E+00  0.00000000E+00  0.00000000E+00
  0.00000000E+00  0.00000000E+00  0.00000000E+00
  0.00000000E+00  0.00000000E+00  0.00000000E+00
  0.00000000E+00  0.00000000E+00  0.00000000E+00
  0.00000000E+00  0.00000000E+00  0.00000000E+00
  0.00000000E+00  0.00000000E+00  0.00000000E+00
  0.00000000E+00  0.00000000E+00  0.00000000E+00
  0.00000000E+00  0.00000000E+00  0.00000000E+00
  0.00000000E+00  0.00000000E+00  0.00000000E+00
  0.00000000E+00  0.00000000E+00  0.00000000E+00
  0.00000000E+00  0.00000000E+00  0.00000000E+00
  0.00000000E+00  0.00000000E+00  0.00000000E+00
  0.00000000E+00  0.00000000E+00  0.00000000E+00
  0.00000000E+00  0.00000000E+00  0.00000000E+00
  0.00000000E+00  0.00000000E+00  0.00000000E+00
  0.00000000E+00  0.00000000E+00  0.00000000E+00
  0.00000000E+00  0.00000000E+00  0.00000000E+00
  0.00000000E+00  0.00000000E+00  0.00000000E+00
  0.00000000E+00  0.00000000E+00  0.00000000E+00
  0.00000000E+00  0.00000000E+00  0.00000000E+00
  0.00000000E+00  0.00000000E+00  0.00000000E+00
  0.00000000E+00  0.00000000E+00  0.00000000E+00
  0.00000000E+00  0.00000000E+00  0.00000000E+00
  0.00000000E+00  0.00000000E+00  0.00000000E+00
  0.00000000E+00  0.00000000E+00  0.00000000E+00
  0.00000000E+00  0.00000000E+00  0.00000000E+00
  0.00000000E+00  0.00000000E+00  0.00000000E+00
  0.00000000E+00  0.00000000E+00  0.00000000E+00
  0.00000000E+00  0.00000000E+00  0.00000000E+00
  0.00000000E+00  0.00000000E+00  0.00000000E+00
  0.00000000E+00  0.00000000E+00  0.00000000E+00
  0.00000000E+00  0.00000000E+00  0.00000000E+00
  0.00000000E+00  0.00000000E+00  0.00000000E+00
  0.00000000E+00  0.00000000E+00  0.00000000E+00
  0.00000000E+00  0.00000000E+00  0.00000000E+00
  0.00000000E+00  0.00000000E+00  0.00000000E+00
  0.00000000E+00  0.00000000E+00  0.00000000E+00
  0.00000000E+00  0.00000000E+00  0.00000000E+00
  0.00000000E+00  0.00000000E+00  0.00000000E+00
  0.00000000E+00  0.00000000E+00  0.00000000E+00
  0.00000000E+00  0.00000000E+00  0.00000000E+00
  0.00000000E+00  0.00000000E+00  0.00000000E+00
  0.00000000E+00  0.00000000E+00  0.00000000E+00
  0.00000000E+00  0.00000000E+00  0.00000000E+00
  0.00000000E+00  0.00000000E+00  0.00000000E+00
  0.00000000E+00  0.00000000E+00  0.00000000E+00
