Ag  C Br                                
   1.00000000000000     
    11.7678089999999997    0.0000000000000000    0.0000000000000000
    -5.8839040000000002   10.1912210000000005    0.0000000000000000
     0.0000000000000000    0.0000000000000000   25.2062817300000006
   Ag   C    Br
    64     6     6
Selective dynamics
Direct
  0.7499999754973956  0.7500000274746270  0.2975448771198046   F   F   F
  0.9999999830044857  0.0000000000000000  0.2975448771198046   F   F   F
  0.9999999789222898  0.2500000088311296  0.2975448771198046   F   F   F
  0.9999999748400938  0.5000000176622592  0.2975448771198046   F   F   F
  0.9999999882440349  0.7500000274746270  0.2975448771198046   F   F   F
  0.2499999957511179  0.0000000000000000  0.2975448771198046   F   F   F
  0.2499999916689291  0.2500000088311296  0.2975448771198046   F   F   F
  0.2499999875867331  0.5000000176622592  0.2975448771198046   F   F   F
  0.4999999915022428  0.0000000000000000  0.2975448771198046   F   F   F
  0.4999999874200469  0.2500000088311296  0.2975448771198046   F   F   F
  0.4999999833378510  0.5000000176622592  0.2975448771198046   F   F   F
  0.4999999797462777  0.7500000274746270  0.2975448771198046   F   F   F
  0.7499999872533607  0.0000000000000000  0.2975448771198046   F   F   F
  0.7499999831711648  0.2500000088311296  0.2975448771198046   F   F   F
  0.7499999790889760  0.5000000176622592  0.2975448771198046   F   F   F
  0.2499999839951599  0.7500000274746270  0.2975448771198046   F   F   F
  0.0833330000000032  0.1666669999999968  0.3928423087572952   F   F   F
  0.0833330000000032  0.4166669999999968  0.3928423087572952   F   F   F
  0.0833330000000032  0.6666669999999968  0.3928423087572952   F   F   F
  0.0833330000000032  0.9166669999999968  0.3928423087572952   F   F   F
  0.3333330000000032  0.1666669999999968  0.3928423087572952   F   F   F
  0.3333330000000032  0.4166669999999968  0.3928423087572952   F   F   F
  0.3333330000000032  0.6666669999999968  0.3928423087572952   F   F   F
  0.3333330000000032  0.9166669999999968  0.3928423087572952   F   F   F
  0.5833330000000032  0.1666669999999968  0.3928423087572952   F   F   F
  0.5833330000000032  0.4166669999999968  0.3928423087572952   F   F   F
  0.5833330000000032  0.6666669999999968  0.3928423087572952   F   F   F
  0.5833330000000032  0.9166669999999968  0.3928423087572952   F   F   F
  0.8333330000000032  0.1666669999999968  0.3928423087572952   F   F   F
  0.8333330000000032  0.4166669999999968  0.3928423087572952   F   F   F
  0.8333330000000032  0.6666669999999968  0.3928423087572952   F   F   F
  0.8333330000000032  0.9166669999999968  0.3928423087572952   F   F   F
  0.2506874244904360  0.2506945195611287  0.5711001856967529   T   T   T
  0.2498739503386232  0.5000667880306555  0.5710559171135321   T   T   T
  0.2499646450684276  0.7502063919200879  0.5714220328626124   T   T   T
  0.2498890994010132 -0.0000473183563643  0.5716214403134021   T   T   T
  0.4999425296367945  0.2499666813312119  0.5710537000846917   T   T   T
  0.4991399611968154  0.4991518302300061  0.5710771420535721   T   T   T
  0.5000101876410967  0.7498815648172127  0.5716282005345920   T   T   T
  0.5000300423040348  0.9997701366742571  0.5714263367460694   T   T   T
  0.7501726306728832  0.2499428018988934  0.5714335112892331   T   T   T
  0.7499548494696081  0.5000472660564202  0.5716111471863815   T   T   T
  0.7500319905756230  0.7500457702059752  0.5715620637119195   T   T   T
  0.7498895522446348  0.0000667941266519  0.5715293099117857   T   T   T
  0.0000651024151386  0.2499521562351758  0.5716278117745730   T   T   T
  0.9997416431021896  0.5000039277982850  0.5714091890443113   T   T   T
  0.0000101886023751  0.7499460070020310  0.5715250214677380   T   T   T
  0.9998669207096430  0.9998799756312868  0.5715543826537837   T   T   T
  0.1665493330743705  0.0831233177170486  0.4820115845488229   T   T   T
  0.1663323098835487  0.3332220629339639  0.4819364322065137   T   T   T
  0.1665333543896081  0.5834777862260011  0.4818657656250440   T   T   T
  0.1666299576912240  0.8334530687881802  0.4819629380020249   T   T   T
  0.4164225913408059  0.0830094093326569  0.4819570689745359   T   T   T
  0.4167609788510647  0.3331097997117004  0.4817639724772743   T   T   T
  0.4167295170905120  0.5836627583265335  0.4819266877427467   T   T   T
  0.4166907915261692  0.8331085935344260  0.4819926238873306   T   T   T
  0.6666636425479865  0.0833550772914021  0.4819155206281056   T   T   T
  0.6669259443523617  0.3335057958659519  0.4819608382624774   T   T   T
  0.6668408440601675  0.5834383571457998  0.4820068469684991   T   T   T
  0.6666377443734700  0.8332613109757590  0.4820056244988362   T   T   T
  0.9167021104556315  0.0833467420777432  0.4819998351212352   T   T   T
  0.9168264037393561  0.3332488314229941  0.4819916854062165   T   T   T
  0.9164824680814740  0.5833467419269787  0.4819549793075843   T   T   T
  0.9165928990168734  0.8333162752052234  0.4819981106586094   T   T   T
  0.3060701740559882  0.2370744644994176  0.7041123616169921   T   T   T
  0.2370873623995590  0.3061327263235115  0.7040996180602397   T   T   T
  0.3062272365054223  0.4440547816668360  0.7041882316842021   T   T   T
  0.4441549850422884  0.5131772653111651  0.7041012442409382   T   T   T
  0.5131887354141019  0.4441473841249038  0.7041103860619209   T   T   T
  0.4440434294249186  0.3061784936581206  0.7042177675558765   T   T   T
  0.2132645680116767  0.0516286676943512  0.7032600112520679   T   T   T
  0.0516261064013084  0.2133210207378143  0.7032966624117138   T   T   T
  0.2137607142716463  0.5366567802483072  0.7029454816880133   T   T   T
  0.5368301834816646  0.6986343195664223  0.7032395246595964   T   T   T
  0.6985901341574497  0.5368861791300364  0.7032350100582996   T   T   T
  0.5365722050977029  0.2136408443351557  0.7029842316869461   T   T   T
 
  0.00000000E+00  0.00000000E+00  0.00000000E+00
  0.00000000E+00  0.00000000E+00  0.00000000E+00
  0.00000000E+00  0.00000000E+00  0.00000000E+00
  0.00000000E+00  0.00000000E+00  0.00000000E+00
  0.00000000E+00  0.00000000E+00  0.00000000E+00
  0.00000000E+00  0.00000000E+00  0.00000000E+00
  0.00000000E+00  0.00000000E+00  0.00000000E+00
  0.00000000E+00  0.00000000E+00  0.00000000E+00
  0.00000000E+00  0.00000000E+00  0.00000000E+00
  0.00000000E+00  0.00000000E+00  0.00000000E+00
  0.00000000E+00  0.00000000E+00  0.00000000E+00
  0.00000000E+00  0.00000000E+00  0.00000000E+00
  0.00000000E+00  0.00000000E+00  0.00000000E+00
  0.00000000E+00  0.00000000E+00  0.00000000E+00
  0.00000000E+00  0.00000000E+00  0.00000000E+00
  0.00000000E+00  0.00000000E+00  0.00000000E+00
  0.00000000E+00  0.00000000E+00  0.00000000E+00
  0.00000000E+00  0.00000000E+00  0.00000000E+00
  0.00000000E+00  0.00000000E+00  0.00000000E+00
  0.00000000E+00  0.00000000E+00  0.00000000E+00
  0.00000000E+00  0.00000000E+00  0.00000000E+00
  0.00000000E+00  0.00000000E+00  0.00000000E+00
  0.00000000E+00  0.00000000E+00  0.00000000E+00
  0.00000000E+00  0.00000000E+00  0.00000000E+00
  0.00000000E+00  0.00000000E+00  0.00000000E+00
  0.00000000E+00  0.00000000E+00  0.00000000E+00
  0.00000000E+00  0.00000000E+00  0.00000000E+00
  0.00000000E+00  0.00000000E+00  0.00000000E+00
  0.00000000E+00  0.00000000E+00  0.00000000E+00
  0.00000000E+00  0.00000000E+00  0.00000000E+00
  0.00000000E+00  0.00000000E+00  0.00000000E+00
  0.00000000E+00  0.00000000E+00  0.00000000E+00
  0.00000000E+00  0.00000000E+00  0.00000000E+00
  0.00000000E+00  0.00000000E+00  0.00000000E+00
  0.00000000E+00  0.00000000E+00  0.00000000E+00
  0.00000000E+00  0.00000000E+00  0.00000000E+00
  0.00000000E+00  0.00000000E+00  0.00000000E+00
  0.00000000E+00  0.00000000E+00  0.00000000E+00
  0.00000000E+00  0.00000000E+00  0.00000000E+00
  0.00000000E+00  0.00000000E+00  0.00000000E+00
  0.00000000E+00  0.00000000E+00  0.00000000E+00
  0.00000000E+00  0.00000000E+00  0.00000000E+00
  0.00000000E+00  0.00000000E+00  0.00000000E+00
  0.00000000E+00  0.00000000E+00  0.00000000E+00
  0.00000000E+00  0.00000000E+00  0.00000000E+00
  0.00000000E+00  0.00000000E+00  0.00000000E+00
  0.00000000E+00  0.00000000E+00  0.00000000E+00
  0.00000000E+00  0.00000000E+00  0.00000000E+00
  0.00000000E+00  0.00000000E+00  0.00000000E+00
  0.00000000E+00  0.00000000E+00  0.00000000E+00
  0.00000000E+00  0.00000000E+00  0.00000000E+00
  0.00000000E+00  0.00000000E+00  0.00000000E+00
  0.00000000E+00  0.00000000E+00  0.00000000E+00
  0.00000000E+00  0.00000000E+00  0.00000000E+00
  0.00000000E+00  0.00000000E+00  0.00000000E+00
  0.00000000E+00  0.00000000E+00  0.00000000E+00
  0.00000000E+00  0.00000000E+00  0.00000000E+00
  0.00000000E+00  0.00000000E+00  0.00000000E+00
  0.00000000E+00  0.00000000E+00  0.00000000E+00
  0.00000000E+00  0.00000000E+00  0.00000000E+00
  0.00000000E+00  0.00000000E+00  0.00000000E+00
  0.00000000E+00  0.00000000E+00  0.00000000E+00
  0.00000000E+00  0.00000000E+00  0.00000000E+00
  0.00000000E+00  0.00000000E+00  0.00000000E+00
  0.00000000E+00  0.00000000E+00  0.00000000E+00
  0.00000000E+00  0.00000000E+00  0.00000000E+00
  0.00000000E+00  0.00000000E+00  0.00000000E+00
  0.00000000E+00  0.00000000E+00  0.00000000E+00
  0.00000000E+00  0.00000000E+00  0.00000000E+00
  0.00000000E+00  0.00000000E+00  0.00000000E+00
  0.00000000E+00  0.00000000E+00  0.00000000E+00
  0.00000000E+00  0.00000000E+00  0.00000000E+00
  0.00000000E+00  0.00000000E+00  0.00000000E+00
  0.00000000E+00  0.00000000E+00  0.00000000E+00
  0.00000000E+00  0.00000000E+00  0.00000000E+00
  0.00000000E+00  0.00000000E+00  0.00000000E+00
