Cu  C  H Cl                             
   1.00000000000000     
    10.2424769999999992    0.0000000000000000    0.0000000000000000
    -5.1212390000000001    8.8702459999999999    0.0000000000000000
     0.0000000000000000    0.0000000000000000   24.2722108799999958
   Cu   C    H    Cl
    64     6     2     4
Selective dynamics
Direct
  0.7500000436217675  0.9999999661790682  0.3089953377992387   F   F   F
  0.0000000023248248  0.2499999909810811  0.3089953377992387   F   F   F
  0.0000000042370090  0.4999999830895305  0.3089953377992387   F   F   F
  0.0000000055855054  0.7499999740706187  0.3089953377992387   F   F   F
  0.0000000084740179  0.9999999661790682  0.3089953377992387   F   F   F
  0.2500000140407437  0.2499999909810811  0.3089953377992387   F   F   F
  0.2500000159529208  0.4999999830895305  0.3089953377992387   F   F   F
  0.2500000173014243  0.7499999740706187  0.3089953377992387   F   F   F
  0.5000000257566555  0.2499999909810811  0.3089953377992387   F   F   F
  0.5000000276688397  0.4999999830895305  0.3089953377992387   F   F   F
  0.5000000290173432  0.7499999740706187  0.3089953377992387   F   F   F
  0.5000000319058486  0.9999999661790682  0.3089953377992387   F   F   F
  0.7500000374725744  0.2499999909810811  0.3089953377992387   F   F   F
  0.7500000393847586  0.4999999830895305  0.3089953377992387   F   F   F
  0.7500000417095833  0.7499999740706187  0.3089953377992387   F   F   F
  0.2500000201899297  0.9999999661790682  0.3089953377992387   F   F   F
  0.0833330000000032  0.1666669999999968  0.3951324008931820   F   F   F
  0.0833330000000032  0.4166669999999968  0.3951324008931820   F   F   F
  0.0833330000000032  0.6666669999999968  0.3951324008931820   F   F   F
  0.0833330000000032  0.9166669999999968  0.3951324008931820   F   F   F
  0.3333330000000032  0.1666669999999968  0.3951324008931820   F   F   F
  0.3333330000000032  0.4166669999999968  0.3951324008931820   F   F   F
  0.3333330000000032  0.6666669999999968  0.3951324008931820   F   F   F
  0.3333330000000032  0.9166669999999968  0.3951324008931820   F   F   F
  0.5833330000000032  0.1666669999999968  0.3951324008931820   F   F   F
  0.5833330000000032  0.4166669999999968  0.3951324008931820   F   F   F
  0.5833330000000032  0.6666669999999968  0.3951324008931820   F   F   F
  0.5833330000000032  0.9166669999999968  0.3951324008931820   F   F   F
  0.8333330000000032  0.1666669999999968  0.3951324008931820   F   F   F
  0.8333330000000032  0.4166669999999968  0.3951324008931820   F   F   F
  0.8333330000000032  0.6666669999999968  0.3951324008931820   F   F   F
  0.8333330000000032  0.9166669999999968  0.3951324008931820   F   F   F
  0.9996459638919915  0.9997584794099178  0.5648151162359843   T   T   T
  0.9997740990529553  0.2498980445899802  0.5650694846275773   T   T   T
  0.0002577676640842  0.4998676942434083  0.5649558225089581   T   T   T
  0.0000040621675648  0.7497784231934866  0.5648915022396898   T   T   T
  0.2497938009733614  0.9998722459731323  0.5651006611774778   T   T   T
  0.2500901592340151  0.2502010042823427  0.5640468461414208   T   T   T
  0.2500564196495626  0.4997943518392952  0.5651062581156624   T   T   T
  0.2499513181152061  0.7497310780666914  0.5650413613197787   T   T   T
  0.4998183291929006  0.0004251429895825  0.5649719660325986   T   T   T
  0.4995776897798915  0.2502006799960613  0.5650928379963417   T   T   T
  0.4995026576663023  0.4996620624021140  0.5640263047794501   T   T   T
  0.4998655365270346  0.7500573914255931  0.5650549196128799   T   T   T
  0.7496706280459121  0.0001454385264768  0.5648460325808804   T   T   T
  0.7495587192141825  0.2500287910020556  0.5650735462680843   T   T   T
  0.7499812389536339  0.4999764904838608  0.5650989753921020   T   T   T
  0.7499157465624355  0.7499984478738978  0.5648662208041517   T   T   T
  0.1665215076651436  0.0829705906472578  0.4799980640159947   T   T   T
  0.1663168444290922  0.3333138829484562  0.4800029238260810   T   T   T
  0.1666526845264751  0.5831980287723575  0.4800677023696756   T   T   T
  0.1667119349810838  0.8332417532109803  0.4800715707235262   T   T   T
  0.4164574433284557  0.0833062556884095  0.4801093220726412   T   T   T
  0.4166599451903067  0.3331207905483171  0.4797359489374827   T   T   T
  0.4164769646841693  0.5835898801201835  0.4799670459420726   T   T   T
  0.4166641984427764  0.8333971173682807  0.4801163828252999   T   T   T
  0.6665175975685403  0.0833561936849899  0.4800059481056309   T   T   T
  0.6665260061457843  0.3333513334593949  0.4801421915702620   T   T   T
  0.6668859523656453  0.5833387132597619  0.4799887633449316   T   T   T
  0.6665290236900090  0.8332865920458375  0.4800556238149460   T   T   T
  0.9165373387157923  0.0832834053707349  0.4800420401447535   T   T   T
  0.9164514440303647  0.3331524371993975  0.4801117460373892   T   T   T
  0.9165719301319023  0.5831171038353966  0.4800656803477589   T   T   T
  0.9166869018374131  0.8331617660176827  0.4800400556651009   T   T   T
  0.2970137840840933  0.4541914313623569  0.6905425457946587   T   T   T
  0.4546144929414288  0.5337516627217435  0.6916732422841668   T   T   T
  0.5338801262375054  0.4545730657243938  0.6916929017958636   T   T   T
  0.4543587485206176  0.2970130063165496  0.6905982223149251   T   T   T
  0.2967704953707421  0.2174617415957065  0.6918043511529429   T   T   T
  0.2174481566622279  0.2966615369356558  0.6917820915916905   T   T   T
  0.2352269126096386  0.5152669478379669  0.6899455005764515   T   T   T
  0.5153106854133993  0.2351739371400942  0.6899778926455107   T   T   T
  0.5471305774124677  0.7271698731916905  0.6920960850204002   T   T   T
  0.7272201424535647  0.5469639151026081  0.6921859076514095   T   T   T
  0.2037550125669772  0.0238472110381884  0.6924773020170732   T   T   T
  0.0237631744476687  0.2034378839178335  0.6924352025881114   T   T   T
 
  0.00000000E+00  0.00000000E+00  0.00000000E+00
  0.00000000E+00  0.00000000E+00  0.00000000E+00
  0.00000000E+00  0.00000000E+00  0.00000000E+00
  0.00000000E+00  0.00000000E+00  0.00000000E+00
  0.00000000E+00  0.00000000E+00  0.00000000E+00
  0.00000000E+00  0.00000000E+00  0.00000000E+00
  0.00000000E+00  0.00000000E+00  0.00000000E+00
  0.00000000E+00  0.00000000E+00  0.00000000E+00
  0.00000000E+00  0.00000000E+00  0.00000000E+00
  0.00000000E+00  0.00000000E+00  0.00000000E+00
  0.00000000E+00  0.00000000E+00  0.00000000E+00
  0.00000000E+00  0.00000000E+00  0.00000000E+00
  0.00000000E+00  0.00000000E+00  0.00000000E+00
  0.00000000E+00  0.00000000E+00  0.00000000E+00
  0.00000000E+00  0.00000000E+00  0.00000000E+00
  0.00000000E+00  0.00000000E+00  0.00000000E+00
  0.00000000E+00  0.00000000E+00  0.00000000E+00
  0.00000000E+00  0.00000000E+00  0.00000000E+00
  0.00000000E+00  0.00000000E+00  0.00000000E+00
  0.00000000E+00  0.00000000E+00  0.00000000E+00
  0.00000000E+00  0.00000000E+00  0.00000000E+00
  0.00000000E+00  0.00000000E+00  0.00000000E+00
  0.00000000E+00  0.00000000E+00  0.00000000E+00
  0.00000000E+00  0.00000000E+00  0.00000000E+00
  0.00000000E+00  0.00000000E+00  0.00000000E+00
  0.00000000E+00  0.00000000E+00  0.00000000E+00
  0.00000000E+00  0.00000000E+00  0.00000000E+00
  0.00000000E+00  0.00000000E+00  0.00000000E+00
  0.00000000E+00  0.00000000E+00  0.00000000E+00
  0.00000000E+00  0.00000000E+00  0.00000000E+00
  0.00000000E+00  0.00000000E+00  0.00000000E+00
  0.00000000E+00  0.00000000E+00  0.00000000E+00
  0.00000000E+00  0.00000000E+00  0.00000000E+00
  0.00000000E+00  0.00000000E+00  0.00000000E+00
  0.00000000E+00  0.00000000E+00  0.00000000E+00
  0.00000000E+00  0.00000000E+00  0.00000000E+00
  0.00000000E+00  0.00000000E+00  0.00000000E+00
  0.00000000E+00  0.00000000E+00  0.00000000E+00
  0.00000000E+00  0.00000000E+00  0.00000000E+00
  0.00000000E+00  0.00000000E+00  0.00000000E+00
  0.00000000E+00  0.00000000E+00  0.00000000E+00
  0.00000000E+00  0.00000000E+00  0.00000000E+00
  0.00000000E+00  0.00000000E+00  0.00000000E+00
  0.00000000E+00  0.00000000E+00  0.00000000E+00
  0.00000000E+00  0.00000000E+00  0.00000000E+00
  0.00000000E+00  0.00000000E+00  0.00000000E+00
  0.00000000E+00  0.00000000E+00  0.00000000E+00
  0.00000000E+00  0.00000000E+00  0.00000000E+00
  0.00000000E+00  0.00000000E+00  0.00000000E+00
  0.00000000E+00  0.00000000E+00  0.00000000E+00
  0.00000000E+00  0.00000000E+00  0.00000000E+00
  0.00000000E+00  0.00000000E+00  0.00000000E+00
  0.00000000E+00  0.00000000E+00  0.00000000E+00
  0.00000000E+00  0.00000000E+00  0.00000000E+00
  0.00000000E+00  0.00000000E+00  0.00000000E+00
  0.00000000E+00  0.00000000E+00  0.00000000E+00
  0.00000000E+00  0.00000000E+00  0.00000000E+00
  0.00000000E+00  0.00000000E+00  0.00000000E+00
  0.00000000E+00  0.00000000E+00  0.00000000E+00
  0.00000000E+00  0.00000000E+00  0.00000000E+00
  0.00000000E+00  0.00000000E+00  0.00000000E+00
  0.00000000E+00  0.00000000E+00  0.00000000E+00
  0.00000000E+00  0.00000000E+00  0.00000000E+00
  0.00000000E+00  0.00000000E+00  0.00000000E+00
  0.00000000E+00  0.00000000E+00  0.00000000E+00
  0.00000000E+00  0.00000000E+00  0.00000000E+00
  0.00000000E+00  0.00000000E+00  0.00000000E+00
  0.00000000E+00  0.00000000E+00  0.00000000E+00
  0.00000000E+00  0.00000000E+00  0.00000000E+00
  0.00000000E+00  0.00000000E+00  0.00000000E+00
  0.00000000E+00  0.00000000E+00  0.00000000E+00
  0.00000000E+00  0.00000000E+00  0.00000000E+00
  0.00000000E+00  0.00000000E+00  0.00000000E+00
  0.00000000E+00  0.00000000E+00  0.00000000E+00
  0.00000000E+00  0.00000000E+00  0.00000000E+00
  0.00000000E+00  0.00000000E+00  0.00000000E+00
