H2 Ir48 C6 Br4                          
    1.000000000000000     
    10.9622130000000002    0.0000000000000000    0.0000000000000000
    -5.4811069999999997    9.4935550000000006    0.0000000000000000
     0.0000000000000000    0.0000000000000000   17.4810189999999999
   H    Ir   C    Br
     2    48     6     4
Selective dynamics
Direct
  0.2435644556335106  0.5052978350180766  0.7803071827079648   T   T   T
  0.5055210178137202  0.2434863985975610  0.7815823624006910   T   T   T
  0.0833330000000032  0.1666669999999968  0.3432290000000009   F   F   F
  0.0833330000000032  0.4166669999999968  0.3432290000000009   F   F   F
  0.0833330000000032  0.6666669999999968  0.3432290000000009   F   F   F
  0.0833330000000032  0.9166669999999968  0.3432290000000009   F   F   F
  0.3333330000000032  0.1666669999999968  0.3432290000000009   F   F   F
  0.3333330000000032  0.4166669999999968  0.3432290000000009   F   F   F
  0.3333330000000032  0.6666669999999968  0.3432290000000009   F   F   F
  0.3333330000000032  0.9166669999999968  0.3432290000000009   F   F   F
  0.5833330000000032  0.1666669999999968  0.3432290000000009   F   F   F
  0.5833330000000032  0.4166669999999968  0.3432290000000009   F   F   F
  0.5833330000000032  0.6666669999999968  0.3432290000000009   F   F   F
  0.5833330000000032  0.9166669999999968  0.3432290000000009   F   F   F
  0.8333330000000032  0.1666669999999968  0.3432290000000009   F   F   F
  0.8333330000000032  0.4166669999999968  0.3432290000000009   F   F   F
  0.8333330000000032  0.6666669999999968  0.3432290000000009   F   F   F
  0.8333330000000032  0.9166669999999968  0.3432290000000009   F   F   F
  0.9994561104340747  0.9994066424400927  0.5911295450647245   T   T   T
  0.9998392849559750  0.2501488212855563  0.5923981410379824   T   T   T
  0.0001986252730291  0.5004925966536575  0.5917148270452088   T   T   T
  0.9998743248581405  0.7501380656986427  0.5913422891682032   T   T   T
  0.2498918532775889  0.0000258024497910  0.5924590136904158   T   T   T
  0.2507379147198066  0.2505653843050268  0.5903847019650215   T   T   T
  0.2497726214143583  0.5002896463585245  0.5912893640805024   T   T   T
  0.2495561507821904  0.7498298942779442  0.5917185286165676   T   T   T
  0.5002796134713989  0.0002512227090392  0.5917765671618298   T   T   T
  0.5000956906800909  0.2499608672695928  0.5912996328934312   T   T   T
  0.4994959728883899  0.4993260262769041  0.5903792413398250   T   T   T
  0.4998905142223649  0.7501876416224391  0.5923786790813139   T   T   T
  0.7496332370919419  0.0003720377050271  0.5912302459618459   T   T   T
  0.7497903864013722  0.2497720583658989  0.5917714369467575   T   T   T
  0.7500103638915405  0.5001510814846597  0.5924451653109557   T   T   T
  0.7506137871273779  0.7505748491165249  0.5911349568831099   T   T   T
  0.1665919549830761  0.0832751112680583  0.4672058092671918   T   T   T
  0.1663863841561763  0.3332663803227618  0.4672680797302462   T   T   T
  0.1665296649513550  0.5834855387114146  0.4673334172422585   T   T   T
  0.1668489801433282  0.8334522916736375  0.4673333378424971   T   T   T
  0.4162286217839082  0.0829737812576354  0.4675257178407008   T   T   T
  0.4167798748169886  0.3332474699571009  0.4664882191629829   T   T   T
  0.4167557999242746  0.5836341303275532  0.4672675126307340   T   T   T
  0.4165540436546067  0.8334795839051665  0.4678741719067290   T   T   T
  0.6664345861423584  0.0836080776061863  0.4672683301474478   T   T   T
  0.6670634437644907  0.3337883893700067  0.4675215951491083   T   T   T
  0.6667599233720125  0.5834436026776615  0.4672080992154832   T   T   T
  0.6665308519605873  0.8333062817889001  0.4673316619444776   T   T   T
  0.9167221572293514  0.0834950966792505  0.4673324567813211   T   T   T
  0.9165465058376867  0.3334754665526489  0.4678878223535961   T   T   T
  0.9165737126177973  0.5831712237305098  0.4673332597460771   T   T   T
  0.9166359430814595  0.8333910247841061  0.4670150132964110   T   T   T
  0.3010215198834771  0.4478822537758873  0.7830231540619863   T   T   T
  0.4483259787169587  0.5222067682121292  0.7842289537737983   T   T   T
  0.5223687464594988  0.4483557346718285  0.7845817157211954   T   T   T
  0.4480076830228938  0.3009522226248080  0.7837579163851700   T   T   T
  0.3006289584169579  0.2265413495754274  0.7844773526122424   T   T   T
  0.2267591290421862  0.3005687498803837  0.7840912794875123   T   T   T
  0.5403110833861930  0.7212649849921320  0.7816751414101972   T   T   T
  0.7213493000475211  0.5404875441915422  0.7824536650475338   T   T   T
  0.2086909363519638  0.0276093966666338  0.7822537466951758   T   T   T
  0.0276804590934603  0.2086434820985161  0.7812812923639356   T   T   T
 
  0.00000000E+00  0.00000000E+00  0.00000000E+00
  0.00000000E+00  0.00000000E+00  0.00000000E+00
  0.00000000E+00  0.00000000E+00  0.00000000E+00
  0.00000000E+00  0.00000000E+00  0.00000000E+00
  0.00000000E+00  0.00000000E+00  0.00000000E+00
  0.00000000E+00  0.00000000E+00  0.00000000E+00
  0.00000000E+00  0.00000000E+00  0.00000000E+00
  0.00000000E+00  0.00000000E+00  0.00000000E+00
  0.00000000E+00  0.00000000E+00  0.00000000E+00
  0.00000000E+00  0.00000000E+00  0.00000000E+00
  0.00000000E+00  0.00000000E+00  0.00000000E+00
  0.00000000E+00  0.00000000E+00  0.00000000E+00
  0.00000000E+00  0.00000000E+00  0.00000000E+00
  0.00000000E+00  0.00000000E+00  0.00000000E+00
  0.00000000E+00  0.00000000E+00  0.00000000E+00
  0.00000000E+00  0.00000000E+00  0.00000000E+00
  0.00000000E+00  0.00000000E+00  0.00000000E+00
  0.00000000E+00  0.00000000E+00  0.00000000E+00
  0.00000000E+00  0.00000000E+00  0.00000000E+00
  0.00000000E+00  0.00000000E+00  0.00000000E+00
  0.00000000E+00  0.00000000E+00  0.00000000E+00
  0.00000000E+00  0.00000000E+00  0.00000000E+00
  0.00000000E+00  0.00000000E+00  0.00000000E+00
  0.00000000E+00  0.00000000E+00  0.00000000E+00
  0.00000000E+00  0.00000000E+00  0.00000000E+00
  0.00000000E+00  0.00000000E+00  0.00000000E+00
  0.00000000E+00  0.00000000E+00  0.00000000E+00
  0.00000000E+00  0.00000000E+00  0.00000000E+00
  0.00000000E+00  0.00000000E+00  0.00000000E+00
  0.00000000E+00  0.00000000E+00  0.00000000E+00
  0.00000000E+00  0.00000000E+00  0.00000000E+00
  0.00000000E+00  0.00000000E+00  0.00000000E+00
  0.00000000E+00  0.00000000E+00  0.00000000E+00
  0.00000000E+00  0.00000000E+00  0.00000000E+00
  0.00000000E+00  0.00000000E+00  0.00000000E+00
  0.00000000E+00  0.00000000E+00  0.00000000E+00
  0.00000000E+00  0.00000000E+00  0.00000000E+00
  0.00000000E+00  0.00000000E+00  0.00000000E+00
  0.00000000E+00  0.00000000E+00  0.00000000E+00
  0.00000000E+00  0.00000000E+00  0.00000000E+00
  0.00000000E+00  0.00000000E+00  0.00000000E+00
  0.00000000E+00  0.00000000E+00  0.00000000E+00
  0.00000000E+00  0.00000000E+00  0.00000000E+00
  0.00000000E+00  0.00000000E+00  0.00000000E+00
  0.00000000E+00  0.00000000E+00  0.00000000E+00
  0.00000000E+00  0.00000000E+00  0.00000000E+00
  0.00000000E+00  0.00000000E+00  0.00000000E+00
  0.00000000E+00  0.00000000E+00  0.00000000E+00
  0.00000000E+00  0.00000000E+00  0.00000000E+00
  0.00000000E+00  0.00000000E+00  0.00000000E+00
  0.00000000E+00  0.00000000E+00  0.00000000E+00
  0.00000000E+00  0.00000000E+00  0.00000000E+00
  0.00000000E+00  0.00000000E+00  0.00000000E+00
  0.00000000E+00  0.00000000E+00  0.00000000E+00
  0.00000000E+00  0.00000000E+00  0.00000000E+00
  0.00000000E+00  0.00000000E+00  0.00000000E+00
  0.00000000E+00  0.00000000E+00  0.00000000E+00
  0.00000000E+00  0.00000000E+00  0.00000000E+00
  0.00000000E+00  0.00000000E+00  0.00000000E+00
  0.00000000E+00  0.00000000E+00  0.00000000E+00
