Pt  C  N  F                             
    1.000000000000000     
    11.2480068000000006    0.0000000000000000    0.0000000000000000
     0.0000000000000000   15.9070838000000006    0.0000000000000000
     0.0000000000000000    0.0000000000000000   22.2180025631249976
   Pt   C    N    F 
    64     4     2     4
Selective dynamics
Direct
  0.2500000008890453  0.2500000006286527  0.3375640982438100   F   F   F
  0.2500000008890453  0.5000000006286527  0.3375640982438100   F   F   F
  0.2500000008890453  0.7500000012572983  0.3375640982438100   F   F   F
  0.2500000008890453  0.0000000000000000  0.3375640982438100   F   F   F
  0.5000000017780906  0.5000000006286527  0.3375640982438100   F   F   F
  0.0000000035561882  0.0000000000000000  0.3375640982438100   F   F   F
  0.5000000017780906  0.7500000012572983  0.3375640982438100   F   F   F
  0.5000000017780906  0.0000000000000000  0.3375640982438100   F   F   F
  0.7500000026671358  0.0000000000000000  0.3375640982438100   F   F   F
  0.0000000035561882  0.7500000012572983  0.3375640982438100   F   F   F
  0.5000000017780906  0.2500000006286527  0.3375640982438100   F   F   F
  0.7500000026671358  0.2500000006286527  0.3375640982438100   F   F   F
  0.7500000026671358  0.5000000006286527  0.3375640982438100   F   F   F
  0.7500000026671358  0.7500000012572983  0.3375640982438100   F   F   F
  0.0000000035561882  0.2500000006286527  0.3375640982438100   F   F   F
  0.0000000035561882  0.5000000006286527  0.3375640982438100   F   F   F
  0.2499654710578494  0.2499239656344006  0.4679745165528371   T   T   T
  0.2498612785257741  0.4996026556819680  0.4680167764758117   T   T   T
  0.2495830534794808  0.7502880534443479  0.4678974459124053   T   T   T
  0.2500624020338700  0.0000086479992033  0.4679698900453633   T   T   T
  0.4999784515752787  0.2497485534513595  0.4678022892384768   T   T   T
  0.4999855586364239  0.5000012630350933  0.4680601485293416   T   T   T
  0.4999995234399988  0.7502459695437873  0.4677934813631447   T   T   T
  0.5000056013078529  0.9999895786775074  0.4680214439125052   T   T   T
  0.7504032367473719  0.2497108851927081  0.4678752212111005   T   T   T
  0.7501345076130381  0.5003905250183933  0.4679827768817006   T   T   T
  0.7500475723790219  0.7500803789116417  0.4679583220332348   T   T   T
  0.7499392978948183 -0.0000164852976103  0.4679709537619091   T   T   T
  0.0001235250645672  0.2499070354763202  0.4679742484592587   T   T   T
  0.0000227515174157  0.4999943531744400  0.4679263310632290   T   T   T
  0.9998921277688056  0.7501127348812553  0.4679866911207581   T   T   T
  0.0000001143179759 -0.0000101327567185  0.4679862341155304   T   T   T
  0.1251377532607869  0.1249791524018354  0.5259776160146030   T   T   T
  0.1246779678825909  0.3749601557007812  0.5259990342325098   T   T   T
  0.1243759887084401  0.6249200313593647  0.5258770794637254   T   T   T
  0.1248903134901520  0.8750896230642494  0.5260950746132405   T   T   T
  0.3751348412389398  0.1250931065647480  0.5260490149178073   T   T   T
  0.3746549738503975  0.3745373415089157  0.5263107302210736   T   T   T
  0.3738724574304748  0.6247882271007061  0.5247907354128704   T   T   T
  0.3749585744047720  0.8749004852358900  0.5260347280864838   T   T   T
  0.6250549291295269  0.1250957380070621  0.5260231809697825   T   T   T
  0.6261427247175758  0.3752172163680300  0.5247790415085873   T   T   T
  0.6253485779305452  0.6254743165158382  0.5262963952685734   T   T   T
  0.6248907515839991  0.8749031198882904  0.5260401607532397   T   T   T
  0.8750941271222505  0.1249321354873629  0.5260919756247336   T   T   T
  0.8755979654066109  0.3750791443495704  0.5258610744472927   T   T   T
  0.8752930482096541  0.6250235950299321  0.5259822220035657   T   T   T
  0.8748332729250452  0.8750031870841626  0.5260155011910518   T   T   T
  0.1250000000000000  0.1250000003143228  0.4008461529820977   F   F   F
  0.1250000000000000  0.3750000003143228  0.4008461529820977   F   F   F
  0.1250000008890453  0.6250000009429755  0.4008461529820977   F   F   F
  0.1250000008890453  0.8750000009429755  0.4008461529820977   F   F   F
  0.3750000008890453  0.1250000003143228  0.4008461529820977   F   F   F
  0.3750000008890453  0.3750000003143228  0.4008461529820977   F   F   F
  0.3750000008890453  0.6250000009429755  0.4008461529820977   F   F   F
  0.3750000008890453  0.8750000009429755  0.4008461529820977   F   F   F
  0.6250000017780906  0.1250000003143228  0.4008461529820977   F   F   F
  0.6250000017780906  0.3750000003143228  0.4008461529820977   F   F   F
  0.6250000017780906  0.6250000009429755  0.4008461529820977   F   F   F
  0.6250000026671358  0.8750000009429755  0.4008461529820977   F   F   F
  0.8750000026671358  0.1250000003143228  0.4008461529820977   F   F   F
  0.8750000026671358  0.3750000003143228  0.4008461529820977   F   F   F
  0.8750000035561882  0.6250000009429755  0.4008461529820977   F   F   F
  0.8750000026671358  0.8750000009429755  0.4008461529820977   F   F   F
  0.4550849002207934  0.5771943261256853  0.6542652196994044   T   T   T
  0.3820699554499947  0.5058063030583324  0.6535324093255191   T   T   T
  0.5449483702189909  0.4228091853142235  0.6542719280010642   T   T   T
  0.6179359201789419  0.4941558678799068  0.6535475922252570   T   T   T
  0.4277712435301955  0.4294201752288110  0.6531072294606357   T   T   T
  0.5722787106208097  0.5705806302788806  0.6531072128050263   T   T   T
  0.7365843524876153  0.4869006687657121  0.6549183235636846   T   T   T
  0.5917735515285654  0.3454404051974823  0.6604868963429621   T   T   T
  0.4082232901175676  0.6546011526240272  0.6604871888746772   T   T   T
  0.2633982970506124  0.5131094189339866  0.6549190021562195   T   T   T
 
  0.00000000E+00  0.00000000E+00  0.00000000E+00
  0.00000000E+00  0.00000000E+00  0.00000000E+00
  0.00000000E+00  0.00000000E+00  0.00000000E+00
  0.00000000E+00  0.00000000E+00  0.00000000E+00
  0.00000000E+00  0.00000000E+00  0.00000000E+00
  0.00000000E+00  0.00000000E+00  0.00000000E+00
  0.00000000E+00  0.00000000E+00  0.00000000E+00
  0.00000000E+00  0.00000000E+00  0.00000000E+00
  0.00000000E+00  0.00000000E+00  0.00000000E+00
  0.00000000E+00  0.00000000E+00  0.00000000E+00
  0.00000000E+00  0.00000000E+00  0.00000000E+00
  0.00000000E+00  0.00000000E+00  0.00000000E+00
  0.00000000E+00  0.00000000E+00  0.00000000E+00
  0.00000000E+00  0.00000000E+00  0.00000000E+00
  0.00000000E+00  0.00000000E+00  0.00000000E+00
  0.00000000E+00  0.00000000E+00  0.00000000E+00
  0.00000000E+00  0.00000000E+00  0.00000000E+00
  0.00000000E+00  0.00000000E+00  0.00000000E+00
  0.00000000E+00  0.00000000E+00  0.00000000E+00
  0.00000000E+00  0.00000000E+00  0.00000000E+00
  0.00000000E+00  0.00000000E+00  0.00000000E+00
  0.00000000E+00  0.00000000E+00  0.00000000E+00
  0.00000000E+00  0.00000000E+00  0.00000000E+00
  0.00000000E+00  0.00000000E+00  0.00000000E+00
  0.00000000E+00  0.00000000E+00  0.00000000E+00
  0.00000000E+00  0.00000000E+00  0.00000000E+00
  0.00000000E+00  0.00000000E+00  0.00000000E+00
  0.00000000E+00  0.00000000E+00  0.00000000E+00
  0.00000000E+00  0.00000000E+00  0.00000000E+00
  0.00000000E+00  0.00000000E+00  0.00000000E+00
  0.00000000E+00  0.00000000E+00  0.00000000E+00
  0.00000000E+00  0.00000000E+00  0.00000000E+00
  0.00000000E+00  0.00000000E+00  0.00000000E+00
  0.00000000E+00  0.00000000E+00  0.00000000E+00
  0.00000000E+00  0.00000000E+00  0.00000000E+00
  0.00000000E+00  0.00000000E+00  0.00000000E+00
  0.00000000E+00  0.00000000E+00  0.00000000E+00
  0.00000000E+00  0.00000000E+00  0.00000000E+00
  0.00000000E+00  0.00000000E+00  0.00000000E+00
  0.00000000E+00  0.00000000E+00  0.00000000E+00
  0.00000000E+00  0.00000000E+00  0.00000000E+00
  0.00000000E+00  0.00000000E+00  0.00000000E+00
  0.00000000E+00  0.00000000E+00  0.00000000E+00
  0.00000000E+00  0.00000000E+00  0.00000000E+00
  0.00000000E+00  0.00000000E+00  0.00000000E+00
  0.00000000E+00  0.00000000E+00  0.00000000E+00
  0.00000000E+00  0.00000000E+00  0.00000000E+00
  0.00000000E+00  0.00000000E+00  0.00000000E+00
  0.00000000E+00  0.00000000E+00  0.00000000E+00
  0.00000000E+00  0.00000000E+00  0.00000000E+00
  0.00000000E+00  0.00000000E+00  0.00000000E+00
  0.00000000E+00  0.00000000E+00  0.00000000E+00
  0.00000000E+00  0.00000000E+00  0.00000000E+00
  0.00000000E+00  0.00000000E+00  0.00000000E+00
  0.00000000E+00  0.00000000E+00  0.00000000E+00
  0.00000000E+00  0.00000000E+00  0.00000000E+00
  0.00000000E+00  0.00000000E+00  0.00000000E+00
  0.00000000E+00  0.00000000E+00  0.00000000E+00
  0.00000000E+00  0.00000000E+00  0.00000000E+00
  0.00000000E+00  0.00000000E+00  0.00000000E+00
  0.00000000E+00  0.00000000E+00  0.00000000E+00
  0.00000000E+00  0.00000000E+00  0.00000000E+00
  0.00000000E+00  0.00000000E+00  0.00000000E+00
  0.00000000E+00  0.00000000E+00  0.00000000E+00
  0.00000000E+00  0.00000000E+00  0.00000000E+00
  0.00000000E+00  0.00000000E+00  0.00000000E+00
  0.00000000E+00  0.00000000E+00  0.00000000E+00
  0.00000000E+00  0.00000000E+00  0.00000000E+00
  0.00000000E+00  0.00000000E+00  0.00000000E+00
  0.00000000E+00  0.00000000E+00  0.00000000E+00
  0.00000000E+00  0.00000000E+00  0.00000000E+00
  0.00000000E+00  0.00000000E+00  0.00000000E+00
  0.00000000E+00  0.00000000E+00  0.00000000E+00
  0.00000000E+00  0.00000000E+00  0.00000000E+00
