Cu  C  H Cl                             
    1.000000000000000     
    10.2424774999999997    0.0000000000000000    0.0000000000000000
     0.0000000000000000   10.2424774999999997    0.0000000000000000
     0.0000000000000000    0.0000000000000000   23.4318939600000000
   Cu   C    H    Cl
    64     6     2     4
Selective dynamics
Direct
  0.2499999995118358  0.0000000000000000  0.3200765594451340   F   F   F
  0.0000000000000000  0.4999999990236716  0.3200765594451340   F   F   F
  0.2499999995118358  0.2499999995118358  0.3200765594451340   F   F   F
  0.2499999995118358  0.4999999990236716  0.3200765594451340   F   F   F
  0.2499999995118358  0.7499999985355075  0.3200765594451340   F   F   F
  0.4999999990236716  0.0000000000000000  0.3200765594451340   F   F   F
  0.4999999990236716  0.2499999995118358  0.3200765594451340   F   F   F
  0.0000000000000000  0.7499999985355075  0.3200765594451340   F   F   F
  0.4999999990236716  0.4999999990236716  0.3200765594451340   F   F   F
  0.4999999990236716  0.7499999985355075  0.3200765594451340   F   F   F
  0.7499999985355075  0.0000000000000000  0.3200765594451340   F   F   F
  0.7499999985355075  0.2499999995118358  0.3200765594451340   F   F   F
  0.7499999985355075  0.4999999990236716  0.3200765594451340   F   F   F
  0.7499999985355075  0.7499999985355075  0.3200765594451340   F   F   F
  0.0000000000000000  0.0000000000000000  0.3200765594451340   F   F   F
  0.0000000000000000  0.2499999995118358  0.3200765594451340   F   F   F
  0.2500421843173712  0.9998684098918309  0.4741194203500583   T   T   T
  0.2499913703978440  0.2499941392967956  0.4740932331664564   T   T   T
  0.2497717014969598  0.4998471265383182  0.4740282683629122   T   T   T
  0.2499587128052307  0.7500402902098049  0.4740963236465165   T   T   T
  0.4999993571348660  0.0000022045412321  0.4741549436439905   T   T   T
  0.4998462219401089  0.2497760019085527  0.4740280940026581   T   T   T
  0.4999993519347853  0.4999989763179992  0.4738843042078581   T   T   T
  0.5001496192899159  0.7502281808084866  0.4740276595224597   T   T   T
  0.7499516031328803  0.0001360797985408  0.4741171344712139   T   T   T
  0.7500364938563682  0.2499633026516469  0.4740972655212127   T   T   T
  0.7502244634494893  0.5001508272681489  0.4740286101153040   T   T   T
  0.7499951213025795  0.7499988075670672  0.4740989055921864   T   T   T
 -0.0000011049417736  0.0000015908974083  0.4740267199632303   T   T   T
  0.9998637778932823  0.2500435754568718  0.4741201684235792   T   T   T
  0.9999975786287461  0.4999990239723794  0.4741561875334998   T   T   T
  0.0001333824084225  0.7499612115652929  0.4741216550660423   T   T   T
  0.1250197828611486  0.1250223095533644  0.5496807688071064   T   T   T
  0.1249506267735904  0.3746432803448315  0.5496380916370605   T   T   T
  0.1250386985702865  0.6249440495383838  0.5497945896645525   T   T   T
  0.1248923079790932  0.8751054252966149  0.5496318329493911   T   T   T
  0.3746401400446703  0.1249552770308815  0.5496376881212580   T   T   T
  0.3748521021699785  0.3748541316693199  0.5495939910037131   T   T   T
  0.3753365735850661  0.6246631008829805  0.5486607325700693   T   T   T
  0.3750545659049601  0.8749600904872897  0.5497953821173289   T   T   T
  0.6249400207561402  0.1250451920790603  0.5497964842948821   T   T   T
  0.6246604784194824  0.3753400814142116  0.5486636104653746   T   T   T
  0.6251438537830820  0.6251451802362310  0.5495949254347420   T   T   T
  0.6253550447004178  0.8750487671538588  0.5496401974488303   T   T   T
  0.8751036078497173  0.1248982610532274  0.5496353763832871   T   T   T
  0.8749543719135240  0.3750599079634763  0.5497965631593942   T   T   T
  0.8750443557180412  0.6253571137068932  0.5496388009889662   T   T   T
  0.8749787753149659  0.8749787389813359  0.5496818621542595   T   T   T
  0.1250000002440785  0.1249999992677573  0.3973486452223582   F   F   F
  0.1250000002440785  0.3749999997559215  0.3973486452223582   F   F   F
  0.1250000002440785  0.6249999982914289  0.3973486452223582   F   F   F
  0.1250000002440785  0.8749999987795931  0.3973486452223582   F   F   F
  0.3749999997559215  0.1249999992677573  0.3973486452223582   F   F   F
  0.3749999997559215  0.3749999997559215  0.3973486452223582   F   F   F
  0.3749999997559215  0.6249999982914289  0.3973486452223582   F   F   F
  0.3749999997559215  0.8749999987795931  0.3973486452223582   F   F   F
  0.6249999982914289  0.1249999992677573  0.3973486452223582   F   F   F
  0.6249999982914289  0.3749999997559215  0.3973486452223582   F   F   F
  0.6249999992677573  0.6249999982914289  0.3973486452223582   F   F   F
  0.6249999992677573  0.8749999987795931  0.3973486452223582   F   F   F
  0.8749999987795931  0.1249999992677573  0.3973486452223582   F   F   F
  0.8749999978032648  0.3749999997559215  0.3973486452223582   F   F   F
  0.8749999987795931  0.6249999982914289  0.3973486452223582   F   F   F
  0.8749999987795931  0.8749999987795931  0.3973486452223582   F   F   F
  0.5962907937954565  0.5962337607956455  0.6745220070119329   T   T   T
  0.6325113803529204  0.4645545043865473  0.6758191239747193   T   T   T
  0.5354146123568453  0.3674907740806632  0.6758117211972239   T   T   T
  0.4037460879764912  0.4037374552668463  0.6745073917972254   T   T   T
  0.3675187694463161  0.5354202562042133  0.6757973709419118   T   T   T
  0.4646128172168101  0.6324612069259626  0.6758049724606240   T   T   T
  0.6715329650069727  0.6715088057347572  0.6748063064561063   T   T   T
  0.3284724036063261  0.3284826485164907  0.6747864953977802   T   T   T
  0.7955846246279424  0.4256595518793116  0.6783182572044353   T   T   T
  0.5743115911804111  0.2044128002814287  0.6782877930281890   T   T   T
  0.2044600624669801  0.5743959453356520  0.6782867161369522   T   T   T
  0.4257254491811100  0.7955367424970240  0.6783065868556086   T   T   T
 
  0.00000000E+00  0.00000000E+00  0.00000000E+00
  0.00000000E+00  0.00000000E+00  0.00000000E+00
  0.00000000E+00  0.00000000E+00  0.00000000E+00
  0.00000000E+00  0.00000000E+00  0.00000000E+00
  0.00000000E+00  0.00000000E+00  0.00000000E+00
  0.00000000E+00  0.00000000E+00  0.00000000E+00
  0.00000000E+00  0.00000000E+00  0.00000000E+00
  0.00000000E+00  0.00000000E+00  0.00000000E+00
  0.00000000E+00  0.00000000E+00  0.00000000E+00
  0.00000000E+00  0.00000000E+00  0.00000000E+00
  0.00000000E+00  0.00000000E+00  0.00000000E+00
  0.00000000E+00  0.00000000E+00  0.00000000E+00
  0.00000000E+00  0.00000000E+00  0.00000000E+00
  0.00000000E+00  0.00000000E+00  0.00000000E+00
  0.00000000E+00  0.00000000E+00  0.00000000E+00
  0.00000000E+00  0.00000000E+00  0.00000000E+00
  0.00000000E+00  0.00000000E+00  0.00000000E+00
  0.00000000E+00  0.00000000E+00  0.00000000E+00
  0.00000000E+00  0.00000000E+00  0.00000000E+00
  0.00000000E+00  0.00000000E+00  0.00000000E+00
  0.00000000E+00  0.00000000E+00  0.00000000E+00
  0.00000000E+00  0.00000000E+00  0.00000000E+00
  0.00000000E+00  0.00000000E+00  0.00000000E+00
  0.00000000E+00  0.00000000E+00  0.00000000E+00
  0.00000000E+00  0.00000000E+00  0.00000000E+00
  0.00000000E+00  0.00000000E+00  0.00000000E+00
  0.00000000E+00  0.00000000E+00  0.00000000E+00
  0.00000000E+00  0.00000000E+00  0.00000000E+00
  0.00000000E+00  0.00000000E+00  0.00000000E+00
  0.00000000E+00  0.00000000E+00  0.00000000E+00
  0.00000000E+00  0.00000000E+00  0.00000000E+00
  0.00000000E+00  0.00000000E+00  0.00000000E+00
  0.00000000E+00  0.00000000E+00  0.00000000E+00
  0.00000000E+00  0.00000000E+00  0.00000000E+00
  0.00000000E+00  0.00000000E+00  0.00000000E+00
  0.00000000E+00  0.00000000E+00  0.00000000E+00
  0.00000000E+00  0.00000000E+00  0.00000000E+00
  0.00000000E+00  0.00000000E+00  0.00000000E+00
  0.00000000E+00  0.00000000E+00  0.00000000E+00
  0.00000000E+00  0.00000000E+00  0.00000000E+00
  0.00000000E+00  0.00000000E+00  0.00000000E+00
  0.00000000E+00  0.00000000E+00  0.00000000E+00
  0.00000000E+00  0.00000000E+00  0.00000000E+00
  0.00000000E+00  0.00000000E+00  0.00000000E+00
  0.00000000E+00  0.00000000E+00  0.00000000E+00
  0.00000000E+00  0.00000000E+00  0.00000000E+00
  0.00000000E+00  0.00000000E+00  0.00000000E+00
  0.00000000E+00  0.00000000E+00  0.00000000E+00
  0.00000000E+00  0.00000000E+00  0.00000000E+00
  0.00000000E+00  0.00000000E+00  0.00000000E+00
  0.00000000E+00  0.00000000E+00  0.00000000E+00
  0.00000000E+00  0.00000000E+00  0.00000000E+00
  0.00000000E+00  0.00000000E+00  0.00000000E+00
  0.00000000E+00  0.00000000E+00  0.00000000E+00
  0.00000000E+00  0.00000000E+00  0.00000000E+00
  0.00000000E+00  0.00000000E+00  0.00000000E+00
  0.00000000E+00  0.00000000E+00  0.00000000E+00
  0.00000000E+00  0.00000000E+00  0.00000000E+00
  0.00000000E+00  0.00000000E+00  0.00000000E+00
  0.00000000E+00  0.00000000E+00  0.00000000E+00
  0.00000000E+00  0.00000000E+00  0.00000000E+00
  0.00000000E+00  0.00000000E+00  0.00000000E+00
  0.00000000E+00  0.00000000E+00  0.00000000E+00
  0.00000000E+00  0.00000000E+00  0.00000000E+00
  0.00000000E+00  0.00000000E+00  0.00000000E+00
  0.00000000E+00  0.00000000E+00  0.00000000E+00
  0.00000000E+00  0.00000000E+00  0.00000000E+00
  0.00000000E+00  0.00000000E+00  0.00000000E+00
  0.00000000E+00  0.00000000E+00  0.00000000E+00
  0.00000000E+00  0.00000000E+00  0.00000000E+00
  0.00000000E+00  0.00000000E+00  0.00000000E+00
  0.00000000E+00  0.00000000E+00  0.00000000E+00
  0.00000000E+00  0.00000000E+00  0.00000000E+00
  0.00000000E+00  0.00000000E+00  0.00000000E+00
  0.00000000E+00  0.00000000E+00  0.00000000E+00
  0.00000000E+00  0.00000000E+00  0.00000000E+00
