Ag48 H2 C6 Br4                          
    1.000000000000000     
    11.7678089999999997    0.0000000000000000    0.0000000000000000
    -5.8839040000000002   10.1912210000000005    0.0000000000000000
     0.0000000000000000    0.0000000000000000   17.8099020000000010
   Ag   H    C    Br
    48     2     6     4
Selective dynamics
Direct
  0.0833330000000032  0.1666669999999968  0.3368910000000014   F   F   F
  0.0833330000000032  0.4166669999999968  0.3368910000000014   F   F   F
  0.0833330000000032  0.6666669999999968  0.3368910000000014   F   F   F
  0.0833330000000032  0.9166669999999968  0.3368910000000014   F   F   F
  0.3333330000000032  0.1666669999999968  0.3368910000000014   F   F   F
  0.3333330000000032  0.4166669999999968  0.3368910000000014   F   F   F
  0.3333330000000032  0.6666669999999968  0.3368910000000014   F   F   F
  0.3333330000000032  0.9166669999999968  0.3368910000000014   F   F   F
  0.5833330000000032  0.1666669999999968  0.3368910000000014   F   F   F
  0.5833330000000032  0.4166669999999968  0.3368910000000014   F   F   F
  0.5833330000000032  0.6666669999999968  0.3368910000000014   F   F   F
  0.5833330000000032  0.9166669999999968  0.3368910000000014   F   F   F
  0.8333330000000032  0.1666669999999968  0.3368910000000014   F   F   F
  0.8333330000000032  0.4166669999999968  0.3368910000000014   F   F   F
  0.8333330000000032  0.6666669999999968  0.3368910000000014   F   F   F
  0.8333330000000032  0.9166669999999968  0.3368910000000014   F   F   F
  0.2501785401421017  0.2501458831262440  0.5883365920291084   T   T   T
  0.2499849756056634  0.4999803020527054  0.5893010381654378   T   T   T
  0.2500957756756748  0.7499155722979509  0.5896383508150365   T   T   T
  0.2499193185238084  0.9999316293836031  0.5900016266763828   T   T   T
  0.4998566985601656  0.2500760821042505  0.5892848718107402   T   T   T
  0.4997341035593053  0.4997222122742855  0.5883092374173060   T   T   T
  0.4998972469797565  0.7498569109157458  0.5900247772769021   T   T   T
  0.4999329030723345  0.0001509501102603  0.5896401833497649   T   T   T
  0.7498770920773552  0.2500896716074692  0.5896525592211788   T   T   T
  0.7499801339521355  0.5000176157186900  0.5899980652586763   T   T   T
  0.7498806529901287  0.7498405318034784  0.5896055551991566   T   T   T
  0.7498814288268036  0.0000695255645269  0.5895056878241363   T   T   T
  0.0000832787991314  0.2500463519796270  0.5900226296131734   T   T   T
  0.0001167690030215  0.4999306731114288  0.5896214307380845   T   T   T
  0.0000475191323375  0.7498999008390186  0.5894986576376837   T   T   T
  0.0000336836915054  0.9999908135354687  0.5895822964038118   T   T   T
  0.1665097232236192  0.0826103504637814  0.4631577757871881   T   T   T
  0.1660092493561578  0.3332428926149476  0.4631046726569323   T   T   T
  0.1665609470179703  0.5835134552491326  0.4632050321968819   T   T   T
  0.1668353677317072  0.8334537418193193  0.4633633037605094   T   T   T
  0.4162865558121851  0.0829914655075896  0.4633321860216384   T   T   T
  0.4167773710874485  0.3331028332880308  0.4627254814983104   T   T   T
  0.4166977527867104  0.5839968415805217  0.4630941419992425   T   T   T
  0.4168179003019858  0.8333194702509701  0.4634118335912305   T   T   T
  0.6666692830243832  0.0833945818231783  0.4632329060187246   T   T   T
  0.6669779243900464  0.3336383394423166  0.4633315253815695   T   T   T
  0.6673597860970801  0.5834994776395845  0.4631547959953437   T   T   T
  0.6663672607524234  0.8331849006297887  0.4633942814166829   T   T   T
  0.9167669955616518  0.0836283436744409  0.4633843295148665   T   T   T
  0.9165974834594479  0.3331035498558208  0.4634073868544064   T   T   T
  0.9164807891474567  0.5831537643980695  0.4633652138710076   T   T   T
  0.9166058430292523  0.8332547969517563  0.4633455116827676   T   T   T
  0.2532395605311137  0.4969753581710208  0.7740665198089971   T   T   T
  0.4969430433945377  0.2532435727945028  0.7740918554904113   T   T   T
  0.3066743307353832  0.4435261072648586  0.7765910121681614   T   T   T
  0.4438024949538502  0.5126387526662910  0.7779089812372959   T   T   T
  0.5126232496236796  0.4438015858295614  0.7779165084590005   T   T   T
  0.4435251085316096  0.3066746628486641  0.7765847275104392   T   T   T
  0.3063391607822439  0.2375282294198442  0.7778341249038050   T   T   T
  0.2375621347171446  0.3063783480810400  0.7778384173149746   T   T   T
  0.5304883236077416  0.6982299658939439  0.7770501870589399   T   T   T
  0.6982349437069928  0.5304904894061409  0.7770334360640874   T   T   T
  0.2197351827004752  0.0520603672002480  0.7768292826888796   T   T   T
  0.0520258968966800  0.2197503959730156  0.7769186930096978   T   T   T
 
  0.00000000E+00  0.00000000E+00  0.00000000E+00
  0.00000000E+00  0.00000000E+00  0.00000000E+00
  0.00000000E+00  0.00000000E+00  0.00000000E+00
  0.00000000E+00  0.00000000E+00  0.00000000E+00
  0.00000000E+00  0.00000000E+00  0.00000000E+00
  0.00000000E+00  0.00000000E+00  0.00000000E+00
  0.00000000E+00  0.00000000E+00  0.00000000E+00
  0.00000000E+00  0.00000000E+00  0.00000000E+00
  0.00000000E+00  0.00000000E+00  0.00000000E+00
  0.00000000E+00  0.00000000E+00  0.00000000E+00
  0.00000000E+00  0.00000000E+00  0.00000000E+00
  0.00000000E+00  0.00000000E+00  0.00000000E+00
  0.00000000E+00  0.00000000E+00  0.00000000E+00
  0.00000000E+00  0.00000000E+00  0.00000000E+00
  0.00000000E+00  0.00000000E+00  0.00000000E+00
  0.00000000E+00  0.00000000E+00  0.00000000E+00
  0.00000000E+00  0.00000000E+00  0.00000000E+00
  0.00000000E+00  0.00000000E+00  0.00000000E+00
  0.00000000E+00  0.00000000E+00  0.00000000E+00
  0.00000000E+00  0.00000000E+00  0.00000000E+00
  0.00000000E+00  0.00000000E+00  0.00000000E+00
  0.00000000E+00  0.00000000E+00  0.00000000E+00
  0.00000000E+00  0.00000000E+00  0.00000000E+00
  0.00000000E+00  0.00000000E+00  0.00000000E+00
  0.00000000E+00  0.00000000E+00  0.00000000E+00
  0.00000000E+00  0.00000000E+00  0.00000000E+00
  0.00000000E+00  0.00000000E+00  0.00000000E+00
  0.00000000E+00  0.00000000E+00  0.00000000E+00
  0.00000000E+00  0.00000000E+00  0.00000000E+00
  0.00000000E+00  0.00000000E+00  0.00000000E+00
  0.00000000E+00  0.00000000E+00  0.00000000E+00
  0.00000000E+00  0.00000000E+00  0.00000000E+00
  0.00000000E+00  0.00000000E+00  0.00000000E+00
  0.00000000E+00  0.00000000E+00  0.00000000E+00
  0.00000000E+00  0.00000000E+00  0.00000000E+00
  0.00000000E+00  0.00000000E+00  0.00000000E+00
  0.00000000E+00  0.00000000E+00  0.00000000E+00
  0.00000000E+00  0.00000000E+00  0.00000000E+00
  0.00000000E+00  0.00000000E+00  0.00000000E+00
  0.00000000E+00  0.00000000E+00  0.00000000E+00
  0.00000000E+00  0.00000000E+00  0.00000000E+00
  0.00000000E+00  0.00000000E+00  0.00000000E+00
  0.00000000E+00  0.00000000E+00  0.00000000E+00
  0.00000000E+00  0.00000000E+00  0.00000000E+00
  0.00000000E+00  0.00000000E+00  0.00000000E+00
  0.00000000E+00  0.00000000E+00  0.00000000E+00
  0.00000000E+00  0.00000000E+00  0.00000000E+00
  0.00000000E+00  0.00000000E+00  0.00000000E+00
  0.00000000E+00  0.00000000E+00  0.00000000E+00
  0.00000000E+00  0.00000000E+00  0.00000000E+00
  0.00000000E+00  0.00000000E+00  0.00000000E+00
  0.00000000E+00  0.00000000E+00  0.00000000E+00
  0.00000000E+00  0.00000000E+00  0.00000000E+00
  0.00000000E+00  0.00000000E+00  0.00000000E+00
  0.00000000E+00  0.00000000E+00  0.00000000E+00
  0.00000000E+00  0.00000000E+00  0.00000000E+00
  0.00000000E+00  0.00000000E+00  0.00000000E+00
  0.00000000E+00  0.00000000E+00  0.00000000E+00
  0.00000000E+00  0.00000000E+00  0.00000000E+00
  0.00000000E+00  0.00000000E+00  0.00000000E+00
