Pd48 C4 N2 F4                           
    1.000000000000000     
    11.1817229999999999    0.0000000000000000    0.0000000000000000
     0.0000000000000000   11.1817229999999999    0.0000000000000000
     0.0000000000000000    0.0000000000000000   16.9003602499999985
   Pd   C    N    F 
    48     4     2     4
Selective dynamics
Direct
  0.9999820096161542  0.2500759617647148  0.4111493983152883   T   T   T
  0.9999997987769547  0.4999969914017228  0.4111662891677597   T   T   T
  0.0000172737930839  0.7499265721880022  0.4111477877730323   T   T   T
  0.0000016697394258  0.0000010066790210  0.4111035142379507   T   T   T
  0.2500524385766099  0.2500538407452666  0.4111613546434540   T   T   T
  0.2497409553724452  0.4994814604884183  0.4109692227023984   T   T   T
  0.2498148840723076  0.7501884102307059  0.4109759615489637   T   T   T
  0.2500764486004599  0.9999831442580245  0.4111474659231931   T   T   T
  0.4994851795205193  0.2497418742693327  0.4109627872164054   T   T   T
  0.5000006723011836  0.4999980502369965  0.4110408942546186   T   T   T
  0.5005149096363724  0.7502613098706732  0.4109710732824894   T   T   T
  0.4999970361932569  0.9999990244583259  0.4111593036769179   T   T   T
  0.7501863739137207  0.2498175703456980  0.4109712563896295   T   T   T
  0.7502581184358874  0.5005115389805255  0.4109705157070280   T   T   T
  0.7499464664033297  0.7499462941173860  0.4111630313516059   T   T   T
  0.7499248456890300  0.0000187889663223  0.4111422881453848   T   T   T
  0.1250329959727523  0.1250324344312119  0.5263785558788356   T   T   T
  0.1247190143458781  0.3750334725404514  0.5263454811768185   T   T   T
  0.1252349434403612  0.6249094083497724  0.5266205319422994   T   T   T
  0.1250372250200229  0.8749636058258048  0.5263749535090838   T   T   T
  0.3750339287548314  0.1247191257099800  0.5263399918676797   T   T   T
  0.3744097713846912  0.3744107791976745  0.5278153962631009   T   T   T
  0.3753214807984904  0.6246785065596754  0.5247422375568647   T   T   T
  0.3750906322206760  0.8747651743620253  0.5266245406085659   T   T   T
  0.6249085332121425  0.1252346008901739  0.5266093310287658   T   T   T
  0.6246789788143303  0.3753217547246308  0.5247372110712121   T   T   T
  0.6255921134224565  0.6255882656051455  0.5278141602241533   T   T   T
  0.6249666148598720  0.8752828276248792  0.5263386898596636   T   T   T
  0.8749625856277987  0.1250366429510237  0.5263696447350128   T   T   T
  0.8747638985423691  0.3750934601915077  0.5266192411616402   T   T   T
  0.8752803679018015  0.6249654565855423  0.5263406125716301   T   T   T
  0.8749674193491828  0.8749673420578716  0.5263782535973434   T   T   T
  0.1249999995528412  0.1249999995528412  0.2958516816231764   F   F   F
  0.1249999995528412  0.3749999986585237  0.2958516816231764   F   F   F
  0.1249999995528412  0.6249999977642062  0.2958516816231764   F   F   F
  0.1249999995528412  0.8749999968698887  0.2958516816231764   F   F   F
  0.3749999986585237  0.1249999995528412  0.2958516816231764   F   F   F
  0.3749999986585237  0.3749999986585237  0.2958516816231764   F   F   F
  0.3749999986585237  0.6249999977642062  0.2958516816231764   F   F   F
  0.3749999986585237  0.8749999968698887  0.2958516816231764   F   F   F
  0.6249999977642062  0.1249999995528412  0.2958516816231764   F   F   F
  0.6249999977642062  0.3749999986585237  0.2958516816231764   F   F   F
  0.6249999977642062  0.6249999977642062  0.2958516816231764   F   F   F
  0.6249999977642062  0.8749999968698887  0.2958516816231764   F   F   F
  0.8749999968698887  0.1249999995528412  0.2958516816231764   F   F   F
  0.8749999968698887  0.3749999986585237  0.2958516816231764   F   F   F
  0.8749999968698887  0.6249999977642062  0.2958516816231764   F   F   F
  0.8749999968698887  0.8749999968698887  0.2958516816231764   F   F   F
  0.5270610938712110  0.3842744670337126  0.7030854347431870   T   T   T
  0.6157459092666997  0.4729126981192664  0.7030853991644506   T   T   T
  0.4729433306244957  0.6157272696967837  0.7030856812380222   T   T   T
  0.3842614437466878  0.5270906409449196  0.7030854127556836   T   T   T
  0.5876672296053158  0.5876633266881868  0.7027223323682108   T   T   T
  0.4123284752956167  0.4123432403419258  0.7027218518252241   T   T   T
  0.2677850023900064  0.5561354712409354  0.7062986573972765   T   T   T
  0.4439130890588388  0.7322641198799360  0.7063018503996190   T   T   T
  0.5560880439723661  0.2677244250178532  0.7062997959893167   T   T   T
  0.7322269061139224  0.4438667964337526  0.7062990083136214   T   T   T
 
  0.00000000E+00  0.00000000E+00  0.00000000E+00
  0.00000000E+00  0.00000000E+00  0.00000000E+00
  0.00000000E+00  0.00000000E+00  0.00000000E+00
  0.00000000E+00  0.00000000E+00  0.00000000E+00
  0.00000000E+00  0.00000000E+00  0.00000000E+00
  0.00000000E+00  0.00000000E+00  0.00000000E+00
  0.00000000E+00  0.00000000E+00  0.00000000E+00
  0.00000000E+00  0.00000000E+00  0.00000000E+00
  0.00000000E+00  0.00000000E+00  0.00000000E+00
  0.00000000E+00  0.00000000E+00  0.00000000E+00
  0.00000000E+00  0.00000000E+00  0.00000000E+00
  0.00000000E+00  0.00000000E+00  0.00000000E+00
  0.00000000E+00  0.00000000E+00  0.00000000E+00
  0.00000000E+00  0.00000000E+00  0.00000000E+00
  0.00000000E+00  0.00000000E+00  0.00000000E+00
  0.00000000E+00  0.00000000E+00  0.00000000E+00
  0.00000000E+00  0.00000000E+00  0.00000000E+00
  0.00000000E+00  0.00000000E+00  0.00000000E+00
  0.00000000E+00  0.00000000E+00  0.00000000E+00
  0.00000000E+00  0.00000000E+00  0.00000000E+00
  0.00000000E+00  0.00000000E+00  0.00000000E+00
  0.00000000E+00  0.00000000E+00  0.00000000E+00
  0.00000000E+00  0.00000000E+00  0.00000000E+00
  0.00000000E+00  0.00000000E+00  0.00000000E+00
  0.00000000E+00  0.00000000E+00  0.00000000E+00
  0.00000000E+00  0.00000000E+00  0.00000000E+00
  0.00000000E+00  0.00000000E+00  0.00000000E+00
  0.00000000E+00  0.00000000E+00  0.00000000E+00
  0.00000000E+00  0.00000000E+00  0.00000000E+00
  0.00000000E+00  0.00000000E+00  0.00000000E+00
  0.00000000E+00  0.00000000E+00  0.00000000E+00
  0.00000000E+00  0.00000000E+00  0.00000000E+00
  0.00000000E+00  0.00000000E+00  0.00000000E+00
  0.00000000E+00  0.00000000E+00  0.00000000E+00
  0.00000000E+00  0.00000000E+00  0.00000000E+00
  0.00000000E+00  0.00000000E+00  0.00000000E+00
  0.00000000E+00  0.00000000E+00  0.00000000E+00
  0.00000000E+00  0.00000000E+00  0.00000000E+00
  0.00000000E+00  0.00000000E+00  0.00000000E+00
  0.00000000E+00  0.00000000E+00  0.00000000E+00
  0.00000000E+00  0.00000000E+00  0.00000000E+00
  0.00000000E+00  0.00000000E+00  0.00000000E+00
  0.00000000E+00  0.00000000E+00  0.00000000E+00
  0.00000000E+00  0.00000000E+00  0.00000000E+00
  0.00000000E+00  0.00000000E+00  0.00000000E+00
  0.00000000E+00  0.00000000E+00  0.00000000E+00
  0.00000000E+00  0.00000000E+00  0.00000000E+00
  0.00000000E+00  0.00000000E+00  0.00000000E+00
  0.00000000E+00  0.00000000E+00  0.00000000E+00
  0.00000000E+00  0.00000000E+00  0.00000000E+00
  0.00000000E+00  0.00000000E+00  0.00000000E+00
  0.00000000E+00  0.00000000E+00  0.00000000E+00
  0.00000000E+00  0.00000000E+00  0.00000000E+00
  0.00000000E+00  0.00000000E+00  0.00000000E+00
  0.00000000E+00  0.00000000E+00  0.00000000E+00
  0.00000000E+00  0.00000000E+00  0.00000000E+00
  0.00000000E+00  0.00000000E+00  0.00000000E+00
  0.00000000E+00  0.00000000E+00  0.00000000E+00
