Rh  C  H  F                             
    1.000000000000000     
    10.8856652999999994    0.0000000000000000    0.0000000000000000
     0.0000000000000000   15.3946555000000007    0.0000000000000000
     0.0000000000000000    0.0000000000000000   22.0821244799999974
   Rh   C    H    F 
    64     6     4     2
Selective dynamics
Direct
  0.2500000004593161  0.2500000003247891  0.3396412336499992   F   F   F
  0.0000000018372788  0.7500000016239383  0.3396412336499992   F   F   F
  0.2500000004593161  0.5000000012991492  0.3396412336499992   F   F   F
  0.2500000004593161  0.7500000016239383  0.3396412336499992   F   F   F
  0.2500000004593161  0.0000000019487274  0.3396412336499992   F   F   F
  0.5000000009186394  0.2500000003247891  0.3396412336499992   F   F   F
  0.5000000009186394  0.5000000012991492  0.3396412336499992   F   F   F
  0.0000000018372788  0.0000000019487274  0.3396412336499992   F   F   F
  0.5000000009186394  0.7500000016239383  0.3396412336499992   F   F   F
  0.5000000009186394  0.0000000019487274  0.3396412336499992   F   F   F
  0.7500000013779555  0.2500000003247891  0.3396412336499992   F   F   F
  0.7500000013779555  0.5000000012991492  0.3396412336499992   F   F   F
  0.7500000013779555  0.7500000016239383  0.3396412336499992   F   F   F
  0.7500000013779555  0.0000000019487274  0.3396412336499992   F   F   F
  0.0000000018372788  0.2500000003247891  0.3396412336499992   F   F   F
  0.0000000018372788  0.5000000012991492  0.3396412336499992   F   F   F
  0.2510736640408103  0.2513826977179368  0.4593332026878298   T   T   T
  0.2494250136987036  0.5000507229674215  0.4580640537354768   T   T   T
  0.2503260062659336  0.7489649100054820  0.4590900403562566   T   T   T
  0.2500751387282996 -0.0000592220331746  0.4591239769203220   T   T   T
  0.5001297819347343  0.2516547839728218  0.4590503547356742   T   T   T
  0.4999881016665083  0.5000017154866651  0.4562064887449215   T   T   T
  0.4998562301881997  0.7483089691350940  0.4590733487444185   T   T   T
  0.4999850817491018 -0.0000025210940107  0.4593420591048381   T   T   T
  0.7496804036447848  0.2510155177511878  0.4590817663246959   T   T   T
  0.7506378533036454  0.4999145890670389  0.4580637754196051   T   T   T
  0.7489427989232803  0.7485966585468934  0.4593267861894000   T   T   T
  0.7499274056030750  0.0000572543662084  0.4591044392602426   T   T   T
  0.0006081914339257  0.2504692278680931  0.4589876403529070   T   T   T
 -0.0000119428695177  0.4999888822517412  0.4586808340203501   T   T   T
  0.9993877755313710  0.7495095932349062  0.4589780401853677   T   T   T
 -0.0000198599566272  0.0000041068382962  0.4592485316548255   T   T   T
  0.1253648515484440  0.1256576014252229  0.5150718213056608   T   T   T
  0.1248876378718271  0.3756754180006563  0.5153068342377244   T   T   T
  0.1226774936126282  0.6249885732373226  0.5150703469015891   T   T   T
  0.1248572851525393  0.8743008540006424  0.5150493235665090   T   T   T
  0.3750032453907033  0.1256503176503610  0.5149203541907801   T   T   T
  0.3786672456634154  0.3822617170520154  0.5187222093923267   T   T   T
  0.3719784543547164  0.6223015847262287  0.5173567115647217   T   T   T
  0.3748021919712130  0.8743385009155974  0.5150199476734713   T   T   T
  0.6251825593990240  0.1256386877947528  0.5150236618905722   T   T   T
  0.6280221182873383  0.3776791712140582  0.5173410371656018   T   T   T
  0.6213682069966263  0.6177317167579512  0.5187824491657774   T   T   T
  0.6249774390465860  0.8743448130549670  0.5149272653490635   T   T   T
  0.8751065613330167  0.1257020558254069  0.5150494630945133   T   T   T
  0.8773371261602159  0.3750002388689657  0.5150766119521148   T   T   T
  0.8751223488065740  0.6243179352831583  0.5153164105057614   T   T   T
  0.8745801355131116  0.8743464556911776  0.5150816842273650   T   T   T
  0.1249999997703384  0.1250000001623945  0.4012615800633341   F   F   F
  0.1249999997703384  0.3750000004871836  0.4012615800633341   F   F   F
  0.1250000006889778  0.6250000014615438  0.4012615800633341   F   F   F
  0.1250000006889778  0.8750000017863329  0.4012615800633341   F   F   F
  0.3750000002296616  0.1250000001623945  0.4012615800633341   F   F   F
  0.3750000002296616  0.3750000004871836  0.4012615800633341   F   F   F
  0.3750000011483010  0.6250000014615438  0.4012615800633341   F   F   F
  0.3750000011483010  0.8750000017863329  0.4012615800633341   F   F   F
  0.6250000006889778  0.1250000001623945  0.4012615800633341   F   F   F
  0.6250000006889778  0.3750000004871836  0.4012615800633341   F   F   F
  0.6250000006889778  0.6250000014615438  0.4012615800633341   F   F   F
  0.6250000006889778  0.8750000017863329  0.4012615800633341   F   F   F
  0.8750000011483010  0.1250000001623945  0.4012615800633341   F   F   F
  0.8750000011483010  0.3750000004871836  0.4012615800633341   F   F   F
  0.8750000020669404  0.6250000014615438  0.4012615800633341   F   F   F
  0.8750000011483010  0.8750000017863329  0.4012615800633341   F   F   F
  0.3814908006231831  0.4556836875553032  0.5983677217471564   T   T   T
  0.3862233235022951  0.5517664099145879  0.5989588759705677   T   T   T
  0.5058233000399706  0.5945835986979602  0.6033003294565457   T   T   T
  0.6182796474648989  0.5443119461016199  0.5983811824835845   T   T   T
  0.6136031319730331  0.4482136879545346  0.5989638257187473   T   T   T
  0.4939709224452544  0.4053254848291522  0.6032795153048850   T   T   T
  0.3131510934709296  0.5792649052096771  0.6272777989796235   T   T   T
  0.5107360243119693  0.6551553338510387  0.6287852791078095   T   T   T
  0.6866291250828545  0.4206138289887423  0.6272906573320005   T   T   T
  0.4890578075936058  0.3446564125543140  0.6287915253135977   T   T   T
  0.2842033299747360  0.4252850238980888  0.6347625033801337   T   T   T
  0.7154258063363931  0.5745891976970765  0.6347890910064068   T   T   T
 
  0.00000000E+00  0.00000000E+00  0.00000000E+00
  0.00000000E+00  0.00000000E+00  0.00000000E+00
  0.00000000E+00  0.00000000E+00  0.00000000E+00
  0.00000000E+00  0.00000000E+00  0.00000000E+00
  0.00000000E+00  0.00000000E+00  0.00000000E+00
  0.00000000E+00  0.00000000E+00  0.00000000E+00
  0.00000000E+00  0.00000000E+00  0.00000000E+00
  0.00000000E+00  0.00000000E+00  0.00000000E+00
  0.00000000E+00  0.00000000E+00  0.00000000E+00
  0.00000000E+00  0.00000000E+00  0.00000000E+00
  0.00000000E+00  0.00000000E+00  0.00000000E+00
  0.00000000E+00  0.00000000E+00  0.00000000E+00
  0.00000000E+00  0.00000000E+00  0.00000000E+00
  0.00000000E+00  0.00000000E+00  0.00000000E+00
  0.00000000E+00  0.00000000E+00  0.00000000E+00
  0.00000000E+00  0.00000000E+00  0.00000000E+00
  0.00000000E+00  0.00000000E+00  0.00000000E+00
  0.00000000E+00  0.00000000E+00  0.00000000E+00
  0.00000000E+00  0.00000000E+00  0.00000000E+00
  0.00000000E+00  0.00000000E+00  0.00000000E+00
  0.00000000E+00  0.00000000E+00  0.00000000E+00
  0.00000000E+00  0.00000000E+00  0.00000000E+00
  0.00000000E+00  0.00000000E+00  0.00000000E+00
  0.00000000E+00  0.00000000E+00  0.00000000E+00
  0.00000000E+00  0.00000000E+00  0.00000000E+00
  0.00000000E+00  0.00000000E+00  0.00000000E+00
  0.00000000E+00  0.00000000E+00  0.00000000E+00
  0.00000000E+00  0.00000000E+00  0.00000000E+00
  0.00000000E+00  0.00000000E+00  0.00000000E+00
  0.00000000E+00  0.00000000E+00  0.00000000E+00
  0.00000000E+00  0.00000000E+00  0.00000000E+00
  0.00000000E+00  0.00000000E+00  0.00000000E+00
  0.00000000E+00  0.00000000E+00  0.00000000E+00
  0.00000000E+00  0.00000000E+00  0.00000000E+00
  0.00000000E+00  0.00000000E+00  0.00000000E+00
  0.00000000E+00  0.00000000E+00  0.00000000E+00
  0.00000000E+00  0.00000000E+00  0.00000000E+00
  0.00000000E+00  0.00000000E+00  0.00000000E+00
  0.00000000E+00  0.00000000E+00  0.00000000E+00
  0.00000000E+00  0.00000000E+00  0.00000000E+00
  0.00000000E+00  0.00000000E+00  0.00000000E+00
  0.00000000E+00  0.00000000E+00  0.00000000E+00
  0.00000000E+00  0.00000000E+00  0.00000000E+00
  0.00000000E+00  0.00000000E+00  0.00000000E+00
  0.00000000E+00  0.00000000E+00  0.00000000E+00
  0.00000000E+00  0.00000000E+00  0.00000000E+00
  0.00000000E+00  0.00000000E+00  0.00000000E+00
  0.00000000E+00  0.00000000E+00  0.00000000E+00
  0.00000000E+00  0.00000000E+00  0.00000000E+00
  0.00000000E+00  0.00000000E+00  0.00000000E+00
  0.00000000E+00  0.00000000E+00  0.00000000E+00
  0.00000000E+00  0.00000000E+00  0.00000000E+00
  0.00000000E+00  0.00000000E+00  0.00000000E+00
  0.00000000E+00  0.00000000E+00  0.00000000E+00
  0.00000000E+00  0.00000000E+00  0.00000000E+00
  0.00000000E+00  0.00000000E+00  0.00000000E+00
  0.00000000E+00  0.00000000E+00  0.00000000E+00
  0.00000000E+00  0.00000000E+00  0.00000000E+00
  0.00000000E+00  0.00000000E+00  0.00000000E+00
  0.00000000E+00  0.00000000E+00  0.00000000E+00
  0.00000000E+00  0.00000000E+00  0.00000000E+00
  0.00000000E+00  0.00000000E+00  0.00000000E+00
  0.00000000E+00  0.00000000E+00  0.00000000E+00
  0.00000000E+00  0.00000000E+00  0.00000000E+00
  0.00000000E+00  0.00000000E+00  0.00000000E+00
  0.00000000E+00  0.00000000E+00  0.00000000E+00
  0.00000000E+00  0.00000000E+00  0.00000000E+00
  0.00000000E+00  0.00000000E+00  0.00000000E+00
  0.00000000E+00  0.00000000E+00  0.00000000E+00
  0.00000000E+00  0.00000000E+00  0.00000000E+00
  0.00000000E+00  0.00000000E+00  0.00000000E+00
  0.00000000E+00  0.00000000E+00  0.00000000E+00
  0.00000000E+00  0.00000000E+00  0.00000000E+00
  0.00000000E+00  0.00000000E+00  0.00000000E+00
  0.00000000E+00  0.00000000E+00  0.00000000E+00
  0.00000000E+00  0.00000000E+00  0.00000000E+00
