H4 Pd48 C6 Cl2                          
    1.000000000000000     
    11.1922750000000004    0.0000000000000000    0.0000000000000000
    -5.5961369999999997    9.6927939999999992    0.0000000000000000
     0.0000000000000000    0.0000000000000000   16.5710209999999982
   H    Pd   C    Cl
     4    48     6     2
Selective dynamics
Direct
  0.3718224570067505  0.5022324360618029  0.7804551474506880   T   T   T
  0.6278425705452619  0.6302315070261955  0.7809804759311163   T   T   T
  0.6278637078495137  0.2475944951463163  0.7809680208817795   T   T   T
  0.3718259087107612  0.1195220354310180  0.7804607898794913   T   T   T
  0.0833330000000032  0.1666669999999968  0.3620779999999968   F   F   F
  0.0833330000000032  0.4166669999999968  0.3620779999999968   F   F   F
  0.0833330000000032  0.6666669999999968  0.3620779999999968   F   F   F
  0.0833330000000032  0.9166669999999968  0.3620779999999968   F   F   F
  0.3333330000000032  0.1666669999999968  0.3620779999999968   F   F   F
  0.3333330000000032  0.4166669999999968  0.3620779999999968   F   F   F
  0.3333330000000032  0.6666669999999968  0.3620779999999968   F   F   F
  0.3333330000000032  0.9166669999999968  0.3620779999999968   F   F   F
  0.5833330000000032  0.1666669999999968  0.3620779999999968   F   F   F
  0.5833330000000032  0.4166669999999968  0.3620779999999968   F   F   F
  0.5833330000000032  0.6666669999999968  0.3620779999999968   F   F   F
  0.5833330000000032  0.9166669999999968  0.3620779999999968   F   F   F
  0.8333330000000032  0.1666669999999968  0.3620779999999968   F   F   F
  0.8333330000000032  0.4166669999999968  0.3620779999999968   F   F   F
  0.8333330000000032  0.6666669999999968  0.3620779999999968   F   F   F
  0.8333330000000032  0.9166669999999968  0.3620779999999968   F   F   F
  0.2475500639086050  0.9945792590614602  0.6321168500437508   T   T   T
  0.2576923109824136  0.2538433021706581  0.6428616179661120   T   T   T
  0.2475568320157393  0.5029723711228868  0.6321304568242780   T   T   T
  0.2481496950938364  0.7490760614273100  0.6343165943159335   T   T   T
  0.5006067978453927  0.9956001522336564  0.6332528750058373   T   T   T
  0.5023089858095844  0.2407568254636843  0.6372314664390331   T   T   T
  0.5023070511758831  0.5115426459908008  0.6372391495468719   T   T   T
  0.5006087793489939  0.7550046516468214  0.6332581099937187   T   T   T
  0.7530894432867612  0.0015473420069654  0.6345621175801526   T   T   T
  0.7551023649429283  0.2483083506531543  0.6326691421261970   T   T   T
  0.7464360410840385  0.4982182734484866  0.6439584694643372   T   T   T
  0.7551050785238687  0.7568021209836786  0.6326700467769939   T   T   T
  0.0030139177654078  0.0020875323862128  0.6347788985440630   T   T   T
  0.0030211544003009  0.2509410249577968  0.6347747814946203   T   T   T
  0.9988078580805109  0.4993431458531674  0.6347274007117250   T   T   T
  0.9988072055465835  0.7494732523834884  0.6347299713684293   T   T   T
  0.1685299406940572  0.0865350503678499  0.4998439371368733   T   T   T
  0.1685353173525854  0.3320125331397676  0.4998479566307950   T   T   T
  0.1648248324453050  0.5823779440887904  0.4975035862709518   T   T   T
  0.1648149735899835  0.8324487345199358  0.4974913839027906   T   T   T
  0.4170519809479245  0.0841386222851312  0.4982184779797905   T   T   T
  0.4176448463142961  0.3338254816706296  0.4998835093620642   T   T   T
  0.4170430056739463  0.5829128235695720  0.4982290995585501   T   T   T
  0.4149813902129225  0.8324920034270775  0.4971090021284041   T   T   T
  0.6668455925390049  0.0829768926642913  0.4976353128839079   T   T   T
  0.6665549116034768  0.3337508506245257  0.4999387998657596   T   T   T
  0.6665574883530354  0.5828119382544372  0.4999391412818781   T   T   T
  0.6668414514037622  0.8338771605337882  0.4976322764391270   T   T   T
  0.9174582652366894  0.0837321923360079  0.4981534946351616   T   T   T
  0.9175430162516633  0.3328219095514342  0.4976445019395115   T   T   T
  0.9121516310121436  0.5810773570905496  0.5011611580254609   T   T   T
  0.9175476962290077  0.8347320253954678  0.4976458821250702   T   T   T
  0.3463754193742616  0.2981504524330845  0.7591204278708048   T   T   T
  0.4259699123110821  0.4491033885822162  0.7600690100308540   T   T   T
  0.5737172658723111  0.5229891231988333  0.7604113404009922   T   T   T
  0.6533935532682378  0.4516871950399022  0.7594880488313649   T   T   T
  0.5737083681607373  0.3006880545303332  0.7604104623376813   T   T   T
  0.4259633926910098  0.2267975951512256  0.7600679024581893   T   T   T
  0.1996154588519090  0.2247690954380062  0.8233542885791891   T   T   T
  0.7995887217714355  0.5247818744337422  0.8246767056667608   T   T   T
 
  0.00000000E+00  0.00000000E+00  0.00000000E+00
  0.00000000E+00  0.00000000E+00  0.00000000E+00
  0.00000000E+00  0.00000000E+00  0.00000000E+00
  0.00000000E+00  0.00000000E+00  0.00000000E+00
  0.00000000E+00  0.00000000E+00  0.00000000E+00
  0.00000000E+00  0.00000000E+00  0.00000000E+00
  0.00000000E+00  0.00000000E+00  0.00000000E+00
  0.00000000E+00  0.00000000E+00  0.00000000E+00
  0.00000000E+00  0.00000000E+00  0.00000000E+00
  0.00000000E+00  0.00000000E+00  0.00000000E+00
  0.00000000E+00  0.00000000E+00  0.00000000E+00
  0.00000000E+00  0.00000000E+00  0.00000000E+00
  0.00000000E+00  0.00000000E+00  0.00000000E+00
  0.00000000E+00  0.00000000E+00  0.00000000E+00
  0.00000000E+00  0.00000000E+00  0.00000000E+00
  0.00000000E+00  0.00000000E+00  0.00000000E+00
  0.00000000E+00  0.00000000E+00  0.00000000E+00
  0.00000000E+00  0.00000000E+00  0.00000000E+00
  0.00000000E+00  0.00000000E+00  0.00000000E+00
  0.00000000E+00  0.00000000E+00  0.00000000E+00
  0.00000000E+00  0.00000000E+00  0.00000000E+00
  0.00000000E+00  0.00000000E+00  0.00000000E+00
  0.00000000E+00  0.00000000E+00  0.00000000E+00
  0.00000000E+00  0.00000000E+00  0.00000000E+00
  0.00000000E+00  0.00000000E+00  0.00000000E+00
  0.00000000E+00  0.00000000E+00  0.00000000E+00
  0.00000000E+00  0.00000000E+00  0.00000000E+00
  0.00000000E+00  0.00000000E+00  0.00000000E+00
  0.00000000E+00  0.00000000E+00  0.00000000E+00
  0.00000000E+00  0.00000000E+00  0.00000000E+00
  0.00000000E+00  0.00000000E+00  0.00000000E+00
  0.00000000E+00  0.00000000E+00  0.00000000E+00
  0.00000000E+00  0.00000000E+00  0.00000000E+00
  0.00000000E+00  0.00000000E+00  0.00000000E+00
  0.00000000E+00  0.00000000E+00  0.00000000E+00
  0.00000000E+00  0.00000000E+00  0.00000000E+00
  0.00000000E+00  0.00000000E+00  0.00000000E+00
  0.00000000E+00  0.00000000E+00  0.00000000E+00
  0.00000000E+00  0.00000000E+00  0.00000000E+00
  0.00000000E+00  0.00000000E+00  0.00000000E+00
  0.00000000E+00  0.00000000E+00  0.00000000E+00
  0.00000000E+00  0.00000000E+00  0.00000000E+00
  0.00000000E+00  0.00000000E+00  0.00000000E+00
  0.00000000E+00  0.00000000E+00  0.00000000E+00
  0.00000000E+00  0.00000000E+00  0.00000000E+00
  0.00000000E+00  0.00000000E+00  0.00000000E+00
  0.00000000E+00  0.00000000E+00  0.00000000E+00
  0.00000000E+00  0.00000000E+00  0.00000000E+00
  0.00000000E+00  0.00000000E+00  0.00000000E+00
  0.00000000E+00  0.00000000E+00  0.00000000E+00
  0.00000000E+00  0.00000000E+00  0.00000000E+00
  0.00000000E+00  0.00000000E+00  0.00000000E+00
  0.00000000E+00  0.00000000E+00  0.00000000E+00
  0.00000000E+00  0.00000000E+00  0.00000000E+00
  0.00000000E+00  0.00000000E+00  0.00000000E+00
  0.00000000E+00  0.00000000E+00  0.00000000E+00
  0.00000000E+00  0.00000000E+00  0.00000000E+00
  0.00000000E+00  0.00000000E+00  0.00000000E+00
  0.00000000E+00  0.00000000E+00  0.00000000E+00
  0.00000000E+00  0.00000000E+00  0.00000000E+00
