H4 Au48 C6 Br2                          
    1.000000000000000     
    11.7981859999999994    0.0000000000000000    0.0000000000000000
    -5.8990929999999997   10.2175279999999997    0.0000000000000000
     0.0000000000000000    0.0000000000000000   17.8198779999999992
   H    Au   C    Br
     4    48     6     2
Selective dynamics
Direct
  0.5017161048219378  0.3801973920084052  0.7915555569809172   T   T   T
  0.3797371346070975  0.5019375645951314  0.7915547989398632   T   T   T
  0.7462004342820805  0.8683524188592031  0.7916142484512463   T   T   T
  0.8680214172238010  0.7465503316596482  0.7916014153060686   T   T   T
  0.0833330000000032  0.1666669999999968  0.3367030000000000   F   F   F
  0.0833330000000032  0.4166669999999968  0.3367030000000000   F   F   F
  0.0833330000000032  0.6666669999999968  0.3367030000000000   F   F   F
  0.0833330000000032  0.9166669999999968  0.3367030000000000   F   F   F
  0.3333330000000032  0.1666669999999968  0.3367030000000000   F   F   F
  0.3333330000000032  0.4166669999999968  0.3367030000000000   F   F   F
  0.3333330000000032  0.6666669999999968  0.3367030000000000   F   F   F
  0.3333330000000032  0.9166669999999968  0.3367030000000000   F   F   F
  0.5833330000000032  0.1666669999999968  0.3367030000000000   F   F   F
  0.5833330000000032  0.4166669999999968  0.3367030000000000   F   F   F
  0.5833330000000032  0.6666669999999968  0.3367030000000000   F   F   F
  0.5833330000000032  0.9166669999999968  0.3367030000000000   F   F   F
  0.8333330000000032  0.1666669999999968  0.3367030000000000   F   F   F
  0.8333330000000032  0.4166669999999968  0.3367030000000000   F   F   F
  0.8333330000000032  0.6666669999999968  0.3367030000000000   F   F   F
  0.8333330000000032  0.9166669999999968  0.3367030000000000   F   F   F
  0.2500283514045520  0.2498520849772987  0.6127893565090758   T   T   T
  0.2499694753244697  0.4997842577956177  0.6125252429908770   T   T   T
  0.2497269723221578  0.7499085663816345  0.6123853733217146   T   T   T
  0.2503311595567226  0.9999691671327255  0.6128708970611569   T   T   T
  0.4999677994815741  0.2498102845588051  0.6125024835275212   T   T   T
  0.4995844988007860  0.4992955577274145  0.6119618219358784   T   T   T
  0.5002164450610564  0.7501085327922681  0.6105862360548926   T   T   T
  0.5004070081873593  0.0005853096870965  0.6124028168479825   T   T   T
  0.7503034280321685  0.2495441665750278  0.6124998288979953   T   T   T
  0.7504476491960119  0.4998660257890890  0.6105456011018333   T   T   T
  0.7509689812259310  0.7506824783495958  0.6119809357301449   T   T   T
  0.7505146178501647  0.0003231005476820  0.6125278436414305   T   T   T
  0.0002726497251615  0.2500290088101451  0.6129461640246205   T   T   T
  0.0007658536737836  0.5000181172046894  0.6125155987842916   T   T   T
  0.0004814061908078  0.7503317584089686  0.6125076341839417   T   T   T
  0.0004244929702253  0.0002442770471873  0.6128057421172741   T   T   T
  0.1668774431901170  0.0833176870629089  0.4746668281366127   T   T   T
  0.1666189998822816  0.3331654717087673  0.4745989354472258   T   T   T
  0.1670645534223070  0.5835029858203455  0.4744933156236613   T   T   T
  0.1668629842098142  0.8336037612625447  0.4745128959380480   T   T   T
  0.4166003176666919  0.0833344867771686  0.4745169938251550   T   T   T
  0.4167027192999555  0.3331477804822143  0.4745532580067007   T   T   T
  0.4164644944098512  0.5829984962297772  0.4744938495356834   T   T   T
  0.4165310912937557  0.8336804741793244  0.4743356774078080   T   T   T
  0.6667217635635581  0.0831527415174662  0.4744948578300026   T   T   T
  0.6665841583152030  0.3327949351754285  0.4744175065223715   T   T   T
  0.6666390784788732  0.5835708248362650  0.4746465350483575   T   T   T
  0.6672105472084624  0.8337329489256007  0.4744948659086319   T   T   T
  0.9170418786161747  0.0835932794662710  0.4746010133468275   T   T   T
  0.9168240647929196  0.3333930071892723  0.4747029362969570   T   T   T
  0.9174187304209482  0.5836253187998182  0.4744122349893090   T   T   T
  0.9170422562272762  0.8334942280217419  0.4745588232914599   T   T   T
  0.6915982953982649  0.5565172464270347  0.7945139934414911   T   T   T
  0.5550711549928806  0.4869015048563341  0.7928838125482827   T   T   T
  0.4866433844051627  0.5554299511784890  0.7929236140408733   T   T   T
  0.5562749859626948  0.6919594864938077  0.7945080624543195   T   T   T
  0.6928624932496064  0.7616170739416432  0.7929268356060604   T   T   T
  0.7612268773360853  0.6931518717729972  0.7929318415007103   T   T   T
  0.7847013142764965  0.4636792618454351  0.7965655292792135   T   T   T
  0.4633152787528942  0.7850167477975347  0.7966266248381899   T   T   T
 
  0.00000000E+00  0.00000000E+00  0.00000000E+00
  0.00000000E+00  0.00000000E+00  0.00000000E+00
  0.00000000E+00  0.00000000E+00  0.00000000E+00
  0.00000000E+00  0.00000000E+00  0.00000000E+00
  0.00000000E+00  0.00000000E+00  0.00000000E+00
  0.00000000E+00  0.00000000E+00  0.00000000E+00
  0.00000000E+00  0.00000000E+00  0.00000000E+00
  0.00000000E+00  0.00000000E+00  0.00000000E+00
  0.00000000E+00  0.00000000E+00  0.00000000E+00
  0.00000000E+00  0.00000000E+00  0.00000000E+00
  0.00000000E+00  0.00000000E+00  0.00000000E+00
  0.00000000E+00  0.00000000E+00  0.00000000E+00
  0.00000000E+00  0.00000000E+00  0.00000000E+00
  0.00000000E+00  0.00000000E+00  0.00000000E+00
  0.00000000E+00  0.00000000E+00  0.00000000E+00
  0.00000000E+00  0.00000000E+00  0.00000000E+00
  0.00000000E+00  0.00000000E+00  0.00000000E+00
  0.00000000E+00  0.00000000E+00  0.00000000E+00
  0.00000000E+00  0.00000000E+00  0.00000000E+00
  0.00000000E+00  0.00000000E+00  0.00000000E+00
  0.00000000E+00  0.00000000E+00  0.00000000E+00
  0.00000000E+00  0.00000000E+00  0.00000000E+00
  0.00000000E+00  0.00000000E+00  0.00000000E+00
  0.00000000E+00  0.00000000E+00  0.00000000E+00
  0.00000000E+00  0.00000000E+00  0.00000000E+00
  0.00000000E+00  0.00000000E+00  0.00000000E+00
  0.00000000E+00  0.00000000E+00  0.00000000E+00
  0.00000000E+00  0.00000000E+00  0.00000000E+00
  0.00000000E+00  0.00000000E+00  0.00000000E+00
  0.00000000E+00  0.00000000E+00  0.00000000E+00
  0.00000000E+00  0.00000000E+00  0.00000000E+00
  0.00000000E+00  0.00000000E+00  0.00000000E+00
  0.00000000E+00  0.00000000E+00  0.00000000E+00
  0.00000000E+00  0.00000000E+00  0.00000000E+00
  0.00000000E+00  0.00000000E+00  0.00000000E+00
  0.00000000E+00  0.00000000E+00  0.00000000E+00
  0.00000000E+00  0.00000000E+00  0.00000000E+00
  0.00000000E+00  0.00000000E+00  0.00000000E+00
  0.00000000E+00  0.00000000E+00  0.00000000E+00
  0.00000000E+00  0.00000000E+00  0.00000000E+00
  0.00000000E+00  0.00000000E+00  0.00000000E+00
  0.00000000E+00  0.00000000E+00  0.00000000E+00
  0.00000000E+00  0.00000000E+00  0.00000000E+00
  0.00000000E+00  0.00000000E+00  0.00000000E+00
  0.00000000E+00  0.00000000E+00  0.00000000E+00
  0.00000000E+00  0.00000000E+00  0.00000000E+00
  0.00000000E+00  0.00000000E+00  0.00000000E+00
  0.00000000E+00  0.00000000E+00  0.00000000E+00
  0.00000000E+00  0.00000000E+00  0.00000000E+00
  0.00000000E+00  0.00000000E+00  0.00000000E+00
  0.00000000E+00  0.00000000E+00  0.00000000E+00
  0.00000000E+00  0.00000000E+00  0.00000000E+00
  0.00000000E+00  0.00000000E+00  0.00000000E+00
  0.00000000E+00  0.00000000E+00  0.00000000E+00
  0.00000000E+00  0.00000000E+00  0.00000000E+00
  0.00000000E+00  0.00000000E+00  0.00000000E+00
  0.00000000E+00  0.00000000E+00  0.00000000E+00
  0.00000000E+00  0.00000000E+00  0.00000000E+00
  0.00000000E+00  0.00000000E+00  0.00000000E+00
  0.00000000E+00  0.00000000E+00  0.00000000E+00
