Ag48 C6 F6                              
    1.000000000000000     
    11.7702790000000004    0.0000000000000000    0.0000000000000000
     0.0000000000000000   11.7702790000000004    0.0000000000000000
     0.0000000000000000    0.0000000000000000   16.7990261099999998
   Ag   C    F 
    48     6     6
Selective dynamics
Direct
  0.9999783649204517  0.2500800858976220  0.4104946699849350   T   T   T
  0.0000000000000000  0.4999999983008081  0.4104943939635888   T   T   T
  0.0000216350795483  0.7499199107039871  0.4104946699849350   T   T   T
  0.0000000000000000  0.0000000000000000  0.4103853205855827   T   T   T
  0.2496740854193220  0.2496734740314182  0.4102273274198893   T   T   T
  0.2492874323354926  0.5000447598560740  0.4099553022724081   T   T   T
  0.2497126589150227  0.7502880028884320  0.4102725428052452   T   T   T
  0.2500807405385785  0.9999783461200238  0.4104946334140607   T   T   T
  0.5000448170457830  0.2492868643401636  0.4099552670440048   T   T   T
  0.4999999983008081  0.4999999983008081  0.4093300590048869   T   T   T
  0.4999551795558332  0.7507131322614455  0.4099552670440048   T   T   T
  0.4999999983008081  0.0000000000000000  0.4104942318961875   T   T   T
  0.7502873376865864  0.2497119937131771  0.4102725428052452   T   T   T
  0.7507125642661165  0.4999552367455422  0.4099553022724081   T   T   T
  0.7503259111822871  0.7503265225701909  0.4102273274198893   T   T   T
  0.7499192560630306  0.0000216538799762  0.4104946334140607   T   T   T
  0.1249483948508114  0.1249477464934188  0.5230991267003020   T   T   T
  0.1249583939516796  0.3751062468384490  0.5231950817663886   T   T   T
  0.1250413930139374  0.6248859707960506  0.5232732736395391   T   T   T
  0.1249819513574622  0.8750185832442554  0.5231156160443646   T   T   T
  0.3751068092768932  0.1249578746393993  0.5231945680819052   T   T   T
  0.3751668193345878  0.3751660194050643  0.5210551586207188   T   T   T
  0.3750436308958811  0.6249568877713045  0.5213522454535777   T   T   T
  0.3751147001009585  0.8749591946849122  0.5232731522329672   T   T   T
  0.6248852965006506  0.1250408019166969  0.5232731522329672   T   T   T
  0.6249563657057280  0.3750431088303046  0.5213522454535777   T   T   T
  0.6248331772670213  0.6248339771965448  0.5210551586207188   T   T   T
  0.6248931873247159  0.8750421219622098  0.5231945680819052   T   T   T
  0.8750180452441469  0.1249814133573537  0.5231156160443646   T   T   T
  0.8749586035876717  0.3751140258055585  0.5232732736395391   T   T   T
  0.8750416026499295  0.6248937497631601  0.5231950817663886   T   T   T
  0.8750516017507977  0.8750522501081903  0.5230991267003020   T   T   T
  0.1249999995752020  0.1249999995752020  0.2976363014891490   F   F   F
  0.1249999995752020  0.3749999987256061  0.2976363014891490   F   F   F
  0.1249999995752020  0.6249999978760030  0.2976363014891490   F   F   F
  0.1249999995752020  0.8749999970264071  0.2976363014891490   F   F   F
  0.3749999987256061  0.1249999995752020  0.2976363014891490   F   F   F
  0.3749999987256061  0.3749999987256061  0.2976363014891490   F   F   F
  0.3749999987256061  0.6249999978760030  0.2976363014891490   F   F   F
  0.3749999987256061  0.8749999970264071  0.2976363014891490   F   F   F
  0.6249999978760030  0.1249999995752020  0.2976363014891490   F   F   F
  0.6249999978760030  0.3749999987256061  0.2976363014891490   F   F   F
  0.6249999978760030  0.6249999978760030  0.2976363014891490   F   F   F
  0.6249999978760030  0.8749999970264071  0.2976363014891490   F   F   F
  0.8749999970264071  0.1249999995752020  0.2976363014891490   F   F   F
  0.8749999970264071  0.3749999987256061  0.2976363014891490   F   F   F
  0.8749999970264071  0.6249999978760030  0.2976363014891490   F   F   F
  0.8749999970264071  0.8749999970264071  0.2976363014891490   F   F   F
  0.3854946190312845  0.5306927434154076  0.7025128570257593   T   T   T
  0.4693259044290130  0.6145105614865116  0.7025126534071191   T   T   T
  0.5837318888763292  0.5837125331287893  0.7027669356247159   T   T   T
  0.6145053503832045  0.4693072404422409  0.7025128570257593   T   T   T
  0.5306741185101203  0.3854894478590651  0.7025126534071191   T   T   T
  0.4162681077252870  0.4162874634728269  0.7027669356247159   T   T   T
  0.2748002588117799  0.5600696930745173  0.7033464851816404   T   T   T
  0.4399207921439299  0.7251955774913057  0.7033463716693475   T   T   T
  0.6648149152331442  0.6648257094874239  0.7041709003052006   T   T   T
  0.7251997377898292  0.4399303035270918  0.7033464851816404   T   T   T
  0.5600792707262912  0.2748044361022508  0.7033463716693475   T   T   T
  0.3351851077059891  0.3351742998581528  0.7041709003052006   T   T   T
 
  0.00000000E+00  0.00000000E+00  0.00000000E+00
  0.00000000E+00  0.00000000E+00  0.00000000E+00
  0.00000000E+00  0.00000000E+00  0.00000000E+00
  0.00000000E+00  0.00000000E+00  0.00000000E+00
  0.00000000E+00  0.00000000E+00  0.00000000E+00
  0.00000000E+00  0.00000000E+00  0.00000000E+00
  0.00000000E+00  0.00000000E+00  0.00000000E+00
  0.00000000E+00  0.00000000E+00  0.00000000E+00
  0.00000000E+00  0.00000000E+00  0.00000000E+00
  0.00000000E+00  0.00000000E+00  0.00000000E+00
  0.00000000E+00  0.00000000E+00  0.00000000E+00
  0.00000000E+00  0.00000000E+00  0.00000000E+00
  0.00000000E+00  0.00000000E+00  0.00000000E+00
  0.00000000E+00  0.00000000E+00  0.00000000E+00
  0.00000000E+00  0.00000000E+00  0.00000000E+00
  0.00000000E+00  0.00000000E+00  0.00000000E+00
  0.00000000E+00  0.00000000E+00  0.00000000E+00
  0.00000000E+00  0.00000000E+00  0.00000000E+00
  0.00000000E+00  0.00000000E+00  0.00000000E+00
  0.00000000E+00  0.00000000E+00  0.00000000E+00
  0.00000000E+00  0.00000000E+00  0.00000000E+00
  0.00000000E+00  0.00000000E+00  0.00000000E+00
  0.00000000E+00  0.00000000E+00  0.00000000E+00
  0.00000000E+00  0.00000000E+00  0.00000000E+00
  0.00000000E+00  0.00000000E+00  0.00000000E+00
  0.00000000E+00  0.00000000E+00  0.00000000E+00
  0.00000000E+00  0.00000000E+00  0.00000000E+00
  0.00000000E+00  0.00000000E+00  0.00000000E+00
  0.00000000E+00  0.00000000E+00  0.00000000E+00
  0.00000000E+00  0.00000000E+00  0.00000000E+00
  0.00000000E+00  0.00000000E+00  0.00000000E+00
  0.00000000E+00  0.00000000E+00  0.00000000E+00
  0.00000000E+00  0.00000000E+00  0.00000000E+00
  0.00000000E+00  0.00000000E+00  0.00000000E+00
  0.00000000E+00  0.00000000E+00  0.00000000E+00
  0.00000000E+00  0.00000000E+00  0.00000000E+00
  0.00000000E+00  0.00000000E+00  0.00000000E+00
  0.00000000E+00  0.00000000E+00  0.00000000E+00
  0.00000000E+00  0.00000000E+00  0.00000000E+00
  0.00000000E+00  0.00000000E+00  0.00000000E+00
  0.00000000E+00  0.00000000E+00  0.00000000E+00
  0.00000000E+00  0.00000000E+00  0.00000000E+00
  0.00000000E+00  0.00000000E+00  0.00000000E+00
  0.00000000E+00  0.00000000E+00  0.00000000E+00
  0.00000000E+00  0.00000000E+00  0.00000000E+00
  0.00000000E+00  0.00000000E+00  0.00000000E+00
  0.00000000E+00  0.00000000E+00  0.00000000E+00
  0.00000000E+00  0.00000000E+00  0.00000000E+00
  0.00000000E+00  0.00000000E+00  0.00000000E+00
  0.00000000E+00  0.00000000E+00  0.00000000E+00
  0.00000000E+00  0.00000000E+00  0.00000000E+00
  0.00000000E+00  0.00000000E+00  0.00000000E+00
  0.00000000E+00  0.00000000E+00  0.00000000E+00
  0.00000000E+00  0.00000000E+00  0.00000000E+00
  0.00000000E+00  0.00000000E+00  0.00000000E+00
  0.00000000E+00  0.00000000E+00  0.00000000E+00
  0.00000000E+00  0.00000000E+00  0.00000000E+00
  0.00000000E+00  0.00000000E+00  0.00000000E+00
  0.00000000E+00  0.00000000E+00  0.00000000E+00
  0.00000000E+00  0.00000000E+00  0.00000000E+00
