Pt  C  F                                
    1.000000000000000     
    11.2480068000000006    0.0000000000000000    0.0000000000000000
     0.0000000000000000   11.2480068000000006    0.0000000000000000
     0.0000000000000000    0.0000000000000000   23.9651564400000012
   Pt   C    F 
    64     6     6
Selective dynamics
Direct
  0.2500000008890453  0.0000000000000000  0.3129543518222917   F   F   F
  0.0000000000000000  0.5000000017780906  0.3129543518222917   F   F   F
  0.2500000008890453  0.2500000008890453  0.3129543518222917   F   F   F
  0.2500000008890453  0.5000000017780906  0.3129543518222917   F   F   F
  0.2500000008890453  0.7500000026671358  0.3129543518222917   F   F   F
  0.5000000017780906  0.0000000000000000  0.3129543518222917   F   F   F
  0.5000000017780906  0.2500000008890453  0.3129543518222917   F   F   F
  0.0000000000000000  0.7500000026671358  0.3129543518222917   F   F   F
  0.5000000017780906  0.5000000017780906  0.3129543518222917   F   F   F
  0.5000000017780906  0.7500000026671358  0.3129543518222917   F   F   F
  0.7500000026671358  0.0000000000000000  0.3129543518222917   F   F   F
  0.7500000026671358  0.2500000008890453  0.3129543518222917   F   F   F
  0.7500000026671358  0.5000000017780906  0.3129543518222917   F   F   F
  0.7500000026671358  0.7500000026671358  0.3129543518222917   F   F   F
  0.0000000000000000  0.0000000000000000  0.3129543518222917   F   F   F
  0.0000000000000000  0.2500000008890453  0.3129543518222917   F   F   F
  0.2500171923965102 -0.0000508929651678  0.4783391525669528   T   T   T
  0.2499144275082614  0.2498926137168158  0.4782484293990429   T   T   T
  0.2495305530867154  0.4999791803215623  0.4780418392478245   T   T   T
  0.2498639463239753  0.7501429068019240  0.4781907773073313   T   T   T
  0.5000000017780906  0.0000000000000000  0.4783186209781389   T   T   T
  0.4999809313263219  0.2495000266774512  0.4780429069835894   T   T   T
  0.5000000017780906  0.5000000017780906  0.4779371259309143   T   T   T
  0.5000190722298591  0.7504999768787300  0.4780429069835894   T   T   T
  0.7499828111596711  0.0000508929651676  0.4783391525669528   T   T   T
  0.7501360572322057  0.2498570967542573  0.4781907773073313   T   T   T
  0.7504694504694658  0.5000208232346189  0.4780418392478245   T   T   T
  0.7500855760479196  0.7501073898393653  0.4782484293990429   T   T   T
  0.0000000000000000  0.0000000000000000  0.4783235780671045   T   T   T
 -0.0000491966820851  0.2500032268783844  0.4783365755381052   T   T   T
  0.0000000000000000  0.5000000017780906  0.4783160629359263   T   T   T
  0.0000491966820852  0.7499967766777967  0.4783365755381052   T   T   T
  0.1251199053754981  0.1251165810762124  0.5600551833296984   T   T   T
  0.1250726615612058  0.3751154348779984  0.5601061243547465   T   T   T
  0.1249709969882389  0.6249316312426347  0.5601290568458752   T   T   T
  0.1249847683277400  0.8750170295253767  0.5600756496905388   T   T   T
  0.3751165086710734  0.1250690180798343  0.5601165632611188   T   T   T
  0.3751322260393294  0.3751072949166301  0.5595685323967730   T   T   T
  0.3746756004509742  0.6253324450073917  0.5593855747239073   T   T   T
  0.3750819330925046  0.8750348627063033  0.5601445250264905   T   T   T
  0.6249180713527216  0.1249651399608325  0.5601445250264905   T   T   T
  0.6253244039942522  0.3746675585487895  0.5593855747239073   T   T   T
  0.6248677784058968  0.6248927086395512  0.5595685323967730   T   T   T
  0.6248834957741531  0.8749309845873016  0.5601165632611188   T   T   T
  0.8750152361174935  0.1249829731417591  0.5600756496905388   T   T   T
  0.8750290065679424  0.3750683723135464  0.5601290568458752   T   T   T
  0.8749273428840276  0.6248845686781830  0.5601061243547465   T   T   T
  0.8748800990697355  0.8748834215909236  0.5600551833296984   T   T   T
  0.1250000008890453  0.1250000000000000  0.3959242036977884   F   F   F
  0.1250000008890453  0.3750000008890453  0.3959242036977884   F   F   F
  0.1250000008890453  0.6250000026671358  0.3959242036977884   F   F   F
  0.1250000008890453  0.8750000026671358  0.3959242036977884   F   F   F
  0.3750000017780906  0.1250000000000000  0.3959242036977884   F   F   F
  0.3750000017780906  0.3750000008890453  0.3959242036977884   F   F   F
  0.3750000017780906  0.6250000026671358  0.3959242036977884   F   F   F
  0.3750000017780906  0.8750000026671358  0.3959242036977884   F   F   F
  0.6250000026671358  0.1250000000000000  0.3959242036977884   F   F   F
  0.6250000026671358  0.3750000008890453  0.3959242036977884   F   F   F
  0.6250000026671358  0.6250000026671358  0.3959242036977884   F   F   F
  0.6250000026671358  0.8750000026671358  0.3959242036977884   F   F   F
  0.8750000035561882  0.1250000000000000  0.3959242036977884   F   F   F
  0.8750000026671358  0.3750000008890453  0.3959242036977884   F   F   F
  0.8750000035561882  0.6250000026671358  0.3959242036977884   F   F   F
  0.8750000035561882  0.8750000026671358  0.3959242036977884   F   F   F
  0.6199530777109281  0.4679207101984718  0.6908723591479530   T   T   T
  0.5320972765532747  0.3800451878460449  0.6908775487568354   T   T   T
  0.4120051875542818  0.4119879533108617  0.6908488160327954   T   T   T
  0.3800469551837827  0.5320793066934100  0.6908723591479530   T   T   T
  0.4679026994424745  0.6199548023744500  0.6908775487568354   T   T   T
  0.5879948168909445  0.5880120502453194  0.6908488160327954   T   T   T
  0.7353462733655755  0.4370910697707047  0.6929157778806879   T   T   T
  0.5629024619558288  0.2646271458815622  0.6929151700089642   T   T   T
  0.3274599703471998  0.3274694327345827  0.6937931447171481   T   T   T
  0.2646537310796580  0.5629089337854765  0.6929157778806879   T   T   T
  0.4370974731437803  0.7353728398936921  0.6929151700089642   T   T   T
  0.6725400065375946  0.6725305574859121  0.6937931447171481   T   T   T
 
  0.00000000E+00  0.00000000E+00  0.00000000E+00
  0.00000000E+00  0.00000000E+00  0.00000000E+00
  0.00000000E+00  0.00000000E+00  0.00000000E+00
  0.00000000E+00  0.00000000E+00  0.00000000E+00
  0.00000000E+00  0.00000000E+00  0.00000000E+00
  0.00000000E+00  0.00000000E+00  0.00000000E+00
  0.00000000E+00  0.00000000E+00  0.00000000E+00
  0.00000000E+00  0.00000000E+00  0.00000000E+00
  0.00000000E+00  0.00000000E+00  0.00000000E+00
  0.00000000E+00  0.00000000E+00  0.00000000E+00
  0.00000000E+00  0.00000000E+00  0.00000000E+00
  0.00000000E+00  0.00000000E+00  0.00000000E+00
  0.00000000E+00  0.00000000E+00  0.00000000E+00
  0.00000000E+00  0.00000000E+00  0.00000000E+00
  0.00000000E+00  0.00000000E+00  0.00000000E+00
  0.00000000E+00  0.00000000E+00  0.00000000E+00
  0.00000000E+00  0.00000000E+00  0.00000000E+00
  0.00000000E+00  0.00000000E+00  0.00000000E+00
  0.00000000E+00  0.00000000E+00  0.00000000E+00
  0.00000000E+00  0.00000000E+00  0.00000000E+00
  0.00000000E+00  0.00000000E+00  0.00000000E+00
  0.00000000E+00  0.00000000E+00  0.00000000E+00
  0.00000000E+00  0.00000000E+00  0.00000000E+00
  0.00000000E+00  0.00000000E+00  0.00000000E+00
  0.00000000E+00  0.00000000E+00  0.00000000E+00
  0.00000000E+00  0.00000000E+00  0.00000000E+00
  0.00000000E+00  0.00000000E+00  0.00000000E+00
  0.00000000E+00  0.00000000E+00  0.00000000E+00
  0.00000000E+00  0.00000000E+00  0.00000000E+00
  0.00000000E+00  0.00000000E+00  0.00000000E+00
  0.00000000E+00  0.00000000E+00  0.00000000E+00
  0.00000000E+00  0.00000000E+00  0.00000000E+00
  0.00000000E+00  0.00000000E+00  0.00000000E+00
  0.00000000E+00  0.00000000E+00  0.00000000E+00
  0.00000000E+00  0.00000000E+00  0.00000000E+00
  0.00000000E+00  0.00000000E+00  0.00000000E+00
  0.00000000E+00  0.00000000E+00  0.00000000E+00
  0.00000000E+00  0.00000000E+00  0.00000000E+00
  0.00000000E+00  0.00000000E+00  0.00000000E+00
  0.00000000E+00  0.00000000E+00  0.00000000E+00
  0.00000000E+00  0.00000000E+00  0.00000000E+00
  0.00000000E+00  0.00000000E+00  0.00000000E+00
  0.00000000E+00  0.00000000E+00  0.00000000E+00
  0.00000000E+00  0.00000000E+00  0.00000000E+00
  0.00000000E+00  0.00000000E+00  0.00000000E+00
  0.00000000E+00  0.00000000E+00  0.00000000E+00
  0.00000000E+00  0.00000000E+00  0.00000000E+00
  0.00000000E+00  0.00000000E+00  0.00000000E+00
  0.00000000E+00  0.00000000E+00  0.00000000E+00
  0.00000000E+00  0.00000000E+00  0.00000000E+00
  0.00000000E+00  0.00000000E+00  0.00000000E+00
  0.00000000E+00  0.00000000E+00  0.00000000E+00
  0.00000000E+00  0.00000000E+00  0.00000000E+00
  0.00000000E+00  0.00000000E+00  0.00000000E+00
  0.00000000E+00  0.00000000E+00  0.00000000E+00
  0.00000000E+00  0.00000000E+00  0.00000000E+00
  0.00000000E+00  0.00000000E+00  0.00000000E+00
  0.00000000E+00  0.00000000E+00  0.00000000E+00
  0.00000000E+00  0.00000000E+00  0.00000000E+00
  0.00000000E+00  0.00000000E+00  0.00000000E+00
  0.00000000E+00  0.00000000E+00  0.00000000E+00
  0.00000000E+00  0.00000000E+00  0.00000000E+00
  0.00000000E+00  0.00000000E+00  0.00000000E+00
  0.00000000E+00  0.00000000E+00  0.00000000E+00
  0.00000000E+00  0.00000000E+00  0.00000000E+00
  0.00000000E+00  0.00000000E+00  0.00000000E+00
  0.00000000E+00  0.00000000E+00  0.00000000E+00
  0.00000000E+00  0.00000000E+00  0.00000000E+00
  0.00000000E+00  0.00000000E+00  0.00000000E+00
  0.00000000E+00  0.00000000E+00  0.00000000E+00
  0.00000000E+00  0.00000000E+00  0.00000000E+00
  0.00000000E+00  0.00000000E+00  0.00000000E+00
  0.00000000E+00  0.00000000E+00  0.00000000E+00
  0.00000000E+00  0.00000000E+00  0.00000000E+00
  0.00000000E+00  0.00000000E+00  0.00000000E+00
  0.00000000E+00  0.00000000E+00  0.00000000E+00
