H4 Au48 C6 Cl2                          
    1.000000000000000     
    11.7981859999999994    0.0000000000000000    0.0000000000000000
    -5.8990929999999997   10.2175279999999997    0.0000000000000000
     0.0000000000000000    0.0000000000000000   17.8183830000000007
   H    Au   C    Cl
     4    48     6     2
Selective dynamics
Direct
  0.5046841459231501  0.3803129425780796  0.7821712459199119   T   T   T
  0.3801180680459098  0.5048429667891838  0.7822597159446119   T   T   T
  0.7437811019187848  0.8684823625978879  0.7822963427387819   T   T   T
  0.8683507031555848  0.7439307534986170  0.7822019744934039   T   T   T
  0.0833330000000032  0.1666669999999968  0.3367310000000003   F   F   F
  0.0833330000000032  0.4166669999999968  0.3367310000000003   F   F   F
  0.0833330000000032  0.6666669999999968  0.3367310000000003   F   F   F
  0.0833330000000032  0.9166669999999968  0.3367310000000003   F   F   F
  0.3333330000000032  0.1666669999999968  0.3367310000000003   F   F   F
  0.3333330000000032  0.4166669999999968  0.3367310000000003   F   F   F
  0.3333330000000032  0.6666669999999968  0.3367310000000003   F   F   F
  0.3333330000000032  0.9166669999999968  0.3367310000000003   F   F   F
  0.5833330000000032  0.1666669999999968  0.3367310000000003   F   F   F
  0.5833330000000032  0.4166669999999968  0.3367310000000003   F   F   F
  0.5833330000000032  0.6666669999999968  0.3367310000000003   F   F   F
  0.5833330000000032  0.9166669999999968  0.3367310000000003   F   F   F
  0.8333330000000032  0.1666669999999968  0.3367310000000003   F   F   F
  0.8333330000000032  0.4166669999999968  0.3367310000000003   F   F   F
  0.8333330000000032  0.6666669999999968  0.3367310000000003   F   F   F
  0.8333330000000032  0.9166669999999968  0.3367310000000003   F   F   F
  0.2493813963256173  0.2494166888637110  0.6082065820265115   T   T   T
  0.2490614899898773  0.4994312514550145  0.6079556732390543   T   T   T
  0.2490885266542904  0.7500460739217587  0.6075915429148182   T   T   T
  0.2502083993582715  0.0000900114349776  0.6077516166615808   T   T   T
  0.4993754651610018  0.2489843377433587  0.6080272123547488   T   T   T
  0.4979131911020858  0.4976526999188025  0.6068690788446602   T   T   T
  0.4993942481733029  0.7508901585587751  0.6050074658085691   T   T   T
  0.5002719246183602  0.0011901509150789  0.6075777348935532   T   T   T
  0.7503985075880379  0.2490702680520940  0.6077041781792474   T   T   T
  0.7512604056489494  0.4990016765539451  0.6049193265568817   T   T   T
  0.7525507876303834  0.7522964927308635  0.6068820814644980   T   T   T
  0.7508436810848949  0.0011924815290882  0.6079761608384828   T   T   T
  0.0004209680723193  0.2498685017917808  0.6079300710402151   T   T   T
  0.0012138687621928  0.4999202818099846  0.6076938491580037   T   T   T
  0.0012864724741846  0.7509238972340526  0.6080517942632895   T   T   T
  0.0008180946596212  0.0008510615182544  0.6081986323574284   T   T   T
  0.1667990640946542  0.0833875929687693  0.4719348479300507   T   T   T
  0.1667431144411822  0.3332297774851583  0.4719897183126491   T   T   T
  0.1672768543327194  0.5837158058504457  0.4720522843947208   T   T   T
  0.1668160930024527  0.8336012348463981  0.4718923990314607   T   T   T
  0.4166001617839612  0.0833637011522725  0.4718999802661372   T   T   T
  0.4169099372051619  0.3331856464299534  0.4722626543519368   T   T   T
  0.4165119347229833  0.5829828210815009  0.4724966999544122   T   T   T
  0.4162980424314355  0.8338901668992804  0.4718329354298305   T   T   T
  0.6665220812375310  0.0829350572000536  0.4720538993582863   T   T   T
  0.6663395778918968  0.3325681087322749  0.4720464023435653   T   T   T
  0.6663681932412544  0.5837946161400964  0.4730944574087204   T   T   T
  0.6672202977215065  0.8336790981381412  0.4724799117743217   T   T   T
  0.9169752999666017  0.0834723818096208  0.4719999778405892   T   T   T
  0.9166776693946943  0.3335553437873600  0.4722884193558627   T   T   T
  0.9176223184857548  0.5838752641670268  0.4720583627918842   T   T   T
  0.9169799858198502  0.8332649826808805  0.4722657100851606   T   T   T
  0.6919326216897446  0.5565902735092649  0.7881015235784545   T   T   T
  0.5553694827373974  0.4869883215542927  0.7853165813031495   T   T   T
  0.4868540173883957  0.5554717028601672  0.7853474277695511   T   T   T
  0.5564324456458678  0.6920898145523822  0.7882350132341855   T   T   T
  0.6930890090862789  0.7617489411031357  0.7853685181102108   T   T   T
  0.7615540627281376  0.6932920098310049  0.7853425686479341   T   T   T
  0.7766762409315646  0.4719678778279786  0.7912405741365376   T   T   T
  0.4717743021215881  0.7768474457527361  0.7914605969048338   T   T   T
 
  0.00000000E+00  0.00000000E+00  0.00000000E+00
  0.00000000E+00  0.00000000E+00  0.00000000E+00
  0.00000000E+00  0.00000000E+00  0.00000000E+00
  0.00000000E+00  0.00000000E+00  0.00000000E+00
  0.00000000E+00  0.00000000E+00  0.00000000E+00
  0.00000000E+00  0.00000000E+00  0.00000000E+00
  0.00000000E+00  0.00000000E+00  0.00000000E+00
  0.00000000E+00  0.00000000E+00  0.00000000E+00
  0.00000000E+00  0.00000000E+00  0.00000000E+00
  0.00000000E+00  0.00000000E+00  0.00000000E+00
  0.00000000E+00  0.00000000E+00  0.00000000E+00
  0.00000000E+00  0.00000000E+00  0.00000000E+00
  0.00000000E+00  0.00000000E+00  0.00000000E+00
  0.00000000E+00  0.00000000E+00  0.00000000E+00
  0.00000000E+00  0.00000000E+00  0.00000000E+00
  0.00000000E+00  0.00000000E+00  0.00000000E+00
  0.00000000E+00  0.00000000E+00  0.00000000E+00
  0.00000000E+00  0.00000000E+00  0.00000000E+00
  0.00000000E+00  0.00000000E+00  0.00000000E+00
  0.00000000E+00  0.00000000E+00  0.00000000E+00
  0.00000000E+00  0.00000000E+00  0.00000000E+00
  0.00000000E+00  0.00000000E+00  0.00000000E+00
  0.00000000E+00  0.00000000E+00  0.00000000E+00
  0.00000000E+00  0.00000000E+00  0.00000000E+00
  0.00000000E+00  0.00000000E+00  0.00000000E+00
  0.00000000E+00  0.00000000E+00  0.00000000E+00
  0.00000000E+00  0.00000000E+00  0.00000000E+00
  0.00000000E+00  0.00000000E+00  0.00000000E+00
  0.00000000E+00  0.00000000E+00  0.00000000E+00
  0.00000000E+00  0.00000000E+00  0.00000000E+00
  0.00000000E+00  0.00000000E+00  0.00000000E+00
  0.00000000E+00  0.00000000E+00  0.00000000E+00
  0.00000000E+00  0.00000000E+00  0.00000000E+00
  0.00000000E+00  0.00000000E+00  0.00000000E+00
  0.00000000E+00  0.00000000E+00  0.00000000E+00
  0.00000000E+00  0.00000000E+00  0.00000000E+00
  0.00000000E+00  0.00000000E+00  0.00000000E+00
  0.00000000E+00  0.00000000E+00  0.00000000E+00
  0.00000000E+00  0.00000000E+00  0.00000000E+00
  0.00000000E+00  0.00000000E+00  0.00000000E+00
  0.00000000E+00  0.00000000E+00  0.00000000E+00
  0.00000000E+00  0.00000000E+00  0.00000000E+00
  0.00000000E+00  0.00000000E+00  0.00000000E+00
  0.00000000E+00  0.00000000E+00  0.00000000E+00
  0.00000000E+00  0.00000000E+00  0.00000000E+00
  0.00000000E+00  0.00000000E+00  0.00000000E+00
  0.00000000E+00  0.00000000E+00  0.00000000E+00
  0.00000000E+00  0.00000000E+00  0.00000000E+00
  0.00000000E+00  0.00000000E+00  0.00000000E+00
  0.00000000E+00  0.00000000E+00  0.00000000E+00
  0.00000000E+00  0.00000000E+00  0.00000000E+00
  0.00000000E+00  0.00000000E+00  0.00000000E+00
  0.00000000E+00  0.00000000E+00  0.00000000E+00
  0.00000000E+00  0.00000000E+00  0.00000000E+00
  0.00000000E+00  0.00000000E+00  0.00000000E+00
  0.00000000E+00  0.00000000E+00  0.00000000E+00
  0.00000000E+00  0.00000000E+00  0.00000000E+00
  0.00000000E+00  0.00000000E+00  0.00000000E+00
  0.00000000E+00  0.00000000E+00  0.00000000E+00
  0.00000000E+00  0.00000000E+00  0.00000000E+00
