Rh48 C6 H2 Br4                          
    1.000000000000000     
    10.8856652999999994    0.0000000000000000    0.0000000000000000
     0.0000000000000000   10.8856652999999994    0.0000000000000000
     0.0000000000000000    0.0000000000000000   16.5590270199999985
   Rh   C    H    Br
    48     6     2     4
Selective dynamics
Direct
  0.0000096745288332  0.9999999951829395  0.4085069696679113   T   T   T
  0.9981935114590357  0.2513190685777147  0.4096517940472708   T   T   T
  0.9999894651456103  0.5000040056940520  0.4100491174169747   T   T   T
  0.0018074710010083  0.7486822711974028  0.4096544792230645   T   T   T
  0.2513154693942994  0.9981890100070956  0.4096539703350146   T   T   T
  0.2492915353879468  0.2492820015590169  0.4086678934540018   T   T   T
  0.2490660587165294  0.5000785923289470  0.4086664594322045   T   T   T
  0.2515735240523185  0.7484366438012202  0.4103036996952412   T   T   T
  0.4999950072534105  0.0000023210151241  0.4100507006584166   T   T   T
  0.5000770466870605  0.2490644496046315  0.4086718434494685   T   T   T
  0.4999992781212370  0.5000069269291245  0.4079823338826642   T   T   T
  0.4999210886427221  0.7509368818584292  0.4086689649594959   T   T   T
  0.7486769033928056  0.0018107612380263  0.4096526895701658   T   T   T
  0.7484254001165596  0.2515754326669040  0.4103078453796627   T   T   T
  0.7509338166297184  0.4999269859108679  0.4086723073232292   T   T   T
  0.7507078625223471  0.7506982295023192  0.4086709959821491   T   T   T
  0.1243983398328012  0.1243945885490660  0.5157332144693569   T   T   T
  0.1246386875619763  0.3728875772465301  0.5167374419632580   T   T   T
  0.1249385555688320  0.6254638008748046  0.5205872575336201   T   T   T
  0.1242126728994464  0.8757892493787978  0.5168697761726904   T   T   T
  0.3728846949131963  0.1246352069944408  0.5167360475947405   T   T   T
  0.3724138526575729  0.3724187951942071  0.5153056544850401   T   T   T
  0.3775572347823015  0.6224485805934492  0.5214832293707943   T   T   T
  0.3745382091504226  0.8750646118282361  0.5205942820486982   T   T   T
  0.6254572108405583  0.1249426635169471  0.5205716184666045   T   T   T
  0.6224356737843308  0.3775623153139804  0.5214814210386791   T   T   T
  0.6275892383580057  0.6275970963446085  0.5153191660541268   T   T   T
  0.6271094640254944  0.8753660204106097  0.5167328285660844   T   T   T
  0.8757878009183528  0.1242129226250128  0.5168632308563446   T   T   T
  0.8750540484386420  0.3745468681211861  0.5205693136488421   T   T   T
  0.8753613955638642  0.6271139780116499  0.5167424669721541   T   T   T
  0.8756004680509619  0.8756015140945976  0.5157288803911158   T   T   T
  0.1249999997703384  0.1249999997703384  0.3019501081773086   F   F   F
  0.1250000006889778  0.3750000002296616  0.3019501081773086   F   F   F
  0.1250000006889778  0.6250000006889778  0.3019501081773086   F   F   F
  0.1250000006889778  0.8750000011483010  0.3019501081773086   F   F   F
  0.3750000011483010  0.1249999997703384  0.3019501081773086   F   F   F
  0.3750000011483010  0.3750000002296616  0.3019501081773086   F   F   F
  0.3750000011483010  0.6250000006889778  0.3019501081773086   F   F   F
  0.3750000011483010  0.8750000011483010  0.3019501081773086   F   F   F
  0.6250000006889778  0.1249999997703384  0.3019501081773086   F   F   F
  0.6250000006889778  0.3750000002296616  0.3019501081773086   F   F   F
  0.6250000016076172  0.6250000006889778  0.3019501081773086   F   F   F
  0.6250000016076172  0.8750000011483010  0.3019501081773086   F   F   F
  0.8750000011483010  0.1249999997703384  0.3019501081773086   F   F   F
  0.8750000011483010  0.3750000002296616  0.3019501081773086   F   F   F
  0.8750000011483010  0.6250000006889778  0.3019501081773086   F   F   F
  0.8750000020669404  0.8750000011483010  0.3019501081773086   F   F   F
  0.4032544026174705  0.4032960015318565  0.6382659962841402   T   T   T
  0.3712253269777577  0.5350181637197551  0.6361735706991212   T   T   T
  0.4649782365496407  0.6287665072748752  0.6361759025971310   T   T   T
  0.5966729292747317  0.5967671202045892  0.6382787636444291   T   T   T
  0.6287100691220573  0.4649582088543340  0.6361695297834089   T   T   T
  0.5350328760389971  0.3712898135110905  0.6361650583137077   T   T   T
  0.3427498023053701  0.3427743237552363  0.6728596790848869   T   T   T
  0.6572052313851628  0.6572574583171260  0.6728669394736713   T   T   T
  0.1988940707963067  0.5693734808090127  0.6694255445125776   T   T   T
  0.4305951647736563  0.8010872830761926  0.6694492456426886   T   T   T
  0.8010680780546338  0.4306513690061635  0.6694559631919290   T   T   T
  0.5693637003019560  0.1989187204647180  0.6694396921259482   T   T   T
 
  0.00000000E+00  0.00000000E+00  0.00000000E+00
  0.00000000E+00  0.00000000E+00  0.00000000E+00
  0.00000000E+00  0.00000000E+00  0.00000000E+00
  0.00000000E+00  0.00000000E+00  0.00000000E+00
  0.00000000E+00  0.00000000E+00  0.00000000E+00
  0.00000000E+00  0.00000000E+00  0.00000000E+00
  0.00000000E+00  0.00000000E+00  0.00000000E+00
  0.00000000E+00  0.00000000E+00  0.00000000E+00
  0.00000000E+00  0.00000000E+00  0.00000000E+00
  0.00000000E+00  0.00000000E+00  0.00000000E+00
  0.00000000E+00  0.00000000E+00  0.00000000E+00
  0.00000000E+00  0.00000000E+00  0.00000000E+00
  0.00000000E+00  0.00000000E+00  0.00000000E+00
  0.00000000E+00  0.00000000E+00  0.00000000E+00
  0.00000000E+00  0.00000000E+00  0.00000000E+00
  0.00000000E+00  0.00000000E+00  0.00000000E+00
  0.00000000E+00  0.00000000E+00  0.00000000E+00
  0.00000000E+00  0.00000000E+00  0.00000000E+00
  0.00000000E+00  0.00000000E+00  0.00000000E+00
  0.00000000E+00  0.00000000E+00  0.00000000E+00
  0.00000000E+00  0.00000000E+00  0.00000000E+00
  0.00000000E+00  0.00000000E+00  0.00000000E+00
  0.00000000E+00  0.00000000E+00  0.00000000E+00
  0.00000000E+00  0.00000000E+00  0.00000000E+00
  0.00000000E+00  0.00000000E+00  0.00000000E+00
  0.00000000E+00  0.00000000E+00  0.00000000E+00
  0.00000000E+00  0.00000000E+00  0.00000000E+00
  0.00000000E+00  0.00000000E+00  0.00000000E+00
  0.00000000E+00  0.00000000E+00  0.00000000E+00
  0.00000000E+00  0.00000000E+00  0.00000000E+00
  0.00000000E+00  0.00000000E+00  0.00000000E+00
  0.00000000E+00  0.00000000E+00  0.00000000E+00
  0.00000000E+00  0.00000000E+00  0.00000000E+00
  0.00000000E+00  0.00000000E+00  0.00000000E+00
  0.00000000E+00  0.00000000E+00  0.00000000E+00
  0.00000000E+00  0.00000000E+00  0.00000000E+00
  0.00000000E+00  0.00000000E+00  0.00000000E+00
  0.00000000E+00  0.00000000E+00  0.00000000E+00
  0.00000000E+00  0.00000000E+00  0.00000000E+00
  0.00000000E+00  0.00000000E+00  0.00000000E+00
  0.00000000E+00  0.00000000E+00  0.00000000E+00
  0.00000000E+00  0.00000000E+00  0.00000000E+00
  0.00000000E+00  0.00000000E+00  0.00000000E+00
  0.00000000E+00  0.00000000E+00  0.00000000E+00
  0.00000000E+00  0.00000000E+00  0.00000000E+00
  0.00000000E+00  0.00000000E+00  0.00000000E+00
  0.00000000E+00  0.00000000E+00  0.00000000E+00
  0.00000000E+00  0.00000000E+00  0.00000000E+00
  0.00000000E+00  0.00000000E+00  0.00000000E+00
  0.00000000E+00  0.00000000E+00  0.00000000E+00
  0.00000000E+00  0.00000000E+00  0.00000000E+00
  0.00000000E+00  0.00000000E+00  0.00000000E+00
  0.00000000E+00  0.00000000E+00  0.00000000E+00
  0.00000000E+00  0.00000000E+00  0.00000000E+00
  0.00000000E+00  0.00000000E+00  0.00000000E+00
  0.00000000E+00  0.00000000E+00  0.00000000E+00
  0.00000000E+00  0.00000000E+00  0.00000000E+00
  0.00000000E+00  0.00000000E+00  0.00000000E+00
  0.00000000E+00  0.00000000E+00  0.00000000E+00
  0.00000000E+00  0.00000000E+00  0.00000000E+00
