Pt  C  N  F                             
    1.000000000000000     
    11.2480068000000006    0.0000000000000000    0.0000000000000000
     0.0000000000000000   11.2480068000000006    0.0000000000000000
     0.0000000000000000    0.0000000000000000   23.9651564400000012
   Pt   C    N    F 
    64     4     2     4
Selective dynamics
Direct
  0.2500000008890453  0.0000000000000000  0.3129543518222917   F   F   F
  0.0000000000000000  0.5000000017780906  0.3129543518222917   F   F   F
  0.2500000008890453  0.2500000008890453  0.3129543518222917   F   F   F
  0.2500000008890453  0.5000000017780906  0.3129543518222917   F   F   F
  0.2500000008890453  0.7500000026671358  0.3129543518222917   F   F   F
  0.5000000017780906  0.0000000000000000  0.3129543518222917   F   F   F
  0.5000000017780906  0.2500000008890453  0.3129543518222917   F   F   F
  0.0000000000000000  0.7500000026671358  0.3129543518222917   F   F   F
  0.5000000017780906  0.5000000017780906  0.3129543518222917   F   F   F
  0.5000000017780906  0.7500000026671358  0.3129543518222917   F   F   F
  0.7500000026671358  0.0000000000000000  0.3129543518222917   F   F   F
  0.7500000026671358  0.2500000008890453  0.3129543518222917   F   F   F
  0.7500000026671358  0.5000000017780906  0.3129543518222917   F   F   F
  0.7500000026671358  0.7500000026671358  0.3129543518222917   F   F   F
  0.0000000000000000  0.0000000000000000  0.3129543518222917   F   F   F
  0.0000000000000000  0.2500000008890453  0.3129543518222917   F   F   F
  0.2495650015051407  0.9981731733232200  0.4773992377388001   T   T   T
  0.2510788278332020  0.2510819236601728  0.4778155251923770   T   T   T
  0.2538465790309189  0.5003180765308844  0.4795597697076696   T   T   T
  0.2539142652175813  0.7460906979583279  0.4797481699649779   T   T   T
  0.5000080893006826 -0.0000015391120880  0.4773966258205529   T   T   T
  0.5003202257484157  0.2538426746099472  0.4795633771238045   T   T   T
  0.5000085291637759  0.5000014897428692  0.4818641609607903   T   T   T
  0.4996718572765673  0.7461543597261370  0.4795645212505711   T   T   T
  0.7504413833215043  0.0018303057064141  0.4774102544021775   T   T   T
  0.7460910767864077  0.2539071546937496  0.4797564213078930   T   T   T
  0.7461567722425965  0.4996692820640742  0.4795671012813747   T   T   T
  0.7489149469844182  0.7489196942279754  0.4778197402006421   T   T   T
 -0.0000121355843012  0.0000009571134302  0.4776522625464532   T   T   T
  0.9981565738861282  0.2495655158068290  0.4774074037239197   T   T   T
 -0.0000078056388484  0.5000005744798253  0.4773956560174979   T   T   T
  0.0018253683418137  0.7504383587116688  0.4774024348681724   T   T   T
  0.1241278149910414  0.1241274533344312  0.5589710258280753   T   T   T
  0.1195128124897570  0.3739881919907652  0.5593727906285035   T   T   T
  0.1250489744181710  0.6240794207338578  0.5598628771100140   T   T   T
  0.1251750313878282  0.8748357571414663  0.5596781950506657   T   T   T
  0.3739767598282570  0.1195184015243915  0.5593582352333413   T   T   T
  0.3612338561363431  0.3612415037958319  0.5641034973923729   T   T   T
  0.3753422873395305  0.6246625897661229  0.5692125686090436   T   T   T
  0.3759256015255565  0.8749621942780197  0.5598642717359618   T   T   T
  0.6240683870167836  0.1250333825378987  0.5598647411178206   T   T   T
  0.6246632578416127  0.3753320202265918  0.5692184461853187   T   T   T
  0.6387730244434671  0.6387632113207420  0.5641140872843879   T   T   T
  0.6260224888693804  0.8804829720922742  0.5593698351026674   T   T   T
  0.8748289964069716  0.1251677734378712  0.5596858382758156   T   T   T
  0.8749614596024201  0.3759322894866379  0.5598846098470215   T   T   T
  0.8804858294244275  0.6260208062989078  0.5593742031969259   T   T   T
  0.8758779097393652  0.8758702006202814  0.5589948837114112   T   T   T
  0.1250000008890453  0.1250000000000000  0.3959242036977884   F   F   F
  0.1250000008890453  0.3750000008890453  0.3959242036977884   F   F   F
  0.1250000008890453  0.6250000026671358  0.3959242036977884   F   F   F
  0.1250000008890453  0.8750000026671358  0.3959242036977884   F   F   F
  0.3750000017780906  0.1250000000000000  0.3959242036977884   F   F   F
  0.3750000017780906  0.3750000008890453  0.3959242036977884   F   F   F
  0.3750000017780906  0.6250000026671358  0.3959242036977884   F   F   F
  0.3750000017780906  0.8750000026671358  0.3959242036977884   F   F   F
  0.6250000026671358  0.1250000000000000  0.3959242036977884   F   F   F
  0.6250000026671358  0.3750000008890453  0.3959242036977884   F   F   F
  0.6250000026671358  0.6250000026671358  0.3959242036977884   F   F   F
  0.6250000026671358  0.8750000026671358  0.3959242036977884   F   F   F
  0.8750000035561882  0.1250000000000000  0.3959242036977884   F   F   F
  0.8750000026671358  0.3750000008890453  0.3959242036977884   F   F   F
  0.8750000035561882  0.6250000026671358  0.3959242036977884   F   F   F
  0.8750000035561882  0.8750000026671358  0.3959242036977884   F   F   F
  0.4708527438795421  0.6202449309003084  0.6478307735562568   T   T   T
  0.3797549273444067  0.5291393814228375  0.6478323008259975   T   T   T
  0.5291338356618773  0.3797312856397279  0.6478338833455288   T   T   T
  0.6202597621918085  0.4708357300732431  0.6478418477381178   T   T   T
  0.4100407632975799  0.4100605071810826  0.6438918733190370   T   T   T
  0.5899444736224484  0.5899406459952951  0.6438974128735948   T   T   T
  0.7220262265569841  0.4512018313491198  0.6772515982418695   T   T   T
  0.5487578632929742  0.2779467381439731  0.6772445607687586   T   T   T
  0.4512317874173811  0.7220374399733470  0.6772483326051212   T   T   T
  0.2779572608242688  0.5487870787212232  0.6772461490165219   T   T   T
 
  0.00000000E+00  0.00000000E+00  0.00000000E+00
  0.00000000E+00  0.00000000E+00  0.00000000E+00
  0.00000000E+00  0.00000000E+00  0.00000000E+00
  0.00000000E+00  0.00000000E+00  0.00000000E+00
  0.00000000E+00  0.00000000E+00  0.00000000E+00
  0.00000000E+00  0.00000000E+00  0.00000000E+00
  0.00000000E+00  0.00000000E+00  0.00000000E+00
  0.00000000E+00  0.00000000E+00  0.00000000E+00
  0.00000000E+00  0.00000000E+00  0.00000000E+00
  0.00000000E+00  0.00000000E+00  0.00000000E+00
  0.00000000E+00  0.00000000E+00  0.00000000E+00
  0.00000000E+00  0.00000000E+00  0.00000000E+00
  0.00000000E+00  0.00000000E+00  0.00000000E+00
  0.00000000E+00  0.00000000E+00  0.00000000E+00
  0.00000000E+00  0.00000000E+00  0.00000000E+00
  0.00000000E+00  0.00000000E+00  0.00000000E+00
  0.00000000E+00  0.00000000E+00  0.00000000E+00
  0.00000000E+00  0.00000000E+00  0.00000000E+00
  0.00000000E+00  0.00000000E+00  0.00000000E+00
  0.00000000E+00  0.00000000E+00  0.00000000E+00
  0.00000000E+00  0.00000000E+00  0.00000000E+00
  0.00000000E+00  0.00000000E+00  0.00000000E+00
  0.00000000E+00  0.00000000E+00  0.00000000E+00
  0.00000000E+00  0.00000000E+00  0.00000000E+00
  0.00000000E+00  0.00000000E+00  0.00000000E+00
  0.00000000E+00  0.00000000E+00  0.00000000E+00
  0.00000000E+00  0.00000000E+00  0.00000000E+00
  0.00000000E+00  0.00000000E+00  0.00000000E+00
  0.00000000E+00  0.00000000E+00  0.00000000E+00
  0.00000000E+00  0.00000000E+00  0.00000000E+00
  0.00000000E+00  0.00000000E+00  0.00000000E+00
  0.00000000E+00  0.00000000E+00  0.00000000E+00
  0.00000000E+00  0.00000000E+00  0.00000000E+00
  0.00000000E+00  0.00000000E+00  0.00000000E+00
  0.00000000E+00  0.00000000E+00  0.00000000E+00
  0.00000000E+00  0.00000000E+00  0.00000000E+00
  0.00000000E+00  0.00000000E+00  0.00000000E+00
  0.00000000E+00  0.00000000E+00  0.00000000E+00
  0.00000000E+00  0.00000000E+00  0.00000000E+00
  0.00000000E+00  0.00000000E+00  0.00000000E+00
  0.00000000E+00  0.00000000E+00  0.00000000E+00
  0.00000000E+00  0.00000000E+00  0.00000000E+00
  0.00000000E+00  0.00000000E+00  0.00000000E+00
  0.00000000E+00  0.00000000E+00  0.00000000E+00
  0.00000000E+00  0.00000000E+00  0.00000000E+00
  0.00000000E+00  0.00000000E+00  0.00000000E+00
  0.00000000E+00  0.00000000E+00  0.00000000E+00
  0.00000000E+00  0.00000000E+00  0.00000000E+00
  0.00000000E+00  0.00000000E+00  0.00000000E+00
  0.00000000E+00  0.00000000E+00  0.00000000E+00
  0.00000000E+00  0.00000000E+00  0.00000000E+00
  0.00000000E+00  0.00000000E+00  0.00000000E+00
  0.00000000E+00  0.00000000E+00  0.00000000E+00
  0.00000000E+00  0.00000000E+00  0.00000000E+00
  0.00000000E+00  0.00000000E+00  0.00000000E+00
  0.00000000E+00  0.00000000E+00  0.00000000E+00
  0.00000000E+00  0.00000000E+00  0.00000000E+00
  0.00000000E+00  0.00000000E+00  0.00000000E+00
  0.00000000E+00  0.00000000E+00  0.00000000E+00
  0.00000000E+00  0.00000000E+00  0.00000000E+00
  0.00000000E+00  0.00000000E+00  0.00000000E+00
  0.00000000E+00  0.00000000E+00  0.00000000E+00
  0.00000000E+00  0.00000000E+00  0.00000000E+00
  0.00000000E+00  0.00000000E+00  0.00000000E+00
  0.00000000E+00  0.00000000E+00  0.00000000E+00
  0.00000000E+00  0.00000000E+00  0.00000000E+00
  0.00000000E+00  0.00000000E+00  0.00000000E+00
  0.00000000E+00  0.00000000E+00  0.00000000E+00
  0.00000000E+00  0.00000000E+00  0.00000000E+00
  0.00000000E+00  0.00000000E+00  0.00000000E+00
  0.00000000E+00  0.00000000E+00  0.00000000E+00
  0.00000000E+00  0.00000000E+00  0.00000000E+00
  0.00000000E+00  0.00000000E+00  0.00000000E+00
  0.00000000E+00  0.00000000E+00  0.00000000E+00
