Pd48 C4 N2 F4                           
    1.000000000000000     
    11.1922750000000004    0.0000000000000000    0.0000000000000000
    -5.5961369999999997    9.6927939999999992    0.0000000000000000
     0.0000000000000000    0.0000000000000000   16.5692270000000015
   Pd   C    N    F 
    48     4     2     4
Selective dynamics
Direct
  0.0833330000000032  0.1666669999999968  0.3621169999999978   F   F   F
  0.0833330000000032  0.4166669999999968  0.3621169999999978   F   F   F
  0.0833330000000032  0.6666669999999968  0.3621169999999978   F   F   F
  0.0833330000000032  0.9166669999999968  0.3621169999999978   F   F   F
  0.3333330000000032  0.1666669999999968  0.3621169999999978   F   F   F
  0.3333330000000032  0.4166669999999968  0.3621169999999978   F   F   F
  0.3333330000000032  0.6666669999999968  0.3621169999999978   F   F   F
  0.3333330000000032  0.9166669999999968  0.3621169999999978   F   F   F
  0.5833330000000032  0.1666669999999968  0.3621169999999978   F   F   F
  0.5833330000000032  0.4166669999999968  0.3621169999999978   F   F   F
  0.5833330000000032  0.6666669999999968  0.3621169999999978   F   F   F
  0.5833330000000032  0.9166669999999968  0.3621169999999978   F   F   F
  0.8333330000000032  0.1666669999999968  0.3621169999999978   F   F   F
  0.8333330000000032  0.4166669999999968  0.3621169999999978   F   F   F
  0.8333330000000032  0.6666669999999968  0.3621169999999978   F   F   F
  0.8333330000000032  0.9166669999999968  0.3621169999999978   F   F   F
  0.2462118608857509  0.9927246553438493  0.6331971653156003   T   T   T
  0.2543087616470530  0.2521725046127870  0.6456660015379825   T   T   T
  0.2462145238045323  0.5034875451619740  0.6332185826893095   T   T   T
  0.2479321197051263  0.7489655961386461  0.6360463338691247   T   T   T
  0.5005354642527848  0.9956142883050560  0.6357495080536211   T   T   T
  0.5009505024210341  0.2396086839862406  0.6418196133440190   T   T   T
  0.5009605694323156  0.5113474164396266  0.6418107070232750   T   T   T
  0.5005343080544762  0.7549276613691092  0.6357469510223837   T   T   T
  0.7531226115120049  0.0015659410977307  0.6362999685291584   T   T   T
  0.7552262444469804  0.2478986910002874  0.6334382144805843   T   T   T
  0.7501067470909035  0.5000385946163419  0.6465239953037738   T   T   T
  0.7552377888481345  0.7573352946868965  0.6334333601826359   T   T   T
  0.0023694754873489  0.0017919782788027  0.6364946476658275   T   T   T
  0.0023598092772232  0.2505779161977770  0.6364813265895677   T   T   T
  0.9987894311992562  0.4992719417617693  0.6366228900377351   T   T   T
  0.9987852431759450  0.7495058077294985  0.6366463728746794   T   T   T
  0.1691487043509667  0.0870737172293872  0.5010373868089530   T   T   T
  0.1691505350216858  0.3320910071682590  0.5010363501549975   T   T   T
  0.1643211400903226  0.5823358807690013  0.4978281396261792   T   T   T
  0.1643118318810792  0.8319737929595163  0.4978273868351195   T   T   T
  0.4178831392992137  0.0847996061125471  0.4998704409767356   T   T   T
  0.4180414508883814  0.3340221377468993  0.5016333507485271   T   T   T
  0.4178815952901758  0.5830818199000873  0.4998724812077029   T   T   T
  0.4149863685497976  0.8324951438502097  0.4982171989242232   T   T   T
  0.6663175842168059  0.0827383757819931  0.4983408200520572   T   T   T
  0.6658865991899603  0.3336889115738089  0.5013643231181604   T   T   T
  0.6658820521976878  0.5821966492530350  0.5013681908666356   T   T   T
  0.6663172268195439  0.8335729170128090  0.4983412165146675   T   T   T
  0.9171167146858110  0.0835572875834387  0.4989488758345644   T   T   T
  0.9180402993133683  0.3327369890989047  0.4981102793812298   T   T   T
  0.9110086515167310  0.5805093668432235  0.5026858480003327   T   T   T
  0.9180398239076411  0.8353033415484106  0.4981173263790097   T   T   T
  0.5747409487924884  0.5152449226681028  0.7642774949420215   T   T   T
  0.4258811925230219  0.4409400186546435  0.7642451854641195   T   T   T
  0.4258045384561200  0.2349592875660775  0.7642670690681612   T   T   T
  0.5745678661652249  0.3092959312701922  0.7642906764533706   T   T   T
  0.3493268720476976  0.2996952364153671  0.7637805533689672   T   T   T
  0.6511672137105649  0.4504562049551524  0.7637617389519562   T   T   T
  0.6399120803031622  0.2461943762880665  0.7977727915681285   T   T   T
  0.3602618055967781  0.1064796609686383  0.7976817295978265   T   T   T
  0.6402270079811458  0.6438238137610810  0.7977233293276669   T   T   T
  0.3605008929307871  0.5041104000494911  0.7977611954033108   T   T   T
 
  0.00000000E+00  0.00000000E+00  0.00000000E+00
  0.00000000E+00  0.00000000E+00  0.00000000E+00
  0.00000000E+00  0.00000000E+00  0.00000000E+00
  0.00000000E+00  0.00000000E+00  0.00000000E+00
  0.00000000E+00  0.00000000E+00  0.00000000E+00
  0.00000000E+00  0.00000000E+00  0.00000000E+00
  0.00000000E+00  0.00000000E+00  0.00000000E+00
  0.00000000E+00  0.00000000E+00  0.00000000E+00
  0.00000000E+00  0.00000000E+00  0.00000000E+00
  0.00000000E+00  0.00000000E+00  0.00000000E+00
  0.00000000E+00  0.00000000E+00  0.00000000E+00
  0.00000000E+00  0.00000000E+00  0.00000000E+00
  0.00000000E+00  0.00000000E+00  0.00000000E+00
  0.00000000E+00  0.00000000E+00  0.00000000E+00
  0.00000000E+00  0.00000000E+00  0.00000000E+00
  0.00000000E+00  0.00000000E+00  0.00000000E+00
  0.00000000E+00  0.00000000E+00  0.00000000E+00
  0.00000000E+00  0.00000000E+00  0.00000000E+00
  0.00000000E+00  0.00000000E+00  0.00000000E+00
  0.00000000E+00  0.00000000E+00  0.00000000E+00
  0.00000000E+00  0.00000000E+00  0.00000000E+00
  0.00000000E+00  0.00000000E+00  0.00000000E+00
  0.00000000E+00  0.00000000E+00  0.00000000E+00
  0.00000000E+00  0.00000000E+00  0.00000000E+00
  0.00000000E+00  0.00000000E+00  0.00000000E+00
  0.00000000E+00  0.00000000E+00  0.00000000E+00
  0.00000000E+00  0.00000000E+00  0.00000000E+00
  0.00000000E+00  0.00000000E+00  0.00000000E+00
  0.00000000E+00  0.00000000E+00  0.00000000E+00
  0.00000000E+00  0.00000000E+00  0.00000000E+00
  0.00000000E+00  0.00000000E+00  0.00000000E+00
  0.00000000E+00  0.00000000E+00  0.00000000E+00
  0.00000000E+00  0.00000000E+00  0.00000000E+00
  0.00000000E+00  0.00000000E+00  0.00000000E+00
  0.00000000E+00  0.00000000E+00  0.00000000E+00
  0.00000000E+00  0.00000000E+00  0.00000000E+00
  0.00000000E+00  0.00000000E+00  0.00000000E+00
  0.00000000E+00  0.00000000E+00  0.00000000E+00
  0.00000000E+00  0.00000000E+00  0.00000000E+00
  0.00000000E+00  0.00000000E+00  0.00000000E+00
  0.00000000E+00  0.00000000E+00  0.00000000E+00
  0.00000000E+00  0.00000000E+00  0.00000000E+00
  0.00000000E+00  0.00000000E+00  0.00000000E+00
  0.00000000E+00  0.00000000E+00  0.00000000E+00
  0.00000000E+00  0.00000000E+00  0.00000000E+00
  0.00000000E+00  0.00000000E+00  0.00000000E+00
  0.00000000E+00  0.00000000E+00  0.00000000E+00
  0.00000000E+00  0.00000000E+00  0.00000000E+00
  0.00000000E+00  0.00000000E+00  0.00000000E+00
  0.00000000E+00  0.00000000E+00  0.00000000E+00
  0.00000000E+00  0.00000000E+00  0.00000000E+00
  0.00000000E+00  0.00000000E+00  0.00000000E+00
  0.00000000E+00  0.00000000E+00  0.00000000E+00
  0.00000000E+00  0.00000000E+00  0.00000000E+00
  0.00000000E+00  0.00000000E+00  0.00000000E+00
  0.00000000E+00  0.00000000E+00  0.00000000E+00
  0.00000000E+00  0.00000000E+00  0.00000000E+00
  0.00000000E+00  0.00000000E+00  0.00000000E+00
