Pt  C  N Br                             
    1.000000000000000     
    11.2480068000000006    0.0000000000000000    0.0000000000000000
     0.0000000000000000   11.2480068000000006    0.0000000000000000
     0.0000000000000000    0.0000000000000000   23.9651564400000012
   Pt   C    N    Br
    64     4     2     4
Selective dynamics
Direct
  0.2500000008890453  0.0000000000000000  0.3129543518222917   F   F   F
  0.0000000000000000  0.5000000017780906  0.3129543518222917   F   F   F
  0.2500000008890453  0.2500000008890453  0.3129543518222917   F   F   F
  0.2500000008890453  0.5000000017780906  0.3129543518222917   F   F   F
  0.2500000008890453  0.7500000026671358  0.3129543518222917   F   F   F
  0.5000000017780906  0.0000000000000000  0.3129543518222917   F   F   F
  0.5000000017780906  0.2500000008890453  0.3129543518222917   F   F   F
  0.0000000000000000  0.7500000026671358  0.3129543518222917   F   F   F
  0.5000000017780906  0.5000000017780906  0.3129543518222917   F   F   F
  0.5000000017780906  0.7500000026671358  0.3129543518222917   F   F   F
  0.7500000026671358  0.0000000000000000  0.3129543518222917   F   F   F
  0.7500000026671358  0.2500000008890453  0.3129543518222917   F   F   F
  0.7500000026671358  0.5000000017780906  0.3129543518222917   F   F   F
  0.7500000026671358  0.7500000026671358  0.3129543518222917   F   F   F
  0.0000000000000000  0.0000000000000000  0.3129543518222917   F   F   F
  0.0000000000000000  0.2500000008890453  0.3129543518222917   F   F   F
  0.2513854300498426  0.9948485016496091  0.4784618215101873   T   T   T
  0.2488412082448327  0.2488542612559840  0.4771316894811525   T   T   T
  0.2498460577816453  0.5002079967000063  0.4789878169719669   T   T   T
  0.2536657758361354  0.7463414709193730  0.4803969141254317   T   T   T
  0.4999978326289544 -0.0000001477032645  0.4790576519089271   T   T   T
  0.5001940034915828  0.2498523264547921  0.4789924383070656   T   T   T
  0.4999993788194809  0.5000002805241368  0.4786232622329741   T   T   T
  0.4998137728294438  0.7501423324078309  0.4789870294858727   T   T   T
  0.7485955884484855  0.0051416121973072  0.4784729791214389   T   T   T
  0.7463348490675232  0.2536566828557322  0.4803948374962752   T   T   T
  0.7501442751590289  0.4998053477050727  0.4789882319772247   T   T   T
  0.7511548674558631  0.7511578947920763  0.4771380100097016   T   T   T
 -0.0000060437309803 -0.0000101791099994  0.4774682288299554   T   T   T
  0.9948500694049732  0.2513961674485795  0.4784636902863359   T   T   T
  0.0000016703667247  0.5000068739519516  0.4790445531135876   T   T   T
  0.0051524574554828  0.7486021685853324  0.4784681888783087   T   T   T
  0.1225990584810534  0.1226161325763182  0.5596653644686209   T   T   T
  0.1182945225264633  0.3702888373918320  0.5593299891151666   T   T   T
  0.1256304471576682  0.6241326323360382  0.5664173861740427   T   T   T
  0.1246163838860969  0.8753722737724463  0.5602685149384479   T   T   T
  0.3702596883972987  0.1183129772381895  0.5593327879369544   T   T   T
  0.3583884911976725  0.3584184751959821  0.5617287350360936   T   T   T
  0.3796037144854507  0.6204068442403355  0.5631595136275909   T   T   T
  0.3758472371992571  0.8743656804320700  0.5664103343273609   T   T   T
  0.6241400220889147  0.1256423290266062  0.5664255220193696   T   T   T
  0.6204107114736677  0.3795787743353520  0.5631750218523974   T   T   T
  0.6416016160181888  0.6415847223705423  0.5617214066738592   T   T   T
  0.6297157252622753  0.8816963939503122  0.5593487350681999   T   T   T
  0.8753832200275246  0.1246278647663986  0.5602526316366113   T   T   T
  0.8743727839829258  0.3758684400640567  0.5663917820098383   T   T   T
  0.8816986825336042  0.6297037465728306  0.5593342591185479   T   T   T
  0.8774033203705842  0.8773888857923048  0.5596725732966905   T   T   T
  0.1250000008890453  0.1250000000000000  0.3959242036977884   F   F   F
  0.1250000008890453  0.3750000008890453  0.3959242036977884   F   F   F
  0.1250000008890453  0.6250000026671358  0.3959242036977884   F   F   F
  0.1250000008890453  0.8750000026671358  0.3959242036977884   F   F   F
  0.3750000017780906  0.1250000000000000  0.3959242036977884   F   F   F
  0.3750000017780906  0.3750000008890453  0.3959242036977884   F   F   F
  0.3750000017780906  0.6250000026671358  0.3959242036977884   F   F   F
  0.3750000017780906  0.8750000026671358  0.3959242036977884   F   F   F
  0.6250000026671358  0.1250000000000000  0.3959242036977884   F   F   F
  0.6250000026671358  0.3750000008890453  0.3959242036977884   F   F   F
  0.6250000026671358  0.6250000026671358  0.3959242036977884   F   F   F
  0.6250000026671358  0.8750000026671358  0.3959242036977884   F   F   F
  0.8750000035561882  0.1250000000000000  0.3959242036977884   F   F   F
  0.8750000026671358  0.3750000008890453  0.3959242036977884   F   F   F
  0.8750000035561882  0.6250000026671358  0.3959242036977884   F   F   F
  0.8750000035561882  0.8750000026671358  0.3959242036977884   F   F   F
  0.4706292829955050  0.6206779144863083  0.6411478838756544   T   T   T
  0.3793405821553635  0.5293685715303899  0.6411455189862216   T   T   T
  0.5294340428566150  0.3792978769974893  0.6411445602427213   T   T   T
  0.6206755896142715  0.4705525156596611  0.6411638317878943   T   T   T
  0.4101047453331855  0.4101488192610179  0.6411919701482460   T   T   T
  0.5898691447978316  0.5898471382267044  0.6411936775330088   T   T   T
  0.7864168999553631  0.4383306099188254  0.6684029950374378   T   T   T
  0.5615564945624052  0.2135672102337840  0.6684136007052314   T   T   T
  0.4384890399862816  0.7864742235148360  0.6684098697990870   T   T   T
  0.2137099232490168  0.5617510044891378  0.6683619989574204   T   T   T
 
  0.00000000E+00  0.00000000E+00  0.00000000E+00
  0.00000000E+00  0.00000000E+00  0.00000000E+00
  0.00000000E+00  0.00000000E+00  0.00000000E+00
  0.00000000E+00  0.00000000E+00  0.00000000E+00
  0.00000000E+00  0.00000000E+00  0.00000000E+00
  0.00000000E+00  0.00000000E+00  0.00000000E+00
  0.00000000E+00  0.00000000E+00  0.00000000E+00
  0.00000000E+00  0.00000000E+00  0.00000000E+00
  0.00000000E+00  0.00000000E+00  0.00000000E+00
  0.00000000E+00  0.00000000E+00  0.00000000E+00
  0.00000000E+00  0.00000000E+00  0.00000000E+00
  0.00000000E+00  0.00000000E+00  0.00000000E+00
  0.00000000E+00  0.00000000E+00  0.00000000E+00
  0.00000000E+00  0.00000000E+00  0.00000000E+00
  0.00000000E+00  0.00000000E+00  0.00000000E+00
  0.00000000E+00  0.00000000E+00  0.00000000E+00
  0.00000000E+00  0.00000000E+00  0.00000000E+00
  0.00000000E+00  0.00000000E+00  0.00000000E+00
  0.00000000E+00  0.00000000E+00  0.00000000E+00
  0.00000000E+00  0.00000000E+00  0.00000000E+00
  0.00000000E+00  0.00000000E+00  0.00000000E+00
  0.00000000E+00  0.00000000E+00  0.00000000E+00
  0.00000000E+00  0.00000000E+00  0.00000000E+00
  0.00000000E+00  0.00000000E+00  0.00000000E+00
  0.00000000E+00  0.00000000E+00  0.00000000E+00
  0.00000000E+00  0.00000000E+00  0.00000000E+00
  0.00000000E+00  0.00000000E+00  0.00000000E+00
  0.00000000E+00  0.00000000E+00  0.00000000E+00
  0.00000000E+00  0.00000000E+00  0.00000000E+00
  0.00000000E+00  0.00000000E+00  0.00000000E+00
  0.00000000E+00  0.00000000E+00  0.00000000E+00
  0.00000000E+00  0.00000000E+00  0.00000000E+00
  0.00000000E+00  0.00000000E+00  0.00000000E+00
  0.00000000E+00  0.00000000E+00  0.00000000E+00
  0.00000000E+00  0.00000000E+00  0.00000000E+00
  0.00000000E+00  0.00000000E+00  0.00000000E+00
  0.00000000E+00  0.00000000E+00  0.00000000E+00
  0.00000000E+00  0.00000000E+00  0.00000000E+00
  0.00000000E+00  0.00000000E+00  0.00000000E+00
  0.00000000E+00  0.00000000E+00  0.00000000E+00
  0.00000000E+00  0.00000000E+00  0.00000000E+00
  0.00000000E+00  0.00000000E+00  0.00000000E+00
  0.00000000E+00  0.00000000E+00  0.00000000E+00
  0.00000000E+00  0.00000000E+00  0.00000000E+00
  0.00000000E+00  0.00000000E+00  0.00000000E+00
  0.00000000E+00  0.00000000E+00  0.00000000E+00
  0.00000000E+00  0.00000000E+00  0.00000000E+00
  0.00000000E+00  0.00000000E+00  0.00000000E+00
  0.00000000E+00  0.00000000E+00  0.00000000E+00
  0.00000000E+00  0.00000000E+00  0.00000000E+00
  0.00000000E+00  0.00000000E+00  0.00000000E+00
  0.00000000E+00  0.00000000E+00  0.00000000E+00
  0.00000000E+00  0.00000000E+00  0.00000000E+00
  0.00000000E+00  0.00000000E+00  0.00000000E+00
  0.00000000E+00  0.00000000E+00  0.00000000E+00
  0.00000000E+00  0.00000000E+00  0.00000000E+00
  0.00000000E+00  0.00000000E+00  0.00000000E+00
  0.00000000E+00  0.00000000E+00  0.00000000E+00
  0.00000000E+00  0.00000000E+00  0.00000000E+00
  0.00000000E+00  0.00000000E+00  0.00000000E+00
  0.00000000E+00  0.00000000E+00  0.00000000E+00
  0.00000000E+00  0.00000000E+00  0.00000000E+00
  0.00000000E+00  0.00000000E+00  0.00000000E+00
  0.00000000E+00  0.00000000E+00  0.00000000E+00
  0.00000000E+00  0.00000000E+00  0.00000000E+00
  0.00000000E+00  0.00000000E+00  0.00000000E+00
  0.00000000E+00  0.00000000E+00  0.00000000E+00
  0.00000000E+00  0.00000000E+00  0.00000000E+00
  0.00000000E+00  0.00000000E+00  0.00000000E+00
  0.00000000E+00  0.00000000E+00  0.00000000E+00
  0.00000000E+00  0.00000000E+00  0.00000000E+00
  0.00000000E+00  0.00000000E+00  0.00000000E+00
  0.00000000E+00  0.00000000E+00  0.00000000E+00
  0.00000000E+00  0.00000000E+00  0.00000000E+00
