Au  C  N Br                             
   1.00000000000000     
    11.7981859999999994    0.0000000000000000    0.0000000000000000
    -5.8990929999999997   10.2175279999999997    0.0000000000000000
     0.0000000000000000    0.0000000000000000   25.2248836799999978
   Au   C    N    Br
    64     4     2     4
Selective dynamics
Direct
  0.9999999981222629  0.7500000352335690  0.2973254543071064   F   F   F
  0.2499999923717056  0.0000000000000000  0.2973254543071064   F   F   F
  0.2500000016343193  0.2500000117445254  0.2973254543071064   F   F   F
  0.2500000117445254  0.5000000234890507  0.2973254543071064   F   F   F
  0.2500000210071391  0.7500000352335690  0.2973254543071064   F   F   F
  0.4999999847434182  0.0000000000000000  0.2973254543071064   F   F   F
  0.4999999940060320  0.2500000117445254  0.2973254543071064   F   F   F
  0.5000000041162309  0.5000000234890507  0.2973254543071064   F   F   F
  0.7499999771151238  0.0000000000000000  0.2973254543071064   F   F   F
  0.7499999863777376  0.2500000117445254  0.2973254543071064   F   F   F
  0.7499999964879436  0.5000000234890507  0.2973254543071064   F   F   F
  0.7500000057505574  0.7500000352335690  0.2973254543071064   F   F   F
  0.9999999694868364  0.0000000000000000  0.2973254543071064   F   F   F
  0.0000000092626138  0.2500000117445254  0.2973254543071064   F   F   F
  0.9999999888596491  0.5000000234890507  0.2973254543071064   F   F   F
  0.5000000133788447  0.7500000352335690  0.2973254543071064   F   F   F
  0.0833330000000032  0.1666669999999968  0.3927984241947584   F   F   F
  0.0833330000000032  0.4166669999999968  0.3927984241947584   F   F   F
  0.0833330000000032  0.6666669999999968  0.3927984241947584   F   F   F
  0.0833330000000032  0.9166669999999968  0.3927984241947584   F   F   F
  0.3333330000000032  0.1666669999999968  0.3927984241947584   F   F   F
  0.3333330000000032  0.4166669999999968  0.3927984241947584   F   F   F
  0.3333330000000032  0.6666669999999968  0.3927984241947584   F   F   F
  0.3333330000000032  0.9166669999999968  0.3927984241947584   F   F   F
  0.5833330000000032  0.1666669999999968  0.3927984241947584   F   F   F
  0.5833330000000032  0.4166669999999968  0.3927984241947584   F   F   F
  0.5833330000000032  0.6666669999999968  0.3927984241947584   F   F   F
  0.5833330000000032  0.9166669999999968  0.3927984241947584   F   F   F
  0.8333330000000032  0.1666669999999968  0.3927984241947584   F   F   F
  0.8333330000000032  0.4166669999999968  0.3927984241947584   F   F   F
  0.8333330000000032  0.6666669999999968  0.3927984241947584   F   F   F
  0.8333330000000032  0.9166669999999968  0.3927984241947584   F   F   F
  0.2498086784187234  0.2496733058023373  0.5815122981708912   T   T   T
  0.2498550779631869  0.5000104292394663  0.5843047586464770   T   T   T
  0.2500152697713947  0.7500223991876970  0.5849826195434601   T   T   T
  0.2499102735783890 -0.0001158434554003  0.5849809036672780   T   T   T
  0.4997367051741231  0.2486326260021681  0.5831272454938471   T   T   T
  0.5000204944168666  0.5000163844671112  0.5809766942459655   T   T   T
  0.5000422106186229  0.7501280633786523  0.5842929139058725   T   T   T
  0.4999285796219267 -0.0000996308568090  0.5849933127761243   T   T   T
  0.7500805842062683  0.2501329452159379  0.5849973417072823   T   T   T
  0.7486557784184564  0.4999300981702436  0.5832334937135314   T   T   T
  0.7499879166592331  0.7500636841523384  0.5810003641138669   T   T   T
  0.7498057875732614  0.0012437957788196  0.5831024566352090   T   T   T
  0.0000262218991335  0.2500914496929117  0.5849712872420242   T   T   T
 -0.0000825967291353  0.4999544175153693  0.5849873316782008   T   T   T
  0.0000434970738941  0.7499691192073518  0.5843125384321071   T   T   T
 -0.0000213154234139  0.0000015600433345  0.5849213353377739   T   T   T
  0.1654921779841859  0.0818413513727240  0.4878639131569305   T   T   T
  0.1659664299665553  0.3343304706608420  0.4873312237077242   T   T   T
  0.1653330417588220  0.5833610920407122  0.4879566860845792   T   T   T
  0.1652863083294999  0.8319147630824349  0.4879605304543124   T   T   T
  0.4150921112035344  0.0821234037694804  0.4878860606683635   T   T   T
  0.4162887416852998  0.3329602100819805  0.4861817104654501   T   T   T
  0.4157589573262643  0.5842433526031273  0.4878493785933775   T   T   T
  0.4161325704002847  0.8342725512971436  0.4879557502642254   T   T   T
  0.6658216736307851  0.0838220463899429  0.4878890223927587   T   T   T
  0.6653033904716690  0.3318986856827013  0.4878950099943470   T   T   T
  0.6666515902970760  0.5829083186303016  0.4860684236990832   T   T   T
  0.6665206427938527  0.8336990009052028  0.4862600822901145   T   T   T
  0.9175757603978224  0.0847034101816193  0.4879374506212774   T   T   T
  0.9152680962785505  0.3332272835338116  0.4879531037750557   T   T   T
  0.9157731586320289  0.5819924653195457  0.4879220384610859   T   T   T
  0.9168076142039501  0.8334079485568719  0.4868894675002776   T   T   T
  0.4942759840621739  0.5619498211893585  0.7073601285718137   T   T   T
  0.5637357033559930  0.4930837201133208  0.7074425978188036   T   T   T
  0.7575439618089366  0.6875296562333787  0.7079857621713068   T   T   T
  0.6881144610889292  0.7563924788975019  0.7076397137558533   T   T   T
  0.6932570880637728  0.5580156181658930  0.7073689267620552   T   T   T
  0.5585938114725650  0.6915050074822818  0.7068732815941648   T   T   T
  0.7729857080004068  0.9410755891477004  0.7112643649676467   T   T   T
  0.9423160378699460  0.7737284417562891  0.7119514994062131   T   T   T
  0.3095875199669600  0.4768497090519292  0.7108543325424909   T   T   T
  0.4788535260937430  0.3080172569560498  0.7100634175851983   T   T   T
 
  0.00000000E+00  0.00000000E+00  0.00000000E+00
  0.00000000E+00  0.00000000E+00  0.00000000E+00
  0.00000000E+00  0.00000000E+00  0.00000000E+00
  0.00000000E+00  0.00000000E+00  0.00000000E+00
  0.00000000E+00  0.00000000E+00  0.00000000E+00
  0.00000000E+00  0.00000000E+00  0.00000000E+00
  0.00000000E+00  0.00000000E+00  0.00000000E+00
  0.00000000E+00  0.00000000E+00  0.00000000E+00
  0.00000000E+00  0.00000000E+00  0.00000000E+00
  0.00000000E+00  0.00000000E+00  0.00000000E+00
  0.00000000E+00  0.00000000E+00  0.00000000E+00
  0.00000000E+00  0.00000000E+00  0.00000000E+00
  0.00000000E+00  0.00000000E+00  0.00000000E+00
  0.00000000E+00  0.00000000E+00  0.00000000E+00
  0.00000000E+00  0.00000000E+00  0.00000000E+00
  0.00000000E+00  0.00000000E+00  0.00000000E+00
  0.00000000E+00  0.00000000E+00  0.00000000E+00
  0.00000000E+00  0.00000000E+00  0.00000000E+00
  0.00000000E+00  0.00000000E+00  0.00000000E+00
  0.00000000E+00  0.00000000E+00  0.00000000E+00
  0.00000000E+00  0.00000000E+00  0.00000000E+00
  0.00000000E+00  0.00000000E+00  0.00000000E+00
  0.00000000E+00  0.00000000E+00  0.00000000E+00
  0.00000000E+00  0.00000000E+00  0.00000000E+00
  0.00000000E+00  0.00000000E+00  0.00000000E+00
  0.00000000E+00  0.00000000E+00  0.00000000E+00
  0.00000000E+00  0.00000000E+00  0.00000000E+00
  0.00000000E+00  0.00000000E+00  0.00000000E+00
  0.00000000E+00  0.00000000E+00  0.00000000E+00
  0.00000000E+00  0.00000000E+00  0.00000000E+00
  0.00000000E+00  0.00000000E+00  0.00000000E+00
  0.00000000E+00  0.00000000E+00  0.00000000E+00
  0.00000000E+00  0.00000000E+00  0.00000000E+00
  0.00000000E+00  0.00000000E+00  0.00000000E+00
  0.00000000E+00  0.00000000E+00  0.00000000E+00
  0.00000000E+00  0.00000000E+00  0.00000000E+00
  0.00000000E+00  0.00000000E+00  0.00000000E+00
  0.00000000E+00  0.00000000E+00  0.00000000E+00
  0.00000000E+00  0.00000000E+00  0.00000000E+00
  0.00000000E+00  0.00000000E+00  0.00000000E+00
  0.00000000E+00  0.00000000E+00  0.00000000E+00
  0.00000000E+00  0.00000000E+00  0.00000000E+00
  0.00000000E+00  0.00000000E+00  0.00000000E+00
  0.00000000E+00  0.00000000E+00  0.00000000E+00
  0.00000000E+00  0.00000000E+00  0.00000000E+00
  0.00000000E+00  0.00000000E+00  0.00000000E+00
  0.00000000E+00  0.00000000E+00  0.00000000E+00
  0.00000000E+00  0.00000000E+00  0.00000000E+00
  0.00000000E+00  0.00000000E+00  0.00000000E+00
  0.00000000E+00  0.00000000E+00  0.00000000E+00
  0.00000000E+00  0.00000000E+00  0.00000000E+00
  0.00000000E+00  0.00000000E+00  0.00000000E+00
  0.00000000E+00  0.00000000E+00  0.00000000E+00
  0.00000000E+00  0.00000000E+00  0.00000000E+00
  0.00000000E+00  0.00000000E+00  0.00000000E+00
  0.00000000E+00  0.00000000E+00  0.00000000E+00
  0.00000000E+00  0.00000000E+00  0.00000000E+00
  0.00000000E+00  0.00000000E+00  0.00000000E+00
  0.00000000E+00  0.00000000E+00  0.00000000E+00
  0.00000000E+00  0.00000000E+00  0.00000000E+00
  0.00000000E+00  0.00000000E+00  0.00000000E+00
  0.00000000E+00  0.00000000E+00  0.00000000E+00
  0.00000000E+00  0.00000000E+00  0.00000000E+00
  0.00000000E+00  0.00000000E+00  0.00000000E+00
  0.00000000E+00  0.00000000E+00  0.00000000E+00
  0.00000000E+00  0.00000000E+00  0.00000000E+00
  0.00000000E+00  0.00000000E+00  0.00000000E+00
  0.00000000E+00  0.00000000E+00  0.00000000E+00
  0.00000000E+00  0.00000000E+00  0.00000000E+00
  0.00000000E+00  0.00000000E+00  0.00000000E+00
  0.00000000E+00  0.00000000E+00  0.00000000E+00
  0.00000000E+00  0.00000000E+00  0.00000000E+00
  0.00000000E+00  0.00000000E+00  0.00000000E+00
  0.00000000E+00  0.00000000E+00  0.00000000E+00
