Ag  C  F                                
   1.00000000000000     
    11.7678089999999997    0.0000000000000000    0.0000000000000000
    -5.8839040000000002   10.1912210000000005    0.0000000000000000
     0.0000000000000000    0.0000000000000000   25.2062817300000006
   Ag   C    F 
    64     6     6
Selective dynamics
Direct
  0.7499999754973956  0.7500000274746270  0.2975448771198046   F   F   F
  0.9999999830044857  0.0000000000000000  0.2975448771198046   F   F   F
  0.9999999789222898  0.2500000088311296  0.2975448771198046   F   F   F
  0.9999999748400938  0.5000000176622592  0.2975448771198046   F   F   F
  0.9999999882440349  0.7500000274746270  0.2975448771198046   F   F   F
  0.2499999957511179  0.0000000000000000  0.2975448771198046   F   F   F
  0.2499999916689291  0.2500000088311296  0.2975448771198046   F   F   F
  0.2499999875867331  0.5000000176622592  0.2975448771198046   F   F   F
  0.4999999915022428  0.0000000000000000  0.2975448771198046   F   F   F
  0.4999999874200469  0.2500000088311296  0.2975448771198046   F   F   F
  0.4999999833378510  0.5000000176622592  0.2975448771198046   F   F   F
  0.4999999797462777  0.7500000274746270  0.2975448771198046   F   F   F
  0.7499999872533607  0.0000000000000000  0.2975448771198046   F   F   F
  0.7499999831711648  0.2500000088311296  0.2975448771198046   F   F   F
  0.7499999790889760  0.5000000176622592  0.2975448771198046   F   F   F
  0.2499999839951599  0.7500000274746270  0.2975448771198046   F   F   F
  0.0833330000000032  0.1666669999999968  0.3928423087572952   F   F   F
  0.0833330000000032  0.4166669999999968  0.3928423087572952   F   F   F
  0.0833330000000032  0.6666669999999968  0.3928423087572952   F   F   F
  0.0833330000000032  0.9166669999999968  0.3928423087572952   F   F   F
  0.3333330000000032  0.1666669999999968  0.3928423087572952   F   F   F
  0.3333330000000032  0.4166669999999968  0.3928423087572952   F   F   F
  0.3333330000000032  0.6666669999999968  0.3928423087572952   F   F   F
  0.3333330000000032  0.9166669999999968  0.3928423087572952   F   F   F
  0.5833330000000032  0.1666669999999968  0.3928423087572952   F   F   F
  0.5833330000000032  0.4166669999999968  0.3928423087572952   F   F   F
  0.5833330000000032  0.6666669999999968  0.3928423087572952   F   F   F
  0.5833330000000032  0.9166669999999968  0.3928423087572952   F   F   F
  0.8333330000000032  0.1666669999999968  0.3928423087572952   F   F   F
  0.8333330000000032  0.4166669999999968  0.3928423087572952   F   F   F
  0.8333330000000032  0.6666669999999968  0.3928423087572952   F   F   F
  0.8333330000000032  0.9166669999999968  0.3928423087572952   F   F   F
  0.2502041331953535  0.2502204204428793  0.5714567426778601   T   T   T
  0.2500710364185394  0.4998409823807819  0.5712405754909398   T   T   T
  0.2500357278460186  0.7499434416903910  0.5711570752006523   T   T   T
  0.2500674859764160  0.0002561436389286  0.5713009188295786   T   T   T
  0.4998036761704370  0.2500823475299683  0.5712367173561645   T   T   T
  0.4996370948830418  0.4996631203809727  0.5714072704649098   T   T   T
  0.4998711819523933  0.7496476057294785  0.5712842802381530   T   T   T
  0.4998872071714331  0.9999982555264353  0.5711194688128600   T   T   T
  0.7499145428081988  0.2500180339221885  0.5711487991011595   T   T   T
  0.7496610098504775  0.4998447256621148  0.5712879216027105   T   T   T
  0.7497494838072072  0.7497782492990979  0.5712333285161009   T   T   T
  0.7499554906113843  0.9999570246501222  0.5711383636069840   T   T   T
  0.0003003481381754  0.2500554819939609  0.5712905577827243   T   T   T
  0.9999885428759967  0.4998805291531880  0.5711227885533816   T   T   T
  0.9999272890238728  0.7499952118310063  0.5711474230803830   T   T   T
  0.0001672753557287  0.0001889286954011  0.5712135677742651   T   T   T
  0.1667991333884089  0.0835372452340835  0.4820661435003046   T   T   T
  0.1667262344871787  0.3332486591325008  0.4820280894836699   T   T   T
  0.1667497573288159  0.5832853904587978  0.4820078500094880   T   T   T
  0.1666642007502048  0.8334107482820983  0.4820448398700066   T   T   T
  0.4166013197821385  0.0833734897126348  0.4820182646417805   T   T   T
  0.4165479573484276  0.3332827219653041  0.4819991828273089   T   T   T
  0.4166684796216700  0.5832660083289767  0.4820226452949612   T   T   T
  0.4166782648683380  0.8331941587510840  0.4820280284509124   T   T   T
  0.6666877945358891  0.0833320670922078  0.4819994842827455   T   T   T
  0.6665689505270009  0.3332983104767919  0.4820181414762104   T   T   T
  0.6664798049845757  0.5832198216320492  0.4820605619835447   T   T   T
  0.6666067877444632  0.8332851779800521  0.4820328557621707   T   T   T
  0.9166389916032500  0.0833652559204268  0.4820341594364521   T   T   T
  0.9166826836906097  0.3331908471432428  0.4820291442963054   T   T   T
  0.9165066649726867  0.5833036299264194  0.4820400450829325   T   T   T
  0.9165609920603686  0.8333073579136894  0.4820480562950209   T   T   T
  0.3067397819774271  0.2382028727863599  0.7020091096631518   T   T   T
  0.2382015833254982  0.3067322091264586  0.7020075560293364   T   T   T
  0.3067587067096014  0.4436429627665675  0.7020922107288712   T   T   T
  0.4436818336971626  0.5122115131571618  0.7019536898468459   T   T   T
  0.5122142386838178  0.4436962367041417  0.7019549468336876   T   T   T
  0.4436619653192864  0.3067798587509571  0.7020951730349907   T   T   T
  0.2407791159661770  0.1059877753319398  0.7023271501612172   T   T   T
  0.1059913550324296  0.2407661855426610  0.7023309840251173   T   T   T
  0.2405844165655751  0.5097295971719973  0.7021725495848230   T   T   T
  0.5095619645775642  0.6444711076474334  0.7022072561744821   T   T   T
  0.6444686157231558  0.5095956199415141  0.7021994570177768   T   T   T
  0.5097488853751102  0.2406130186637583  0.7021737113414233   T   T   T
 
  0.00000000E+00  0.00000000E+00  0.00000000E+00
  0.00000000E+00  0.00000000E+00  0.00000000E+00
  0.00000000E+00  0.00000000E+00  0.00000000E+00
  0.00000000E+00  0.00000000E+00  0.00000000E+00
  0.00000000E+00  0.00000000E+00  0.00000000E+00
  0.00000000E+00  0.00000000E+00  0.00000000E+00
  0.00000000E+00  0.00000000E+00  0.00000000E+00
  0.00000000E+00  0.00000000E+00  0.00000000E+00
  0.00000000E+00  0.00000000E+00  0.00000000E+00
  0.00000000E+00  0.00000000E+00  0.00000000E+00
  0.00000000E+00  0.00000000E+00  0.00000000E+00
  0.00000000E+00  0.00000000E+00  0.00000000E+00
  0.00000000E+00  0.00000000E+00  0.00000000E+00
  0.00000000E+00  0.00000000E+00  0.00000000E+00
  0.00000000E+00  0.00000000E+00  0.00000000E+00
  0.00000000E+00  0.00000000E+00  0.00000000E+00
  0.00000000E+00  0.00000000E+00  0.00000000E+00
  0.00000000E+00  0.00000000E+00  0.00000000E+00
  0.00000000E+00  0.00000000E+00  0.00000000E+00
  0.00000000E+00  0.00000000E+00  0.00000000E+00
  0.00000000E+00  0.00000000E+00  0.00000000E+00
  0.00000000E+00  0.00000000E+00  0.00000000E+00
  0.00000000E+00  0.00000000E+00  0.00000000E+00
  0.00000000E+00  0.00000000E+00  0.00000000E+00
  0.00000000E+00  0.00000000E+00  0.00000000E+00
  0.00000000E+00  0.00000000E+00  0.00000000E+00
  0.00000000E+00  0.00000000E+00  0.00000000E+00
  0.00000000E+00  0.00000000E+00  0.00000000E+00
  0.00000000E+00  0.00000000E+00  0.00000000E+00
  0.00000000E+00  0.00000000E+00  0.00000000E+00
  0.00000000E+00  0.00000000E+00  0.00000000E+00
  0.00000000E+00  0.00000000E+00  0.00000000E+00
  0.00000000E+00  0.00000000E+00  0.00000000E+00
  0.00000000E+00  0.00000000E+00  0.00000000E+00
  0.00000000E+00  0.00000000E+00  0.00000000E+00
  0.00000000E+00  0.00000000E+00  0.00000000E+00
  0.00000000E+00  0.00000000E+00  0.00000000E+00
  0.00000000E+00  0.00000000E+00  0.00000000E+00
  0.00000000E+00  0.00000000E+00  0.00000000E+00
  0.00000000E+00  0.00000000E+00  0.00000000E+00
  0.00000000E+00  0.00000000E+00  0.00000000E+00
  0.00000000E+00  0.00000000E+00  0.00000000E+00
  0.00000000E+00  0.00000000E+00  0.00000000E+00
  0.00000000E+00  0.00000000E+00  0.00000000E+00
  0.00000000E+00  0.00000000E+00  0.00000000E+00
  0.00000000E+00  0.00000000E+00  0.00000000E+00
  0.00000000E+00  0.00000000E+00  0.00000000E+00
  0.00000000E+00  0.00000000E+00  0.00000000E+00
  0.00000000E+00  0.00000000E+00  0.00000000E+00
  0.00000000E+00  0.00000000E+00  0.00000000E+00
  0.00000000E+00  0.00000000E+00  0.00000000E+00
  0.00000000E+00  0.00000000E+00  0.00000000E+00
  0.00000000E+00  0.00000000E+00  0.00000000E+00
  0.00000000E+00  0.00000000E+00  0.00000000E+00
  0.00000000E+00  0.00000000E+00  0.00000000E+00
  0.00000000E+00  0.00000000E+00  0.00000000E+00
  0.00000000E+00  0.00000000E+00  0.00000000E+00
  0.00000000E+00  0.00000000E+00  0.00000000E+00
  0.00000000E+00  0.00000000E+00  0.00000000E+00
  0.00000000E+00  0.00000000E+00  0.00000000E+00
  0.00000000E+00  0.00000000E+00  0.00000000E+00
  0.00000000E+00  0.00000000E+00  0.00000000E+00
  0.00000000E+00  0.00000000E+00  0.00000000E+00
  0.00000000E+00  0.00000000E+00  0.00000000E+00
  0.00000000E+00  0.00000000E+00  0.00000000E+00
  0.00000000E+00  0.00000000E+00  0.00000000E+00
  0.00000000E+00  0.00000000E+00  0.00000000E+00
  0.00000000E+00  0.00000000E+00  0.00000000E+00
  0.00000000E+00  0.00000000E+00  0.00000000E+00
  0.00000000E+00  0.00000000E+00  0.00000000E+00
  0.00000000E+00  0.00000000E+00  0.00000000E+00
  0.00000000E+00  0.00000000E+00  0.00000000E+00
  0.00000000E+00  0.00000000E+00  0.00000000E+00
  0.00000000E+00  0.00000000E+00  0.00000000E+00
  0.00000000E+00  0.00000000E+00  0.00000000E+00
  0.00000000E+00  0.00000000E+00  0.00000000E+00
