Pt  C  H Br                             
   1.00000000000000     
    11.2480069999999994    0.0000000000000000    0.0000000000000000
    -5.6240030000000001    9.7410599999999992    0.0000000000000000
     0.0000000000000000    0.0000000000000000   24.8879693399999979
   Pt   C    H    Br
    64     6     4     2
Selective dynamics
Direct
  0.9999999587182344  0.7499999743354451  0.3013504194553178   F   F   F
  0.2499999964438118  0.0000000000000000  0.3013504194553178   F   F   F
  0.2499999825579735  0.2499999917873410  0.3013504194553178   F   F   F
  0.2499999690478916  0.4999999825481041  0.3013504194553178   F   F   F
  0.2499999551620533  0.7499999743354451  0.3013504194553178   F   F   F
  0.4999999928876306  0.0000000000000000  0.3013504194553178   F   F   F
  0.4999999790017924  0.2499999917873410  0.3013504194553178   F   F   F
  0.4999999654917033  0.4999999825481041  0.3013504194553178   F   F   F
  0.7499999893314424  0.0000000000000000  0.3013504194553178   F   F   F
  0.7499999754456042  0.2499999917873410  0.3013504194553178   F   F   F
  0.7499999619355222  0.4999999825481041  0.3013504194553178   F   F   F
  0.7499999480496840  0.7499999743354451  0.3013504194553178   F   F   F
  0.0000000000000000  0.0000000000000000  0.3013504194553178   F   F   F
  0.9999999861141617  0.2499999917873410  0.3013504194553178   F   F   F
  0.9999999583793340  0.4999999825481041  0.3013504194553178   F   F   F
  0.4999999516058651  0.7499999743354451  0.3013504194553178   F   F   F
  0.0833330000000032  0.1666669999999968  0.3936034172243978   F   F   F
  0.0833330000000032  0.4166669999999968  0.3936034172243978   F   F   F
  0.0833330000000032  0.6666669999999968  0.3936034172243978   F   F   F
  0.0833330000000032  0.9166669999999968  0.3936034172243978   F   F   F
  0.3333330000000032  0.1666669999999968  0.3936034172243978   F   F   F
  0.3333330000000032  0.4166669999999968  0.3936034172243978   F   F   F
  0.3333330000000032  0.6666669999999968  0.3936034172243978   F   F   F
  0.3333330000000032  0.9166669999999968  0.3936034172243978   F   F   F
  0.5833330000000032  0.1666669999999968  0.3936034172243978   F   F   F
  0.5833330000000032  0.4166669999999968  0.3936034172243978   F   F   F
  0.5833330000000032  0.6666669999999968  0.3936034172243978   F   F   F
  0.5833330000000032  0.9166669999999968  0.3936034172243978   F   F   F
  0.8333330000000032  0.1666669999999968  0.3936034172243978   F   F   F
  0.8333330000000032  0.4166669999999968  0.3936034172243978   F   F   F
  0.8333330000000032  0.6666669999999968  0.3936034172243978   F   F   F
  0.8333330000000032  0.9166669999999968  0.3936034172243978   F   F   F
  0.2452995129575731  0.2453882915704010  0.5779424276562471   T   T   T
  0.2428096421532817  0.4979006376929285  0.5772665200857783   T   T   T
  0.2504317006848612  0.7495905107338844  0.5787171857156789   T   T   T
  0.2509946326488433  0.9990055731728568  0.5784319004078753   T   T   T
  0.4974290797612286  0.2433510000847174  0.5772077345680053   T   T   T
  0.4894429893780826  0.4909322186644301  0.5813832181162405   T   T   T
  0.4997839233985291  0.7502239294591051  0.5844468098109480   T   T   T
  0.5003994379198650  0.9995626138783349  0.5787102738587557   T   T   T
  0.7495386641942712  0.2512927859143208  0.5787034013735812   T   T   T
  0.7488316167747507  0.5011599113440477  0.5839558970898445   T   T   T
  0.7590684134692062  0.7605559292628401  0.5813786722931241   T   T   T
  0.7520932028736148  0.0071913749233202  0.5772684593400965   T   T   T
  0.9989682459649066  0.2510299916287437  0.5784450643704853   T   T   T
  0.9987067658081481  0.5004492588113896  0.5787033928087734   T   T   T
  0.0066537262440938  0.7525655503715534  0.5772215050002967   T   T   T
  0.0046202166080167  0.0047046611309490  0.5779469303475668   T   T   T
  0.1676922003841272  0.0823110069820210  0.4844269351068220   T   T   T
  0.1662012128290315  0.3327445038706116  0.4848117887645716   T   T   T
  0.1658517372458483  0.5834976938018950  0.4846926465233815   T   T   T
  0.1677719853307222  0.8326788039839669  0.4844062289715104   T   T   T
  0.4173174772189754  0.0822188345178523  0.4844108001875149   T   T   T
  0.4173501902224074  0.3351347201678653  0.4858712471207135   T   T   T
  0.4176034703932589  0.5829075204742868  0.4869758028378488   T   T   T
  0.4194455535966112  0.8305413239724408  0.4871415988965679   T   T   T
  0.6664985158353951  0.0841457813316166  0.4846929569966085   T   T   T
  0.6674181761015991  0.3365684209952919  0.4865670274367080   T   T   T
  0.6657702486513767  0.5842194398840223  0.4873221390896326   T   T   T
  0.6670820442205658  0.8323914286239131  0.4869748668801812   T   T   T
  0.9172529868308996  0.0837956799964346  0.4848134556296861   T   T   T
  0.9160688046638242  0.3339242447771411  0.4851724915756061   T   T   T
  0.9134332455391433  0.5825792710823638  0.4865702182117317   T   T   T
  0.9148792716317614  0.8326541249595750  0.4858749994463827   T   T   T
  0.7030347287213558  0.5469929526458304  0.6605524956924271   T   T   T
  0.5508350010715043  0.4776518943505326  0.6627633630520143   T   T   T
  0.4771882578636021  0.5513914963747808  0.6628864085671813   T   T   T
  0.5464825861028908  0.7035493215884118  0.6607334675732673   T   T   T
  0.6986210107823523  0.7728194637351509  0.6628812629296229   T   T   T
  0.7723693408338990  0.6991900022777263  0.6627543600704886   T   T   T
  0.4974102259379757  0.3716413112173675  0.6770952208347533   T   T   T
  0.3712800099741077  0.4980799389865555  0.6771610356892356   T   T   T
  0.7519357856251784  0.8787398424973389  0.6771560001258922   T   T   T
  0.8783729424686548  0.7526143606364285  0.6770887481938627   T   T   T
  0.7761598869607146  0.4739998884864091  0.7152145276308918   T   T   T
  0.4739490321510323  0.7761258970861901  0.7158715575698696   T   T   T
 
  0.00000000E+00  0.00000000E+00  0.00000000E+00
  0.00000000E+00  0.00000000E+00  0.00000000E+00
  0.00000000E+00  0.00000000E+00  0.00000000E+00
  0.00000000E+00  0.00000000E+00  0.00000000E+00
  0.00000000E+00  0.00000000E+00  0.00000000E+00
  0.00000000E+00  0.00000000E+00  0.00000000E+00
  0.00000000E+00  0.00000000E+00  0.00000000E+00
  0.00000000E+00  0.00000000E+00  0.00000000E+00
  0.00000000E+00  0.00000000E+00  0.00000000E+00
  0.00000000E+00  0.00000000E+00  0.00000000E+00
  0.00000000E+00  0.00000000E+00  0.00000000E+00
  0.00000000E+00  0.00000000E+00  0.00000000E+00
  0.00000000E+00  0.00000000E+00  0.00000000E+00
  0.00000000E+00  0.00000000E+00  0.00000000E+00
  0.00000000E+00  0.00000000E+00  0.00000000E+00
  0.00000000E+00  0.00000000E+00  0.00000000E+00
  0.00000000E+00  0.00000000E+00  0.00000000E+00
  0.00000000E+00  0.00000000E+00  0.00000000E+00
  0.00000000E+00  0.00000000E+00  0.00000000E+00
  0.00000000E+00  0.00000000E+00  0.00000000E+00
  0.00000000E+00  0.00000000E+00  0.00000000E+00
  0.00000000E+00  0.00000000E+00  0.00000000E+00
  0.00000000E+00  0.00000000E+00  0.00000000E+00
  0.00000000E+00  0.00000000E+00  0.00000000E+00
  0.00000000E+00  0.00000000E+00  0.00000000E+00
  0.00000000E+00  0.00000000E+00  0.00000000E+00
  0.00000000E+00  0.00000000E+00  0.00000000E+00
  0.00000000E+00  0.00000000E+00  0.00000000E+00
  0.00000000E+00  0.00000000E+00  0.00000000E+00
  0.00000000E+00  0.00000000E+00  0.00000000E+00
  0.00000000E+00  0.00000000E+00  0.00000000E+00
  0.00000000E+00  0.00000000E+00  0.00000000E+00
  0.00000000E+00  0.00000000E+00  0.00000000E+00
  0.00000000E+00  0.00000000E+00  0.00000000E+00
  0.00000000E+00  0.00000000E+00  0.00000000E+00
  0.00000000E+00  0.00000000E+00  0.00000000E+00
  0.00000000E+00  0.00000000E+00  0.00000000E+00
  0.00000000E+00  0.00000000E+00  0.00000000E+00
  0.00000000E+00  0.00000000E+00  0.00000000E+00
  0.00000000E+00  0.00000000E+00  0.00000000E+00
  0.00000000E+00  0.00000000E+00  0.00000000E+00
  0.00000000E+00  0.00000000E+00  0.00000000E+00
  0.00000000E+00  0.00000000E+00  0.00000000E+00
  0.00000000E+00  0.00000000E+00  0.00000000E+00
  0.00000000E+00  0.00000000E+00  0.00000000E+00
  0.00000000E+00  0.00000000E+00  0.00000000E+00
  0.00000000E+00  0.00000000E+00  0.00000000E+00
  0.00000000E+00  0.00000000E+00  0.00000000E+00
  0.00000000E+00  0.00000000E+00  0.00000000E+00
  0.00000000E+00  0.00000000E+00  0.00000000E+00
  0.00000000E+00  0.00000000E+00  0.00000000E+00
  0.00000000E+00  0.00000000E+00  0.00000000E+00
  0.00000000E+00  0.00000000E+00  0.00000000E+00
  0.00000000E+00  0.00000000E+00  0.00000000E+00
  0.00000000E+00  0.00000000E+00  0.00000000E+00
  0.00000000E+00  0.00000000E+00  0.00000000E+00
  0.00000000E+00  0.00000000E+00  0.00000000E+00
  0.00000000E+00  0.00000000E+00  0.00000000E+00
  0.00000000E+00  0.00000000E+00  0.00000000E+00
  0.00000000E+00  0.00000000E+00  0.00000000E+00
  0.00000000E+00  0.00000000E+00  0.00000000E+00
  0.00000000E+00  0.00000000E+00  0.00000000E+00
  0.00000000E+00  0.00000000E+00  0.00000000E+00
  0.00000000E+00  0.00000000E+00  0.00000000E+00
  0.00000000E+00  0.00000000E+00  0.00000000E+00
  0.00000000E+00  0.00000000E+00  0.00000000E+00
  0.00000000E+00  0.00000000E+00  0.00000000E+00
  0.00000000E+00  0.00000000E+00  0.00000000E+00
  0.00000000E+00  0.00000000E+00  0.00000000E+00
  0.00000000E+00  0.00000000E+00  0.00000000E+00
  0.00000000E+00  0.00000000E+00  0.00000000E+00
  0.00000000E+00  0.00000000E+00  0.00000000E+00
  0.00000000E+00  0.00000000E+00  0.00000000E+00
  0.00000000E+00  0.00000000E+00  0.00000000E+00
  0.00000000E+00  0.00000000E+00  0.00000000E+00
  0.00000000E+00  0.00000000E+00  0.00000000E+00
