Cu48 C6 Br2 H4                          
    1.000000000000000     
    10.2424774999999997    0.0000000000000000    0.0000000000000000
     0.0000000000000000   10.2424774999999997    0.0000000000000000
     0.0000000000000000    0.0000000000000000   16.5517355200000011
   Cu   C    Br   H 
    48     6     2     4
Selective dynamics
Direct
  0.2493575972308406  0.9997333339781207  0.4087526524209011   T   T   T
  0.2499901972195531  0.2499951003766441  0.4090897302887910   T   T   T
  0.2512389489981004  0.5001500493436950  0.4092076784646963   T   T   T
  0.2506247747337227  0.7493762874133125  0.4093184854789413   T   T   T
  0.5000081703206405  0.0000170974125737  0.4085567541282202   T   T   T
  0.5001727816990424  0.2512431159557167  0.4091814775711526   T   T   T
  0.5000141126059390  0.4999993391446225  0.4092095524332322   T   T   T
  0.4998426388142931  0.7487693393788888  0.4092012624262722   T   T   T
  0.7506554189537979  0.0003089699687919  0.4087083997983925   T   T   T
  0.7493792526794607  0.2506294111577390  0.4092737612339263   T   T   T
  0.7487796919367682  0.4998260419863669  0.4091911519912586   T   T   T
  0.7500259786211885  0.7500084325709011  0.4090607137190077   T   T   T
  0.9999731878422082  0.0000040936377275  0.4092189850052961   T   T   T
  0.9997055554183021  0.2493575604098694  0.4087287938391739   T   T   T
  0.9999831050338344  0.4999969096104735  0.4085694740618919   T   T   T
  0.0002661771458961  0.7506400957336155  0.4087445579830415   T   T   T
  0.1243819412247760  0.1243734907913634  0.5159906915297725   T   T   T
  0.1230992068316326  0.3748841243446321  0.5151987836219831   T   T   T
  0.1242875146375226  0.6254122319095643  0.5151748442137745   T   T   T
  0.1254360838724153  0.8745493282892554  0.5165751639255660   T   T   T
  0.3748683965154527  0.1230862644890465  0.5152035728897175   T   T   T
  0.3738339639426300  0.3738614148060009  0.5163835164201060   T   T   T
  0.3735509175046730  0.6264102679838928  0.5182943267489648   T   T   T
  0.3745870212455671  0.8757234739788871  0.5151795424903938   T   T   T
  0.6253985733290719  0.1242799377855732  0.5151896212035254   T   T   T
  0.6264012515104227  0.3735643999919134  0.5182890692918889   T   T   T
  0.6261363004199865  0.6261585006598267  0.5164254636094228   T   T   T
  0.6250941408588204  0.8769329806336614  0.5151885772862599   T   T   T
  0.8745632634052924  0.1254269786054323  0.5165821933425434   T   T   T
  0.8757268926500714  0.3746144047309556  0.5151672199583999   T   T   T
  0.8769495723393987  0.6251149280445176  0.5151553758540572   T   T   T
  0.8756250800817327  0.8756133384612426  0.5159760507856817   T   T   T
  0.1250000002440785  0.1249999992677573  0.3020831256008378   F   F   F
  0.1250000002440785  0.3749999997559215  0.3020831256008378   F   F   F
  0.1250000002440785  0.6249999982914289  0.3020831256008378   F   F   F
  0.1250000002440785  0.8749999987795931  0.3020831256008378   F   F   F
  0.3749999997559215  0.1249999992677573  0.3020831256008378   F   F   F
  0.3749999997559215  0.3749999997559215  0.3020831256008378   F   F   F
  0.3749999997559215  0.6249999982914289  0.3020831256008378   F   F   F
  0.3749999997559215  0.8749999987795931  0.3020831256008378   F   F   F
  0.6249999982914289  0.1249999992677573  0.3020831256008378   F   F   F
  0.6249999982914289  0.3749999997559215  0.3020831256008378   F   F   F
  0.6249999992677573  0.6249999982914289  0.3020831256008378   F   F   F
  0.6249999992677573  0.8749999987795931  0.3020831256008378   F   F   F
  0.8749999987795931  0.1249999992677573  0.3020831256008378   F   F   F
  0.8749999978032648  0.3749999997559215  0.3020831256008378   F   F   F
  0.8749999987795931  0.6249999982914289  0.3020831256008378   F   F   F
  0.8749999987795931  0.8749999987795931  0.3020831256008378   F   F   F
  0.5978439186535809  0.5978079664409108  0.6434195818980442   T   T   T
  0.6349285721994633  0.4633733149575008  0.6436517370881347   T   T   T
  0.5366450319552527  0.3650861894124375  0.6436600237977714   T   T   T
  0.4022051378233584  0.4022106306798960  0.6433688361713834   T   T   T
  0.3651013817007112  0.5366511972313361  0.6436512933123382   T   T   T
  0.4634106654593140  0.6349248199994264  0.6436553380593750   T   T   T
  0.7212255558231107  0.7211901285522728  0.6869683245949432   T   T   T
  0.2786692715023804  0.2787019535244895  0.6866206743018139   T   T   T
  0.7355646269792686  0.4372163644561269  0.6578775283642671   T   T   T
  0.5627490045983308  0.2644131725874033  0.6578590480447843   T   T   T
  0.2644334407741979  0.5627869260574272  0.6578593017890526   T   T   T
  0.4372930560560846  0.7355514063727639  0.6579225686543850   T   T   T
 
  0.00000000E+00  0.00000000E+00  0.00000000E+00
  0.00000000E+00  0.00000000E+00  0.00000000E+00
  0.00000000E+00  0.00000000E+00  0.00000000E+00
  0.00000000E+00  0.00000000E+00  0.00000000E+00
  0.00000000E+00  0.00000000E+00  0.00000000E+00
  0.00000000E+00  0.00000000E+00  0.00000000E+00
  0.00000000E+00  0.00000000E+00  0.00000000E+00
  0.00000000E+00  0.00000000E+00  0.00000000E+00
  0.00000000E+00  0.00000000E+00  0.00000000E+00
  0.00000000E+00  0.00000000E+00  0.00000000E+00
  0.00000000E+00  0.00000000E+00  0.00000000E+00
  0.00000000E+00  0.00000000E+00  0.00000000E+00
  0.00000000E+00  0.00000000E+00  0.00000000E+00
  0.00000000E+00  0.00000000E+00  0.00000000E+00
  0.00000000E+00  0.00000000E+00  0.00000000E+00
  0.00000000E+00  0.00000000E+00  0.00000000E+00
  0.00000000E+00  0.00000000E+00  0.00000000E+00
  0.00000000E+00  0.00000000E+00  0.00000000E+00
  0.00000000E+00  0.00000000E+00  0.00000000E+00
  0.00000000E+00  0.00000000E+00  0.00000000E+00
  0.00000000E+00  0.00000000E+00  0.00000000E+00
  0.00000000E+00  0.00000000E+00  0.00000000E+00
  0.00000000E+00  0.00000000E+00  0.00000000E+00
  0.00000000E+00  0.00000000E+00  0.00000000E+00
  0.00000000E+00  0.00000000E+00  0.00000000E+00
  0.00000000E+00  0.00000000E+00  0.00000000E+00
  0.00000000E+00  0.00000000E+00  0.00000000E+00
  0.00000000E+00  0.00000000E+00  0.00000000E+00
  0.00000000E+00  0.00000000E+00  0.00000000E+00
  0.00000000E+00  0.00000000E+00  0.00000000E+00
  0.00000000E+00  0.00000000E+00  0.00000000E+00
  0.00000000E+00  0.00000000E+00  0.00000000E+00
  0.00000000E+00  0.00000000E+00  0.00000000E+00
  0.00000000E+00  0.00000000E+00  0.00000000E+00
  0.00000000E+00  0.00000000E+00  0.00000000E+00
  0.00000000E+00  0.00000000E+00  0.00000000E+00
  0.00000000E+00  0.00000000E+00  0.00000000E+00
  0.00000000E+00  0.00000000E+00  0.00000000E+00
  0.00000000E+00  0.00000000E+00  0.00000000E+00
  0.00000000E+00  0.00000000E+00  0.00000000E+00
  0.00000000E+00  0.00000000E+00  0.00000000E+00
  0.00000000E+00  0.00000000E+00  0.00000000E+00
  0.00000000E+00  0.00000000E+00  0.00000000E+00
  0.00000000E+00  0.00000000E+00  0.00000000E+00
  0.00000000E+00  0.00000000E+00  0.00000000E+00
  0.00000000E+00  0.00000000E+00  0.00000000E+00
  0.00000000E+00  0.00000000E+00  0.00000000E+00
  0.00000000E+00  0.00000000E+00  0.00000000E+00
  0.00000000E+00  0.00000000E+00  0.00000000E+00
  0.00000000E+00  0.00000000E+00  0.00000000E+00
  0.00000000E+00  0.00000000E+00  0.00000000E+00
  0.00000000E+00  0.00000000E+00  0.00000000E+00
  0.00000000E+00  0.00000000E+00  0.00000000E+00
  0.00000000E+00  0.00000000E+00  0.00000000E+00
  0.00000000E+00  0.00000000E+00  0.00000000E+00
  0.00000000E+00  0.00000000E+00  0.00000000E+00
  0.00000000E+00  0.00000000E+00  0.00000000E+00
  0.00000000E+00  0.00000000E+00  0.00000000E+00
  0.00000000E+00  0.00000000E+00  0.00000000E+00
  0.00000000E+00  0.00000000E+00  0.00000000E+00
