Ag48 C4 Br4 N2                          
    1.000000000000000     
    11.7678089999999997    0.0000000000000000    0.0000000000000000
    -5.8839040000000002   10.1912210000000005    0.0000000000000000
     0.0000000000000000    0.0000000000000000   17.8041879999999999
   Ag   C    Br   N 
    48     4     4     2
Selective dynamics
Direct
  0.0833330000000032  0.1666669999999968  0.3369989999999987   F   F   F
  0.0833330000000032  0.4166669999999968  0.3369989999999987   F   F   F
  0.0833330000000032  0.6666669999999968  0.3369989999999987   F   F   F
  0.0833330000000032  0.9166669999999968  0.3369989999999987   F   F   F
  0.3333330000000032  0.1666669999999968  0.3369989999999987   F   F   F
  0.3333330000000032  0.4166669999999968  0.3369989999999987   F   F   F
  0.3333330000000032  0.6666669999999968  0.3369989999999987   F   F   F
  0.3333330000000032  0.9166669999999968  0.3369989999999987   F   F   F
  0.5833330000000032  0.1666669999999968  0.3369989999999987   F   F   F
  0.5833330000000032  0.4166669999999968  0.3369989999999987   F   F   F
  0.5833330000000032  0.6666669999999968  0.3369989999999987   F   F   F
  0.5833330000000032  0.9166669999999968  0.3369989999999987   F   F   F
  0.8333330000000032  0.1666669999999968  0.3369989999999987   F   F   F
  0.8333330000000032  0.4166669999999968  0.3369989999999987   F   F   F
  0.8333330000000032  0.6666669999999968  0.3369989999999987   F   F   F
  0.8333330000000032  0.9166669999999968  0.3369989999999987   F   F   F
  0.2504208280009763  0.2503955566121050  0.5881481762852374   T   T   T
  0.2499863215936458  0.4999085130409924  0.5898153081700386   T   T   T
  0.2499340544887829  0.7499958331275565  0.5898780348949231   T   T   T
  0.2499176445552536  0.9997344820975016  0.5895947760728220   T   T   T
  0.4998259614090301  0.2500435036107973  0.5898235644370757   T   T   T
  0.4993982885109816  0.4993806064286375  0.5881110254367741   T   T   T
  0.4997084066185664  0.7499769025663596  0.5896028161950255   T   T   T
  0.5001005986852221  0.0000408422762703  0.5898551077850485   T   T   T
  0.7498564763084445  0.2498168946870294  0.5898844464721478   T   T   T
  0.7500955178602879  0.4999283746184702  0.5895844734959965   T   T   T
  0.7499953620834603  0.7500014463715985  0.5897440786441521   T   T   T
  0.7499228548496504  0.9999731446329250  0.5897331080507868   T   T   T
  0.9999230635961283  0.2501893710525138  0.5896074020852353   T   T   T
  0.9999095773665303  0.4999683183204411  0.5898467862270849   T   T   T
  0.0000225053319767  0.7498581842786578  0.5897306905498496   T   T   T
  0.9998091334742227  0.9998117394163089  0.5897109134827829   T   T   T
  0.1663728148348227  0.0827565315010403  0.4631856258051457   T   T   T
  0.1663481279560770  0.3336088537284922  0.4631398246307299   T   T   T
  0.1666180473559891  0.5833861961414541  0.4634061055031822   T   T   T
  0.1667126446204037  0.8332844765941374  0.4633536517839190   T   T   T
  0.4166106091216051  0.0833158261016465  0.4634152284414341   T   T   T
  0.4169955558011651  0.3328467321390107  0.4628656830181939   T   T   T
  0.4162922324220872  0.5836153761729435  0.4631349190856966   T   T   T
  0.4166538430324920  0.8333463906538228  0.4634095998643843   T   T   T
  0.6666592913015990  0.0833441273482691  0.4633116854515507   T   T   T
  0.6666279340073729  0.3332833335862659  0.4634151202818160   T   T   T
  0.6671993083454808  0.5836140579835671  0.4631913367895066   T   T   T
  0.6664447094536285  0.8331012578609105  0.4633709481836803   T   T   T
  0.9168258957959523  0.0835253761144301  0.4633643022023861   T   T   T
  0.9164998322662896  0.3331976387750402  0.4634073077253547   T   T   T
  0.9166003878258024  0.5832343793997694  0.4633497500129380   T   T   T
  0.9165617320968451  0.8332532175591894  0.4633509711376433   T   T   T
  0.5076590638122767  0.4382537354117986  0.7719824629098184   T   T   T
  0.4383947288700583  0.5075648018669554  0.7719276143152456   T   T   T
  0.2435395111369871  0.3127547400024042  0.7719452732144703   T   T   T
  0.3128482510587389  0.2434812440711340  0.7719972617689166   T   T   T
  0.2272739433664199  0.0578018358688510  0.7717590825551639   T   T   T
  0.0579150063403233  0.2272568305863274  0.7717524108069114   T   T   T
  0.6932651803496270  0.5236740181991095  0.7717427683945175   T   T   T
  0.5238388216611014  0.6931915085323865  0.7717126049171341   T   T   T
  0.3081124369787389  0.4430224004867895  0.7719754566814672   T   T   T
  0.4430879472611977  0.3080105045355168  0.7720996244652980   T   T   T
 
  0.00000000E+00  0.00000000E+00  0.00000000E+00
  0.00000000E+00  0.00000000E+00  0.00000000E+00
  0.00000000E+00  0.00000000E+00  0.00000000E+00
  0.00000000E+00  0.00000000E+00  0.00000000E+00
  0.00000000E+00  0.00000000E+00  0.00000000E+00
  0.00000000E+00  0.00000000E+00  0.00000000E+00
  0.00000000E+00  0.00000000E+00  0.00000000E+00
  0.00000000E+00  0.00000000E+00  0.00000000E+00
  0.00000000E+00  0.00000000E+00  0.00000000E+00
  0.00000000E+00  0.00000000E+00  0.00000000E+00
  0.00000000E+00  0.00000000E+00  0.00000000E+00
  0.00000000E+00  0.00000000E+00  0.00000000E+00
  0.00000000E+00  0.00000000E+00  0.00000000E+00
  0.00000000E+00  0.00000000E+00  0.00000000E+00
  0.00000000E+00  0.00000000E+00  0.00000000E+00
  0.00000000E+00  0.00000000E+00  0.00000000E+00
  0.00000000E+00  0.00000000E+00  0.00000000E+00
  0.00000000E+00  0.00000000E+00  0.00000000E+00
  0.00000000E+00  0.00000000E+00  0.00000000E+00
  0.00000000E+00  0.00000000E+00  0.00000000E+00
  0.00000000E+00  0.00000000E+00  0.00000000E+00
  0.00000000E+00  0.00000000E+00  0.00000000E+00
  0.00000000E+00  0.00000000E+00  0.00000000E+00
  0.00000000E+00  0.00000000E+00  0.00000000E+00
  0.00000000E+00  0.00000000E+00  0.00000000E+00
  0.00000000E+00  0.00000000E+00  0.00000000E+00
  0.00000000E+00  0.00000000E+00  0.00000000E+00
  0.00000000E+00  0.00000000E+00  0.00000000E+00
  0.00000000E+00  0.00000000E+00  0.00000000E+00
  0.00000000E+00  0.00000000E+00  0.00000000E+00
  0.00000000E+00  0.00000000E+00  0.00000000E+00
  0.00000000E+00  0.00000000E+00  0.00000000E+00
  0.00000000E+00  0.00000000E+00  0.00000000E+00
  0.00000000E+00  0.00000000E+00  0.00000000E+00
  0.00000000E+00  0.00000000E+00  0.00000000E+00
  0.00000000E+00  0.00000000E+00  0.00000000E+00
  0.00000000E+00  0.00000000E+00  0.00000000E+00
  0.00000000E+00  0.00000000E+00  0.00000000E+00
  0.00000000E+00  0.00000000E+00  0.00000000E+00
  0.00000000E+00  0.00000000E+00  0.00000000E+00
  0.00000000E+00  0.00000000E+00  0.00000000E+00
  0.00000000E+00  0.00000000E+00  0.00000000E+00
  0.00000000E+00  0.00000000E+00  0.00000000E+00
  0.00000000E+00  0.00000000E+00  0.00000000E+00
  0.00000000E+00  0.00000000E+00  0.00000000E+00
  0.00000000E+00  0.00000000E+00  0.00000000E+00
  0.00000000E+00  0.00000000E+00  0.00000000E+00
  0.00000000E+00  0.00000000E+00  0.00000000E+00
  0.00000000E+00  0.00000000E+00  0.00000000E+00
  0.00000000E+00  0.00000000E+00  0.00000000E+00
  0.00000000E+00  0.00000000E+00  0.00000000E+00
  0.00000000E+00  0.00000000E+00  0.00000000E+00
  0.00000000E+00  0.00000000E+00  0.00000000E+00
  0.00000000E+00  0.00000000E+00  0.00000000E+00
  0.00000000E+00  0.00000000E+00  0.00000000E+00
  0.00000000E+00  0.00000000E+00  0.00000000E+00
  0.00000000E+00  0.00000000E+00  0.00000000E+00
  0.00000000E+00  0.00000000E+00  0.00000000E+00
