Cu48 C6 H2 Cl4                          
    1.000000000000000     
    10.2424774999999997    0.0000000000000000    0.0000000000000000
     0.0000000000000000   14.4850505999999992    0.0000000000000000
     0.0000000000000000    0.0000000000000000   15.4665387499999998
   Cu   C    H    Cl
    48     6     2     4
Selective dynamics
Direct
  0.2501490562423214  0.2503060647989983  0.4030979336820764   T   T   T
  0.2501441102168940  0.5000382423939129  0.4026415808955335   T   T   T
  0.2498926179064114  0.7498906998270911  0.4025943929064937   T   T   T
  0.2499869099308043  0.0000124574046581  0.4027548426104346   T   T   T
  0.4998013650872082  0.2500623940394817  0.4025881071390458   T   T   T
  0.4999996155811601  0.4999986454334362  0.4026904850479340   T   T   T
  0.5001984795532550  0.7499377118577044  0.4025919391763040   T   T   T
  0.4999998295743993  0.0000014460502911  0.4027518564764847   T   T   T
  0.7501067565386776  0.2501097584129681  0.4025937534122477   T   T   T
  0.7498559714001303  0.4999593676981249  0.4026441544825516   T   T   T
  0.7498512234777621  0.7496939278784680  0.4031024255840876   T   T   T
  0.7500129256349766  0.9999896156513657  0.4027565692526736   T   T   T
  0.9999608835027445  0.2502730303275840  0.4029197577328105   T   T   T
  0.0000004708250643  0.4999991443965257  0.4027495822206859   T   T   T
  0.0000400184123919  0.7497271519228974  0.4029213498451014   T   T   T
  0.0000003539901812  0.0000006430690078  0.4027175655907769   T   T   T
  0.1250248526210243  0.1251176267608116  0.4821370796391378   T   T   T
  0.1252354090161845  0.3752465145288539  0.4825702396931391   T   T   T
  0.1250398130885131  0.6246452760755119  0.4829269140869386   T   T   T
  0.1250724234142098  0.8748989032392416  0.4821157976116766   T   T   T
  0.3750346411122152  0.1251676979879122  0.4821604359009086   T   T   T
  0.3751822614934994  0.3755649182459990  0.4829710336018920   T   T   T
  0.3751337785246847  0.6251187430605327  0.4819684596611538   T   T   T
  0.3750309779161825  0.8749063780016186  0.4821259472716122   T   T   T
  0.6249698335064693  0.1250957460125335  0.4821257368675234   T   T   T
  0.6248674555003078  0.3748802854382518  0.4819702734498819   T   T   T
  0.6248182583606194  0.6244323103376530  0.4829711151549603   T   T   T
  0.6249654041786599  0.8748342698519096  0.4821603966710342   T   T   T
  0.8749276661082561  0.1251024375806651  0.4821150106485348   T   T   T
  0.8749608170055367  0.3753538023196157  0.4829268090508307   T   T   T
  0.8747643139299655  0.6247517208823581  0.4825727498713164   T   T   T
  0.8749742934539242  0.8748838565651837  0.4821375135327841   T   T   T
  0.1250000002440785  0.1249999996548183  0.3232785357357315   F   F   F
  0.1250000002440785  0.3749999989644479  0.3232785357357315   F   F   F
  0.1250000002440785  0.6249999982740846  0.3232785357357315   F   F   F
  0.1250000002440785  0.8749999975837142  0.3232785357357315   F   F   F
  0.3749999997559215  0.1249999996548183  0.3232785357357315   F   F   F
  0.3749999997559215  0.3749999989644479  0.3232785357357315   F   F   F
  0.3749999997559215  0.6249999982740846  0.3232785357357315   F   F   F
  0.3749999997559215  0.8749999975837142  0.3232785357357315   F   F   F
  0.6249999982914289  0.1249999996548183  0.3232785357357315   F   F   F
  0.6249999992677573  0.3749999989644479  0.3232785357357315   F   F   F
  0.6249999992677573  0.6249999982740846  0.3232785357357315   F   F   F
  0.6249999992677573  0.8749999975837142  0.3232785357357315   F   F   F
  0.8749999987795931  0.1249999996548183  0.3232785357357315   F   F   F
  0.8749999978032648  0.3749999989644479  0.3232785357357315   F   F   F
  0.8749999987795931  0.6249999982740846  0.3232785357357315   F   F   F
  0.8749999987795931  0.8749999975837142  0.3232785357357315   F   F   F
  0.5787632107004725  0.5786760945874789  0.6749052117607803   T   T   T
  0.6365964918052640  0.4912934289609225  0.6761328324895217   T   T   T
  0.5572275184328745  0.4121083457611334  0.6760809796846345   T   T   T
  0.4212390721931882  0.4213246953615268  0.6748876678031124   T   T   T
  0.3634075898756635  0.5087090478898091  0.6760999328172375   T   T   T
  0.4427765614757249  0.5878925353599769  0.6760667399744165   T   T   T
  0.6400362224512293  0.6401997659184886  0.6761589903555105   T   T   T
  0.3599629246532317  0.3597988665585561  0.6761267722783089   T   T   T
  0.8039086694673543  0.4830499935449097  0.6761088761011749   T   T   T
  0.6239559255373237  0.3032539370812870  0.6771429342688080   T   T   T
  0.1960941799951499  0.5169490983619909  0.6760258016593141   T   T   T
  0.3760447461644105  0.6967427403263287  0.6771124090770186   T   T   T
 
  0.00000000E+00  0.00000000E+00  0.00000000E+00
  0.00000000E+00  0.00000000E+00  0.00000000E+00
  0.00000000E+00  0.00000000E+00  0.00000000E+00
  0.00000000E+00  0.00000000E+00  0.00000000E+00
  0.00000000E+00  0.00000000E+00  0.00000000E+00
  0.00000000E+00  0.00000000E+00  0.00000000E+00
  0.00000000E+00  0.00000000E+00  0.00000000E+00
  0.00000000E+00  0.00000000E+00  0.00000000E+00
  0.00000000E+00  0.00000000E+00  0.00000000E+00
  0.00000000E+00  0.00000000E+00  0.00000000E+00
  0.00000000E+00  0.00000000E+00  0.00000000E+00
  0.00000000E+00  0.00000000E+00  0.00000000E+00
  0.00000000E+00  0.00000000E+00  0.00000000E+00
  0.00000000E+00  0.00000000E+00  0.00000000E+00
  0.00000000E+00  0.00000000E+00  0.00000000E+00
  0.00000000E+00  0.00000000E+00  0.00000000E+00
  0.00000000E+00  0.00000000E+00  0.00000000E+00
  0.00000000E+00  0.00000000E+00  0.00000000E+00
  0.00000000E+00  0.00000000E+00  0.00000000E+00
  0.00000000E+00  0.00000000E+00  0.00000000E+00
  0.00000000E+00  0.00000000E+00  0.00000000E+00
  0.00000000E+00  0.00000000E+00  0.00000000E+00
  0.00000000E+00  0.00000000E+00  0.00000000E+00
  0.00000000E+00  0.00000000E+00  0.00000000E+00
  0.00000000E+00  0.00000000E+00  0.00000000E+00
  0.00000000E+00  0.00000000E+00  0.00000000E+00
  0.00000000E+00  0.00000000E+00  0.00000000E+00
  0.00000000E+00  0.00000000E+00  0.00000000E+00
  0.00000000E+00  0.00000000E+00  0.00000000E+00
  0.00000000E+00  0.00000000E+00  0.00000000E+00
  0.00000000E+00  0.00000000E+00  0.00000000E+00
  0.00000000E+00  0.00000000E+00  0.00000000E+00
  0.00000000E+00  0.00000000E+00  0.00000000E+00
  0.00000000E+00  0.00000000E+00  0.00000000E+00
  0.00000000E+00  0.00000000E+00  0.00000000E+00
  0.00000000E+00  0.00000000E+00  0.00000000E+00
  0.00000000E+00  0.00000000E+00  0.00000000E+00
  0.00000000E+00  0.00000000E+00  0.00000000E+00
  0.00000000E+00  0.00000000E+00  0.00000000E+00
  0.00000000E+00  0.00000000E+00  0.00000000E+00
  0.00000000E+00  0.00000000E+00  0.00000000E+00
  0.00000000E+00  0.00000000E+00  0.00000000E+00
  0.00000000E+00  0.00000000E+00  0.00000000E+00
  0.00000000E+00  0.00000000E+00  0.00000000E+00
  0.00000000E+00  0.00000000E+00  0.00000000E+00
  0.00000000E+00  0.00000000E+00  0.00000000E+00
  0.00000000E+00  0.00000000E+00  0.00000000E+00
  0.00000000E+00  0.00000000E+00  0.00000000E+00
  0.00000000E+00  0.00000000E+00  0.00000000E+00
  0.00000000E+00  0.00000000E+00  0.00000000E+00
  0.00000000E+00  0.00000000E+00  0.00000000E+00
  0.00000000E+00  0.00000000E+00  0.00000000E+00
  0.00000000E+00  0.00000000E+00  0.00000000E+00
  0.00000000E+00  0.00000000E+00  0.00000000E+00
  0.00000000E+00  0.00000000E+00  0.00000000E+00
  0.00000000E+00  0.00000000E+00  0.00000000E+00
  0.00000000E+00  0.00000000E+00  0.00000000E+00
  0.00000000E+00  0.00000000E+00  0.00000000E+00
  0.00000000E+00  0.00000000E+00  0.00000000E+00
  0.00000000E+00  0.00000000E+00  0.00000000E+00
