Cu  C  H Cl                             
    1.000000000000000     
    10.2424774999999997    0.0000000000000000    0.0000000000000000
     0.0000000000000000   14.4850505999999992    0.0000000000000000
     0.0000000000000000    0.0000000000000000   21.8409290399999989
   Cu   C    H    Cl
    64     6     4     2
Selective dynamics
Direct
  0.2499999995118358  0.2499999993096296  0.3433919860398049   F   F   F
  0.0000000000000000  0.7499999965481621  0.3433919860398049   F   F   F
  0.2499999995118358  0.4999999986192663  0.3433919860398049   F   F   F
  0.2499999995118358  0.7499999979288958  0.3433919860398049   F   F   F
  0.2499999995118358  0.0000000000000000  0.3433919860398049   F   F   F
  0.4999999990236716  0.2499999993096296  0.3433919860398049   F   F   F
  0.4999999990236716  0.4999999986192663  0.3433919860398049   F   F   F
  0.0000000000000000  0.0000000000000000  0.3433919860398049   F   F   F
  0.4999999990236716  0.7499999979288958  0.3433919860398049   F   F   F
  0.4999999990236716  0.0000000000000000  0.3433919860398049   F   F   F
  0.7499999985355075  0.2499999993096296  0.3433919860398049   F   F   F
  0.7499999985355075  0.4999999986192663  0.3433919860398049   F   F   F
  0.7499999985355075  0.7499999979288958  0.3433919860398049   F   F   F
  0.7499999985355075  0.0000000000000000  0.3433919860398049   F   F   F
  0.9999999980473504  0.2499999993096296  0.3433919860398049   F   F   F
  0.0000000000000000  0.4999999986192663  0.3433919860398049   F   F   F
  0.2497643277308692  0.2496833084247368  0.4612990981504934   T   T   T
  0.2496479357816138  0.5002284570872119  0.4616436707571395   T   T   T
  0.2502273523387127  0.7495758458031682  0.4621138032027508   T   T   T
  0.2499820296302651 -0.0000861077041396  0.4618000336975823   T   T   T
  0.5003562062017911  0.2500341410643451  0.4617191845563451   T   T   T
  0.4999419149388582  0.4999889377806967  0.4606124170141266   T   T   T
  0.4996135406358836  0.7499638407809210  0.4617196206493903   T   T   T
  0.4999832603065630 -0.0000007025848807  0.4617624663958920   T   T   T
  0.7497393972487912  0.2504206597509058  0.4621017278918558   T   T   T
  0.7502949111061030  0.4997341174470873  0.4616436286538012   T   T   T
  0.7502008787221800  0.7503072237027940  0.4613143612754451   T   T   T
  0.7499901659234043  0.0000853505997340  0.4617965937477263   T   T   T
 -0.0001756422900310  0.2500165714876315  0.4617811722649466   T   T   T
 -0.0000122499879119  0.4999858206925677  0.4620110576284205   T   T   T
  0.0001455434764866  0.7499767463316739  0.4618156260650626   T   T   T
 -0.0000102187172835 -0.0000015887469165  0.4617819183294097   T   T   T
  0.1249851661157910  0.1249760566233775  0.5165603728181604   T   T   T
  0.1246743289425322  0.3749090563963206  0.5164971268630132   T   T   T
  0.1249478047094791  0.6249604423711317  0.5168252927772458   T   T   T
  0.1250940985509295  0.8748145747610699  0.5166850276849072   T   T   T
  0.3750103768431535  0.1250368240726488  0.5165334878577803   T   T   T
  0.3748873483751456  0.3749803529748518  0.5153866789928998   T   T   T
  0.3750807666155002  0.6239963954265366  0.5170878652908775   T   T   T
  0.3749840423727482  0.8749527159085732  0.5167035605538313   T   T   T
  0.6249861791524834  0.1250437525271346  0.5167036903272301   T   T   T
  0.6248502652233918  0.3759935718688071  0.5170920849656863   T   T   T
  0.6250625787081920  0.6249858831066177  0.5153721192049993   T   T   T
  0.6249564958316518  0.8749669011037474  0.5165191173288506   T   T   T
  0.8748698974475606  0.1251812254063451  0.5166814649896513   T   T   T
  0.8750112135386863  0.3750122231894539  0.5168251582984569   T   T   T
  0.8752771627384242  0.6250476198305333  0.5164874674048487   T   T   T
  0.8749751230257380  0.8750275212486960  0.5165576498728018   T   T   T
  0.1250000002440785  0.1249999996548183  0.4020117305412967   F   F   F
  0.1250000002440785  0.3749999989644479  0.4020117305412967   F   F   F
  0.1250000002440785  0.6249999982740846  0.4020117305412967   F   F   F
  0.1250000002440785  0.8749999975837142  0.4020117305412967   F   F   F
  0.3749999997559215  0.1249999996548183  0.4020117305412967   F   F   F
  0.3749999997559215  0.3749999989644479  0.4020117305412967   F   F   F
  0.3749999997559215  0.6249999982740846  0.4020117305412967   F   F   F
  0.3749999997559215  0.8749999975837142  0.4020117305412967   F   F   F
  0.6249999982914289  0.1249999996548183  0.4020117305412967   F   F   F
  0.6249999992677573  0.3749999989644479  0.4020117305412967   F   F   F
  0.6249999992677573  0.6249999982740846  0.4020117305412967   F   F   F
  0.6249999992677573  0.8749999975837142  0.4020117305412967   F   F   F
  0.8749999987795931  0.1249999996548183  0.4020117305412967   F   F   F
  0.8749999978032648  0.3749999989644479  0.4020117305412967   F   F   F
  0.8749999987795931  0.6249999982740846  0.4020117305412967   F   F   F
  0.8749999987795931  0.8749999975837142  0.4020117305412967   F   F   F
  0.5816079317997783  0.5761357103114835  0.6420454763174169   T   T   T
  0.6358594138447583  0.4877859710617243  0.6406882480924498   T   T   T
  0.5537205360452406  0.4105664936764748  0.6402371115205884   T   T   T
  0.4180541761434278  0.4237328112492457  0.6421319107824746   T   T   T
  0.3637886072744672  0.5120789537370317  0.6407220742434814   T   T   T
  0.4459460096569442  0.5892660946576478  0.6402244336602098   T   T   T
  0.7415057906002848  0.4790212235737040  0.6400565395405040   T   T   T
  0.5947002041841195  0.3410674513531904  0.6416058531090584   T   T   T
  0.2581403689799587  0.5207494736623438  0.6400718955784546   T   T   T
  0.4048829605174720  0.6587043455779245  0.6415926659139473   T   T   T
  0.6842113258670096  0.6713324112288783  0.6453827345879407   T   T   T
  0.3155231924312424  0.3284349821575362  0.6455731987870591   T   T   T
 
  0.00000000E+00  0.00000000E+00  0.00000000E+00
  0.00000000E+00  0.00000000E+00  0.00000000E+00
  0.00000000E+00  0.00000000E+00  0.00000000E+00
  0.00000000E+00  0.00000000E+00  0.00000000E+00
  0.00000000E+00  0.00000000E+00  0.00000000E+00
  0.00000000E+00  0.00000000E+00  0.00000000E+00
  0.00000000E+00  0.00000000E+00  0.00000000E+00
  0.00000000E+00  0.00000000E+00  0.00000000E+00
  0.00000000E+00  0.00000000E+00  0.00000000E+00
  0.00000000E+00  0.00000000E+00  0.00000000E+00
  0.00000000E+00  0.00000000E+00  0.00000000E+00
  0.00000000E+00  0.00000000E+00  0.00000000E+00
  0.00000000E+00  0.00000000E+00  0.00000000E+00
  0.00000000E+00  0.00000000E+00  0.00000000E+00
  0.00000000E+00  0.00000000E+00  0.00000000E+00
  0.00000000E+00  0.00000000E+00  0.00000000E+00
  0.00000000E+00  0.00000000E+00  0.00000000E+00
  0.00000000E+00  0.00000000E+00  0.00000000E+00
  0.00000000E+00  0.00000000E+00  0.00000000E+00
  0.00000000E+00  0.00000000E+00  0.00000000E+00
  0.00000000E+00  0.00000000E+00  0.00000000E+00
  0.00000000E+00  0.00000000E+00  0.00000000E+00
  0.00000000E+00  0.00000000E+00  0.00000000E+00
  0.00000000E+00  0.00000000E+00  0.00000000E+00
  0.00000000E+00  0.00000000E+00  0.00000000E+00
  0.00000000E+00  0.00000000E+00  0.00000000E+00
  0.00000000E+00  0.00000000E+00  0.00000000E+00
  0.00000000E+00  0.00000000E+00  0.00000000E+00
  0.00000000E+00  0.00000000E+00  0.00000000E+00
  0.00000000E+00  0.00000000E+00  0.00000000E+00
  0.00000000E+00  0.00000000E+00  0.00000000E+00
  0.00000000E+00  0.00000000E+00  0.00000000E+00
  0.00000000E+00  0.00000000E+00  0.00000000E+00
  0.00000000E+00  0.00000000E+00  0.00000000E+00
  0.00000000E+00  0.00000000E+00  0.00000000E+00
  0.00000000E+00  0.00000000E+00  0.00000000E+00
  0.00000000E+00  0.00000000E+00  0.00000000E+00
  0.00000000E+00  0.00000000E+00  0.00000000E+00
  0.00000000E+00  0.00000000E+00  0.00000000E+00
  0.00000000E+00  0.00000000E+00  0.00000000E+00
  0.00000000E+00  0.00000000E+00  0.00000000E+00
  0.00000000E+00  0.00000000E+00  0.00000000E+00
  0.00000000E+00  0.00000000E+00  0.00000000E+00
  0.00000000E+00  0.00000000E+00  0.00000000E+00
  0.00000000E+00  0.00000000E+00  0.00000000E+00
  0.00000000E+00  0.00000000E+00  0.00000000E+00
  0.00000000E+00  0.00000000E+00  0.00000000E+00
  0.00000000E+00  0.00000000E+00  0.00000000E+00
  0.00000000E+00  0.00000000E+00  0.00000000E+00
  0.00000000E+00  0.00000000E+00  0.00000000E+00
  0.00000000E+00  0.00000000E+00  0.00000000E+00
  0.00000000E+00  0.00000000E+00  0.00000000E+00
  0.00000000E+00  0.00000000E+00  0.00000000E+00
  0.00000000E+00  0.00000000E+00  0.00000000E+00
  0.00000000E+00  0.00000000E+00  0.00000000E+00
  0.00000000E+00  0.00000000E+00  0.00000000E+00
  0.00000000E+00  0.00000000E+00  0.00000000E+00
  0.00000000E+00  0.00000000E+00  0.00000000E+00
  0.00000000E+00  0.00000000E+00  0.00000000E+00
  0.00000000E+00  0.00000000E+00  0.00000000E+00
  0.00000000E+00  0.00000000E+00  0.00000000E+00
  0.00000000E+00  0.00000000E+00  0.00000000E+00
  0.00000000E+00  0.00000000E+00  0.00000000E+00
  0.00000000E+00  0.00000000E+00  0.00000000E+00
  0.00000000E+00  0.00000000E+00  0.00000000E+00
  0.00000000E+00  0.00000000E+00  0.00000000E+00
  0.00000000E+00  0.00000000E+00  0.00000000E+00
  0.00000000E+00  0.00000000E+00  0.00000000E+00
  0.00000000E+00  0.00000000E+00  0.00000000E+00
  0.00000000E+00  0.00000000E+00  0.00000000E+00
  0.00000000E+00  0.00000000E+00  0.00000000E+00
  0.00000000E+00  0.00000000E+00  0.00000000E+00
  0.00000000E+00  0.00000000E+00  0.00000000E+00
  0.00000000E+00  0.00000000E+00  0.00000000E+00
  0.00000000E+00  0.00000000E+00  0.00000000E+00
  0.00000000E+00  0.00000000E+00  0.00000000E+00
