Cu48 C6 H2 F4                           
    1.000000000000000     
    10.2424774999999997    0.0000000000000000    0.0000000000000000
     0.0000000000000000   14.4850505999999992    0.0000000000000000
     0.0000000000000000    0.0000000000000000   15.4650361699999994
   Cu   C    H    F 
    48     6     2     4
Selective dynamics
Direct
  0.2501782699354393  0.2502982968285181  0.4031028309286953   T   T   T
  0.2500934413699767  0.4999386304493996  0.4028272534885673   T   T   T
  0.2499647362331388  0.7499336894249993  0.4027698340680885   T   T   T
  0.2500259271542475  0.9999826733543031  0.4027913900128723   T   T   T
  0.4998384520770500  0.2501466380159911  0.4028326543809371   T   T   T
  0.5000016908930078  0.4999934377800557  0.4024840214494958   T   T   T
  0.5001564833167436  0.7498541142206747  0.4028424230099290   T   T   T
  0.4999927092162082  0.0000061241411302  0.4028113725224856   T   T   T
  0.7500336930830329  0.2500713719826209  0.4027591481982356   T   T   T
  0.7499043195870954  0.5000508181329835  0.4028268303836668   T   T   T
  0.7498154652675311  0.7496867019952802  0.4031183186059693   T   T   T
  0.7499687457569166  0.0000380771667139  0.4027956178088914   T   T   T
  0.0000147349294224  0.2501406221194529  0.4028494003956098   T   T   T
  0.0000001678728339  0.4999961072344874  0.4027967210664656   T   T   T
  0.9999979869705058  0.7498484949345965  0.4028662844177333   T   T   T
  0.0000127493310913  0.0000146039828266  0.4027378602235672   T   T   T
  0.1250503680521291  0.1250843946883933  0.4821457291303091   T   T   T
  0.1251663761101867  0.3751531721741230  0.4822562858630803   T   T   T
  0.1250431586331118  0.6248092909049987  0.4824090560513810   T   T   T
  0.1250035595678867  0.8749392571138657  0.4821153222618690   T   T   T
  0.3749912479707973  0.1251324119735742  0.4821286890908354   T   T   T
  0.3752669370854136  0.3755833132789306  0.4830498996449393   T   T   T
  0.3750295591432646  0.6248916493856242  0.4819309328747039   T   T   T
  0.3750401088112270  0.8748468805959888  0.4821483770417885   T   T   T
  0.6249601785612242  0.1251566644387481  0.4821474542737576   T   T   T
  0.6249712866812445  0.3751036921018951  0.4819327330008250   T   T   T
  0.6247335435460002  0.6244120089465923  0.4830522259422239   T   T   T
  0.6250116157481500  0.8748739853732772  0.4821374081146956   T   T   T
  0.8749935509010811  0.1250658208982571  0.4821108167311081   T   T   T
  0.8749559405437566  0.3751843337855547  0.4824063886925600   T   T   T
  0.8748317508041552  0.6248407643666383  0.4822602057218575   T   T   T
  0.8749497880809542  0.8749223754236795  0.4821594554339654   T   T   T
  0.1250000002440785  0.1249999996548183  0.3233099454173498   F   F   F
  0.1250000002440785  0.3749999989644479  0.3233099454173498   F   F   F
  0.1250000002440785  0.6249999982740846  0.3233099454173498   F   F   F
  0.1250000002440785  0.8749999975837142  0.3233099454173498   F   F   F
  0.3749999997559215  0.1249999996548183  0.3233099454173498   F   F   F
  0.3749999997559215  0.3749999989644479  0.3233099454173498   F   F   F
  0.3749999997559215  0.6249999982740846  0.3233099454173498   F   F   F
  0.3749999997559215  0.8749999975837142  0.3233099454173498   F   F   F
  0.6249999982914289  0.1249999996548183  0.3233099454173498   F   F   F
  0.6249999992677573  0.3749999989644479  0.3233099454173498   F   F   F
  0.6249999992677573  0.6249999982740846  0.3233099454173498   F   F   F
  0.6249999992677573  0.8749999975837142  0.3233099454173498   F   F   F
  0.8749999987795931  0.1249999996548183  0.3233099454173498   F   F   F
  0.8749999978032648  0.3749999989644479  0.3233099454173498   F   F   F
  0.8749999987795931  0.6249999982740846  0.3233099454173498   F   F   F
  0.8749999987795931  0.8749999975837142  0.3233099454173498   F   F   F
  0.5793655851486506  0.5793875292889012  0.6748387873088930   T   T   T
  0.6349621254851243  0.4917258413262218  0.6754030974187089   T   T   T
  0.5562598505457146  0.4131070049914243  0.6755041922912710   T   T   T
  0.4206747837392086  0.4206522218048789  0.6748628873474658   T   T   T
  0.3650689345301359  0.5083090141345465  0.6753704256366149   T   T   T
  0.4437708178023456  0.5869310107125543  0.6754395954581369   T   T   T
  0.6406796653846953  0.6408803813114616  0.6766927326890553   T   T   T
  0.3593645388283448  0.3591550040554452  0.6767175691319238   T   T   T
  0.7663407389708539  0.4823749977299485  0.6767606647311624   T   T   T
  0.6127020598084201  0.3285393354573074  0.6776770477137291   T   T   T
  0.2336823673719408  0.5176197765019879  0.6766948612744983   T   T   T
  0.3872836255000749  0.6714881317449652  0.6775863912463862   T   T   T
 
  0.00000000E+00  0.00000000E+00  0.00000000E+00
  0.00000000E+00  0.00000000E+00  0.00000000E+00
  0.00000000E+00  0.00000000E+00  0.00000000E+00
  0.00000000E+00  0.00000000E+00  0.00000000E+00
  0.00000000E+00  0.00000000E+00  0.00000000E+00
  0.00000000E+00  0.00000000E+00  0.00000000E+00
  0.00000000E+00  0.00000000E+00  0.00000000E+00
  0.00000000E+00  0.00000000E+00  0.00000000E+00
  0.00000000E+00  0.00000000E+00  0.00000000E+00
  0.00000000E+00  0.00000000E+00  0.00000000E+00
  0.00000000E+00  0.00000000E+00  0.00000000E+00
  0.00000000E+00  0.00000000E+00  0.00000000E+00
  0.00000000E+00  0.00000000E+00  0.00000000E+00
  0.00000000E+00  0.00000000E+00  0.00000000E+00
  0.00000000E+00  0.00000000E+00  0.00000000E+00
  0.00000000E+00  0.00000000E+00  0.00000000E+00
  0.00000000E+00  0.00000000E+00  0.00000000E+00
  0.00000000E+00  0.00000000E+00  0.00000000E+00
  0.00000000E+00  0.00000000E+00  0.00000000E+00
  0.00000000E+00  0.00000000E+00  0.00000000E+00
  0.00000000E+00  0.00000000E+00  0.00000000E+00
  0.00000000E+00  0.00000000E+00  0.00000000E+00
  0.00000000E+00  0.00000000E+00  0.00000000E+00
  0.00000000E+00  0.00000000E+00  0.00000000E+00
  0.00000000E+00  0.00000000E+00  0.00000000E+00
  0.00000000E+00  0.00000000E+00  0.00000000E+00
  0.00000000E+00  0.00000000E+00  0.00000000E+00
  0.00000000E+00  0.00000000E+00  0.00000000E+00
  0.00000000E+00  0.00000000E+00  0.00000000E+00
  0.00000000E+00  0.00000000E+00  0.00000000E+00
  0.00000000E+00  0.00000000E+00  0.00000000E+00
  0.00000000E+00  0.00000000E+00  0.00000000E+00
  0.00000000E+00  0.00000000E+00  0.00000000E+00
  0.00000000E+00  0.00000000E+00  0.00000000E+00
  0.00000000E+00  0.00000000E+00  0.00000000E+00
  0.00000000E+00  0.00000000E+00  0.00000000E+00
  0.00000000E+00  0.00000000E+00  0.00000000E+00
  0.00000000E+00  0.00000000E+00  0.00000000E+00
  0.00000000E+00  0.00000000E+00  0.00000000E+00
  0.00000000E+00  0.00000000E+00  0.00000000E+00
  0.00000000E+00  0.00000000E+00  0.00000000E+00
  0.00000000E+00  0.00000000E+00  0.00000000E+00
  0.00000000E+00  0.00000000E+00  0.00000000E+00
  0.00000000E+00  0.00000000E+00  0.00000000E+00
  0.00000000E+00  0.00000000E+00  0.00000000E+00
  0.00000000E+00  0.00000000E+00  0.00000000E+00
  0.00000000E+00  0.00000000E+00  0.00000000E+00
  0.00000000E+00  0.00000000E+00  0.00000000E+00
  0.00000000E+00  0.00000000E+00  0.00000000E+00
  0.00000000E+00  0.00000000E+00  0.00000000E+00
  0.00000000E+00  0.00000000E+00  0.00000000E+00
  0.00000000E+00  0.00000000E+00  0.00000000E+00
  0.00000000E+00  0.00000000E+00  0.00000000E+00
  0.00000000E+00  0.00000000E+00  0.00000000E+00
  0.00000000E+00  0.00000000E+00  0.00000000E+00
  0.00000000E+00  0.00000000E+00  0.00000000E+00
  0.00000000E+00  0.00000000E+00  0.00000000E+00
  0.00000000E+00  0.00000000E+00  0.00000000E+00
  0.00000000E+00  0.00000000E+00  0.00000000E+00
  0.00000000E+00  0.00000000E+00  0.00000000E+00
