Cu48 C6 H2 Cl4                          
    1.000000000000000     
    10.2424774999999997    0.0000000000000000    0.0000000000000000
     0.0000000000000000   10.2424774999999997    0.0000000000000000
     0.0000000000000000    0.0000000000000000   16.5505490900000005
   Cu   C    H    Cl
    48     6     2     4
Selective dynamics
Direct
  0.2499375926171439  0.9999807819166122  0.4093383146301477   T   T   T
  0.2498902688746583  0.2498928758516215  0.4093460864650496   T   T   T
  0.2496013755210171  0.4995958089513124  0.4090823666432328   T   T   T
  0.2498027566516328  0.7501954471970933  0.4091189290843786   T   T   T
  0.5000001853349616  0.9999983112705664  0.4094095794247039   T   T   T
  0.4995957045964587  0.2496038255805502  0.4090865824361245   T   T   T
  0.5000012522236830  0.5000006063380980  0.4088584512952167   T   T   T
  0.5004057908152078  0.7503969769890872  0.4090836426667153   T   T   T
  0.7500632919740866  0.0000176204624225  0.4093408988016165   T   T   T
  0.7501995254460425  0.2498058324487786  0.4091234652968510   T   T   T
  0.7503995847406557  0.5004045179996979  0.4090845967668031   T   T   T
  0.7501093845245848  0.7501076757708631  0.4093461930779227   T   T   T
  0.9999989442129547  0.0000001324450594  0.4092596591572502   T   T   T
  0.9999796132084739  0.2499400870021091  0.4093388594128768   T   T   T
  0.9999992487967759  0.4999995951648515  0.4094066309277480   T   T   T
  0.0000183395649174  0.7500607519922866  0.4093372497640502   T   T   T
  0.1250405933451404  0.1250441973881848  0.5167618903404616   T   T   T
  0.1249890366055695  0.3745556168556163  0.5165101742302056   T   T   T
  0.1251608644541378  0.6249785056107342  0.5165725217694188   T   T   T
  0.1248777686149367  0.8751199374516219  0.5165359782267416   T   T   T
  0.3745543521457009  0.1249901870518642  0.5165165438640216   T   T   T
  0.3749574074256827  0.3749589755088323  0.5164514387076409   T   T   T
  0.3753559696053159  0.6246416465957552  0.5143737714405816   T   T   T
  0.3750194300608527  0.8748392226253259  0.5165769126626714   T   T   T
  0.6249816059686566  0.1251614834689931  0.5165785087879726   T   T   T
  0.6246437673607019  0.3753565555597760  0.5143735018745517   T   T   T
  0.6250429244396400  0.6250411254719026  0.5164583688593609   T   T   T
  0.6254467008943791  0.8750118657741766  0.5165149521557950   T   T   T
  0.8751207536238894  0.1248796885442687  0.5165352746715541   T   T   T
  0.8748410753857954  0.3750195225616793  0.5165773517539094   T   T   T
  0.8750137205449491  0.6254453745136317  0.5165137844575014   T   T   T
  0.8749580303160016  0.8749583723335022  0.5167596799212788   T   T   T
  0.1250000002440785  0.1249999992677573  0.3021047805006702   F   F   F
  0.1250000002440785  0.3749999997559215  0.3021047805006702   F   F   F
  0.1250000002440785  0.6249999982914289  0.3021047805006702   F   F   F
  0.1250000002440785  0.8749999987795931  0.3021047805006702   F   F   F
  0.3749999997559215  0.1249999992677573  0.3021047805006702   F   F   F
  0.3749999997559215  0.3749999997559215  0.3021047805006702   F   F   F
  0.3749999997559215  0.6249999982914289  0.3021047805006702   F   F   F
  0.3749999997559215  0.8749999987795931  0.3021047805006702   F   F   F
  0.6249999982914289  0.1249999992677573  0.3021047805006702   F   F   F
  0.6249999982914289  0.3749999997559215  0.3021047805006702   F   F   F
  0.6249999992677573  0.6249999982914289  0.3021047805006702   F   F   F
  0.6249999992677573  0.8749999987795931  0.3021047805006702   F   F   F
  0.8749999987795931  0.1249999992677573  0.3021047805006702   F   F   F
  0.8749999978032648  0.3749999997559215  0.3021047805006702   F   F   F
  0.8749999987795931  0.6249999982914289  0.3021047805006702   F   F   F
  0.8749999987795931  0.8749999987795931  0.3021047805006702   F   F   F
  0.5963443668256332  0.5963360709329351  0.6942478966996291   T   T   T
  0.6324614199641374  0.4645446789517322  0.6963156201729959   T   T   T
  0.5354461477741808  0.3675338937408625  0.6963101078989098   T   T   T
  0.4036560892884751  0.4036625493320471  0.6942314334365705   T   T   T
  0.3675410729902069  0.5354540862128658  0.6962935086825510   T   T   T
  0.4645563386744342  0.6324667030002757  0.6963024519097232   T   T   T
  0.6715470941043051  0.6715319548150518  0.6954953805678983   T   T   T
  0.3284551929712833  0.3284675240862214  0.6954651874561364   T   T   T
  0.7956649451685252  0.4252893357718506  0.6997395218349496   T   T   T
  0.5746912731695133  0.2043303022398106  0.6997317115754029   T   T   T
  0.2043347736219729  0.5747077359608568  0.6996932974196142   T   T   T
  0.4253064075432889  0.7956672886851521  0.6997154610928078   T   T   T
 
  0.00000000E+00  0.00000000E+00  0.00000000E+00
  0.00000000E+00  0.00000000E+00  0.00000000E+00
  0.00000000E+00  0.00000000E+00  0.00000000E+00
  0.00000000E+00  0.00000000E+00  0.00000000E+00
  0.00000000E+00  0.00000000E+00  0.00000000E+00
  0.00000000E+00  0.00000000E+00  0.00000000E+00
  0.00000000E+00  0.00000000E+00  0.00000000E+00
  0.00000000E+00  0.00000000E+00  0.00000000E+00
  0.00000000E+00  0.00000000E+00  0.00000000E+00
  0.00000000E+00  0.00000000E+00  0.00000000E+00
  0.00000000E+00  0.00000000E+00  0.00000000E+00
  0.00000000E+00  0.00000000E+00  0.00000000E+00
  0.00000000E+00  0.00000000E+00  0.00000000E+00
  0.00000000E+00  0.00000000E+00  0.00000000E+00
  0.00000000E+00  0.00000000E+00  0.00000000E+00
  0.00000000E+00  0.00000000E+00  0.00000000E+00
  0.00000000E+00  0.00000000E+00  0.00000000E+00
  0.00000000E+00  0.00000000E+00  0.00000000E+00
  0.00000000E+00  0.00000000E+00  0.00000000E+00
  0.00000000E+00  0.00000000E+00  0.00000000E+00
  0.00000000E+00  0.00000000E+00  0.00000000E+00
  0.00000000E+00  0.00000000E+00  0.00000000E+00
  0.00000000E+00  0.00000000E+00  0.00000000E+00
  0.00000000E+00  0.00000000E+00  0.00000000E+00
  0.00000000E+00  0.00000000E+00  0.00000000E+00
  0.00000000E+00  0.00000000E+00  0.00000000E+00
  0.00000000E+00  0.00000000E+00  0.00000000E+00
  0.00000000E+00  0.00000000E+00  0.00000000E+00
  0.00000000E+00  0.00000000E+00  0.00000000E+00
  0.00000000E+00  0.00000000E+00  0.00000000E+00
  0.00000000E+00  0.00000000E+00  0.00000000E+00
  0.00000000E+00  0.00000000E+00  0.00000000E+00
  0.00000000E+00  0.00000000E+00  0.00000000E+00
  0.00000000E+00  0.00000000E+00  0.00000000E+00
  0.00000000E+00  0.00000000E+00  0.00000000E+00
  0.00000000E+00  0.00000000E+00  0.00000000E+00
  0.00000000E+00  0.00000000E+00  0.00000000E+00
  0.00000000E+00  0.00000000E+00  0.00000000E+00
  0.00000000E+00  0.00000000E+00  0.00000000E+00
  0.00000000E+00  0.00000000E+00  0.00000000E+00
  0.00000000E+00  0.00000000E+00  0.00000000E+00
  0.00000000E+00  0.00000000E+00  0.00000000E+00
  0.00000000E+00  0.00000000E+00  0.00000000E+00
  0.00000000E+00  0.00000000E+00  0.00000000E+00
  0.00000000E+00  0.00000000E+00  0.00000000E+00
  0.00000000E+00  0.00000000E+00  0.00000000E+00
  0.00000000E+00  0.00000000E+00  0.00000000E+00
  0.00000000E+00  0.00000000E+00  0.00000000E+00
  0.00000000E+00  0.00000000E+00  0.00000000E+00
  0.00000000E+00  0.00000000E+00  0.00000000E+00
  0.00000000E+00  0.00000000E+00  0.00000000E+00
  0.00000000E+00  0.00000000E+00  0.00000000E+00
  0.00000000E+00  0.00000000E+00  0.00000000E+00
  0.00000000E+00  0.00000000E+00  0.00000000E+00
  0.00000000E+00  0.00000000E+00  0.00000000E+00
  0.00000000E+00  0.00000000E+00  0.00000000E+00
  0.00000000E+00  0.00000000E+00  0.00000000E+00
  0.00000000E+00  0.00000000E+00  0.00000000E+00
  0.00000000E+00  0.00000000E+00  0.00000000E+00
  0.00000000E+00  0.00000000E+00  0.00000000E+00
