Pt  C  H Cl                             
   1.00000000000000     
    11.2480069999999994    0.0000000000000000    0.0000000000000000
    -5.6240030000000001    9.7410599999999992    0.0000000000000000
     0.0000000000000000    0.0000000000000000   24.8879693399999979
   Pt   C    H    Cl
    64     6     4     2
Selective dynamics
Direct
  0.9999999587182344  0.7499999743354451  0.3013504194553178   F   F   F
  0.2499999964438118  0.0000000000000000  0.3013504194553178   F   F   F
  0.2499999825579735  0.2499999917873410  0.3013504194553178   F   F   F
  0.2499999690478916  0.4999999825481041  0.3013504194553178   F   F   F
  0.2499999551620533  0.7499999743354451  0.3013504194553178   F   F   F
  0.4999999928876306  0.0000000000000000  0.3013504194553178   F   F   F
  0.4999999790017924  0.2499999917873410  0.3013504194553178   F   F   F
  0.4999999654917033  0.4999999825481041  0.3013504194553178   F   F   F
  0.7499999893314424  0.0000000000000000  0.3013504194553178   F   F   F
  0.7499999754456042  0.2499999917873410  0.3013504194553178   F   F   F
  0.7499999619355222  0.4999999825481041  0.3013504194553178   F   F   F
  0.7499999480496840  0.7499999743354451  0.3013504194553178   F   F   F
  0.0000000000000000  0.0000000000000000  0.3013504194553178   F   F   F
  0.9999999861141617  0.2499999917873410  0.3013504194553178   F   F   F
  0.9999999583793340  0.4999999825481041  0.3013504194553178   F   F   F
  0.4999999516058651  0.7499999743354451  0.3013504194553178   F   F   F
  0.0833330000000032  0.1666669999999968  0.3936034172243978   F   F   F
  0.0833330000000032  0.4166669999999968  0.3936034172243978   F   F   F
  0.0833330000000032  0.6666669999999968  0.3936034172243978   F   F   F
  0.0833330000000032  0.9166669999999968  0.3936034172243978   F   F   F
  0.3333330000000032  0.1666669999999968  0.3936034172243978   F   F   F
  0.3333330000000032  0.4166669999999968  0.3936034172243978   F   F   F
  0.3333330000000032  0.6666669999999968  0.3936034172243978   F   F   F
  0.3333330000000032  0.9166669999999968  0.3936034172243978   F   F   F
  0.5833330000000032  0.1666669999999968  0.3936034172243978   F   F   F
  0.5833330000000032  0.4166669999999968  0.3936034172243978   F   F   F
  0.5833330000000032  0.6666669999999968  0.3936034172243978   F   F   F
  0.5833330000000032  0.9166669999999968  0.3936034172243978   F   F   F
  0.8333330000000032  0.1666669999999968  0.3936034172243978   F   F   F
  0.8333330000000032  0.4166669999999968  0.3936034172243978   F   F   F
  0.8333330000000032  0.6666669999999968  0.3936034172243978   F   F   F
  0.8333330000000032  0.9166669999999968  0.3936034172243978   F   F   F
  0.2496340079491642  0.2496945240503603  0.5788380267829317   T   T   T
  0.2493641047649440  0.4997685408037972  0.5784912340126034   T   T   T
  0.2498486018939876  0.7500846321420443  0.5782294473931093   T   T   T
  0.2499671522221381  0.0000434054577852  0.5787189851661950   T   T   T
  0.4998889084813229  0.2497670769905323  0.5784637298041320   T   T   T
  0.4988866541919571  0.4992127320729203  0.5789214232500075   T   T   T
  0.4996204405444113  0.7503817012469723  0.5768709522863869   T   T   T
  0.4999132416100020  0.0001526335790856  0.5782322318123303   T   T   T
  0.7498982986218410  0.2498428949631385  0.5783185612933774   T   T   T
  0.7503443975580811  0.4996646544995849  0.5769068955620428   T   T   T
  0.7507924784194712  0.7511159870463640  0.5789282454121040   T   T   T
  0.7502496523322021  0.0006352194421279  0.5784944398944954   T   T   T
 -0.0000578951010543  0.2500583813882307  0.5787864713780775   T   T   T
  0.0001535027449749  0.5001055215100535  0.5783098833168615   T   T   T
  0.0002429675379068  0.7501191719080960  0.5784564035448065   T   T   T
  0.0003153592676435  0.0003660315517642  0.5788396182690499   T   T   T
  0.1666475089631516  0.0833642426002621  0.4854833226033930   T   T   T
  0.1664577330878355  0.3329785579688949  0.4854925792962124   T   T   T
  0.1669797046029460  0.5834788613256429  0.4852645454152463   T   T   T
  0.1666883872543810  0.8337360452306423  0.4853355071277654   T   T   T
  0.4162715366110371  0.0833229985989964  0.4853383305054605   T   T   T
  0.4166747366004873  0.3334157566509557  0.4854643993698897   T   T   T
  0.4162990466599476  0.5825670823189373  0.4851452045463362   T   T   T
  0.4164129237453265  0.8335968610502199  0.4847386912538706   T   T   T
  0.6665298683861990  0.0830271691061764  0.4852704284650713   T   T   T
  0.6662871719525528  0.3327526051354727  0.4849033135112158   T   T   T
  0.6663104644659700  0.5837029742679093  0.4854459839311902   T   T   T
  0.6674421703895788  0.8337083200966403  0.4851474143301356   T   T   T
  0.9170392159268863  0.0835546037581952  0.4854921580330493   T   T   T
  0.9166489544737604  0.3333464459565424  0.4853817506069957   T   T   T
  0.9172525927808302  0.5837231752844007  0.4848965487246231   T   T   T
  0.9165959152744548  0.8333367939489715  0.4854645918023227   T   T   T
  0.6963173874866105  0.5536170728004022  0.7016709625266133   T   T   T
  0.5529348354922566  0.4809292396856482  0.6993467471876347   T   T   T
  0.4810433660074357  0.5528590852163779  0.6992771976115469   T   T   T
  0.5537092008541824  0.6962925063577164  0.7015614590282258   T   T   T
  0.6971137524812975  0.7689301566305442  0.6992713139261629   T   T   T
  0.7690244702501122  0.6970224375363572  0.6993367629246782   T   T   T
  0.4973146564976458  0.3690610960416189  0.6986470989538129   T   T   T
  0.3691424262895094  0.4972226832244790  0.6985597474841424   T   T   T
  0.7527412897759079  0.8807947894050859  0.6985586568350330   T   T   T
  0.8809431216863848  0.7526730349545988  0.6986386726639792   T   T   T
  0.7847917236550137  0.4651087024031136  0.7068548799474793   T   T   T
  0.4650939672731343  0.7848870189708964  0.7063989154071822   T   T   T
 
  0.00000000E+00  0.00000000E+00  0.00000000E+00
  0.00000000E+00  0.00000000E+00  0.00000000E+00
  0.00000000E+00  0.00000000E+00  0.00000000E+00
  0.00000000E+00  0.00000000E+00  0.00000000E+00
  0.00000000E+00  0.00000000E+00  0.00000000E+00
  0.00000000E+00  0.00000000E+00  0.00000000E+00
  0.00000000E+00  0.00000000E+00  0.00000000E+00
  0.00000000E+00  0.00000000E+00  0.00000000E+00
  0.00000000E+00  0.00000000E+00  0.00000000E+00
  0.00000000E+00  0.00000000E+00  0.00000000E+00
  0.00000000E+00  0.00000000E+00  0.00000000E+00
  0.00000000E+00  0.00000000E+00  0.00000000E+00
  0.00000000E+00  0.00000000E+00  0.00000000E+00
  0.00000000E+00  0.00000000E+00  0.00000000E+00
  0.00000000E+00  0.00000000E+00  0.00000000E+00
  0.00000000E+00  0.00000000E+00  0.00000000E+00
  0.00000000E+00  0.00000000E+00  0.00000000E+00
  0.00000000E+00  0.00000000E+00  0.00000000E+00
  0.00000000E+00  0.00000000E+00  0.00000000E+00
  0.00000000E+00  0.00000000E+00  0.00000000E+00
  0.00000000E+00  0.00000000E+00  0.00000000E+00
  0.00000000E+00  0.00000000E+00  0.00000000E+00
  0.00000000E+00  0.00000000E+00  0.00000000E+00
  0.00000000E+00  0.00000000E+00  0.00000000E+00
  0.00000000E+00  0.00000000E+00  0.00000000E+00
  0.00000000E+00  0.00000000E+00  0.00000000E+00
  0.00000000E+00  0.00000000E+00  0.00000000E+00
  0.00000000E+00  0.00000000E+00  0.00000000E+00
  0.00000000E+00  0.00000000E+00  0.00000000E+00
  0.00000000E+00  0.00000000E+00  0.00000000E+00
  0.00000000E+00  0.00000000E+00  0.00000000E+00
  0.00000000E+00  0.00000000E+00  0.00000000E+00
  0.00000000E+00  0.00000000E+00  0.00000000E+00
  0.00000000E+00  0.00000000E+00  0.00000000E+00
  0.00000000E+00  0.00000000E+00  0.00000000E+00
  0.00000000E+00  0.00000000E+00  0.00000000E+00
  0.00000000E+00  0.00000000E+00  0.00000000E+00
  0.00000000E+00  0.00000000E+00  0.00000000E+00
  0.00000000E+00  0.00000000E+00  0.00000000E+00
  0.00000000E+00  0.00000000E+00  0.00000000E+00
  0.00000000E+00  0.00000000E+00  0.00000000E+00
  0.00000000E+00  0.00000000E+00  0.00000000E+00
  0.00000000E+00  0.00000000E+00  0.00000000E+00
  0.00000000E+00  0.00000000E+00  0.00000000E+00
  0.00000000E+00  0.00000000E+00  0.00000000E+00
  0.00000000E+00  0.00000000E+00  0.00000000E+00
  0.00000000E+00  0.00000000E+00  0.00000000E+00
  0.00000000E+00  0.00000000E+00  0.00000000E+00
  0.00000000E+00  0.00000000E+00  0.00000000E+00
  0.00000000E+00  0.00000000E+00  0.00000000E+00
  0.00000000E+00  0.00000000E+00  0.00000000E+00
  0.00000000E+00  0.00000000E+00  0.00000000E+00
  0.00000000E+00  0.00000000E+00  0.00000000E+00
  0.00000000E+00  0.00000000E+00  0.00000000E+00
  0.00000000E+00  0.00000000E+00  0.00000000E+00
  0.00000000E+00  0.00000000E+00  0.00000000E+00
  0.00000000E+00  0.00000000E+00  0.00000000E+00
  0.00000000E+00  0.00000000E+00  0.00000000E+00
  0.00000000E+00  0.00000000E+00  0.00000000E+00
  0.00000000E+00  0.00000000E+00  0.00000000E+00
  0.00000000E+00  0.00000000E+00  0.00000000E+00
  0.00000000E+00  0.00000000E+00  0.00000000E+00
  0.00000000E+00  0.00000000E+00  0.00000000E+00
  0.00000000E+00  0.00000000E+00  0.00000000E+00
  0.00000000E+00  0.00000000E+00  0.00000000E+00
  0.00000000E+00  0.00000000E+00  0.00000000E+00
  0.00000000E+00  0.00000000E+00  0.00000000E+00
  0.00000000E+00  0.00000000E+00  0.00000000E+00
  0.00000000E+00  0.00000000E+00  0.00000000E+00
  0.00000000E+00  0.00000000E+00  0.00000000E+00
  0.00000000E+00  0.00000000E+00  0.00000000E+00
  0.00000000E+00  0.00000000E+00  0.00000000E+00
  0.00000000E+00  0.00000000E+00  0.00000000E+00
  0.00000000E+00  0.00000000E+00  0.00000000E+00
  0.00000000E+00  0.00000000E+00  0.00000000E+00
  0.00000000E+00  0.00000000E+00  0.00000000E+00
