Pt48 C4 N2 F4                           
    1.000000000000000     
    11.2480069999999994    0.0000000000000000    0.0000000000000000
    -5.6240030000000001    9.7410599999999992    0.0000000000000000
     0.0000000000000000    0.0000000000000000   17.5919799999999995
   Pt   C    N    F 
    48     4     2     4
Selective dynamics
Direct
  0.0833330000000032  0.1666669999999968  0.3410650000000004   F   F   F
  0.0833330000000032  0.4166669999999968  0.3410650000000004   F   F   F
  0.0833330000000032  0.6666669999999968  0.3410650000000004   F   F   F
  0.0833330000000032  0.9166669999999968  0.3410650000000004   F   F   F
  0.3333330000000032  0.1666669999999968  0.3410650000000004   F   F   F
  0.3333330000000032  0.4166669999999968  0.3410650000000004   F   F   F
  0.3333330000000032  0.6666669999999968  0.3410650000000004   F   F   F
  0.3333330000000032  0.9166669999999968  0.3410650000000004   F   F   F
  0.5833330000000032  0.1666669999999968  0.3410650000000004   F   F   F
  0.5833330000000032  0.4166669999999968  0.3410650000000004   F   F   F
  0.5833330000000032  0.6666669999999968  0.3410650000000004   F   F   F
  0.5833330000000032  0.9166669999999968  0.3410650000000004   F   F   F
  0.8333330000000032  0.1666669999999968  0.3410650000000004   F   F   F
  0.8333330000000032  0.4166669999999968  0.3410650000000004   F   F   F
  0.8333330000000032  0.6666669999999968  0.3410650000000004   F   F   F
  0.8333330000000032  0.9166669999999968  0.3410650000000004   F   F   F
  0.2497814797836426  0.2502351450507589  0.6058236841375688   T   T   T
  0.2495398940113702  0.5002486125172041  0.6057809280749851   T   T   T
  0.2499762575610802  0.7503898839542984  0.6059342861887913   T   T   T
  0.2498966489038565  0.0003502789555441  0.6059274722199675   T   T   T
  0.4999976589402877  0.2500937417853066  0.6057321763469403   T   T   T
  0.4995524179960711  0.5001524576950160  0.6051595388927140   T   T   T
  0.4997273044302872  0.7505247432207156  0.6062497605788622   T   T   T
  0.4998762412478044  0.0002756432044606  0.6059415222103723   T   T   T
  0.7499652748744197  0.2503341941150694  0.6058795266337142   T   T   T
  0.7499844712757806  0.5002634651236590  0.6060328335856155   T   T   T
  0.7500760893774725  0.7506788185230420  0.6051500807477979   T   T   T
  0.7500076943686267  0.0007038021377781  0.6057953313512030   T   T   T
  0.9998318776505855  0.2504120927372213  0.6059124161813401   T   T   T
  0.9999170222017071  0.5002978809605949  0.6058906068404042   T   T   T
  0.0001483555824393  0.7502601730770451  0.6057281306418218   T   T   T
  0.0000002900006564  0.0004538931424776  0.6058268850650350   T   T   T
  0.1667326675295371  0.0833993034825795  0.4734062649505120   T   T   T
  0.1666643386861750  0.3334407450973842  0.4734224401910296   T   T   T
  0.1666612687641660  0.5835844139221606  0.4734463130810411   T   T   T
  0.1668774754823943  0.8335586354263071  0.4734258508945501   T   T   T
  0.4165846181406323  0.0832568087807104  0.4734300388949251   T   T   T
  0.4163504828472213  0.3330391415346057  0.4733341165073242   T   T   T
  0.4165851839541688  0.5836419173034386  0.4733547135658611   T   T   T
  0.4167017285174666  0.8334344857093612  0.4734558243685854   T   T   T
  0.6665648961412955  0.0834784441476728  0.4734498978913919   T   T   T
  0.6665578225124449  0.3334581362034328  0.4734475697183740   T   T   T
  0.6667313699980255  0.5834034876137721  0.4732595469760668   T   T   T
  0.6665055823265220  0.8335666255783920  0.4733511855033683   T   T   T
  0.9166872194590567  0.0834674886900260  0.4734244461307924   T   T   T
  0.9166565971284513  0.3334979367542275  0.4734695260500672   T   T   T
  0.9166722197213844  0.5835812624627863  0.4734445945504788   T   T   T
  0.9170933129267524  0.8337878167297887  0.4733210540611950   T   T   T
  0.4882815413424240  0.5600415938139349  0.7829173047862241   T   T   T
  0.5603808121756089  0.4879748710658163  0.7830528347166208   T   T   T
  0.7607582029244284  0.6883356002292018  0.7830978529132580   T   T   T
  0.6886162586173867  0.7604508514802149  0.7829629623055183   T   T   T
  0.6959473572121269  0.5527858999658974  0.7837811880981675   T   T   T
  0.5530936380186020  0.6955944640305844  0.7835142626437275   T   T   T
  0.7562350580082793  0.8981653289215785  0.7858358701967489   T   T   T
  0.8984761019566179  0.7560026735921284  0.7860817154436504   T   T   T
  0.3506421474103902  0.4925407341008423  0.7857469120108647   T   T   T
  0.4928734002207378  0.3502976365082233  0.7859898062083843   T   T   T
 
  0.00000000E+00  0.00000000E+00  0.00000000E+00
  0.00000000E+00  0.00000000E+00  0.00000000E+00
  0.00000000E+00  0.00000000E+00  0.00000000E+00
  0.00000000E+00  0.00000000E+00  0.00000000E+00
  0.00000000E+00  0.00000000E+00  0.00000000E+00
  0.00000000E+00  0.00000000E+00  0.00000000E+00
  0.00000000E+00  0.00000000E+00  0.00000000E+00
  0.00000000E+00  0.00000000E+00  0.00000000E+00
  0.00000000E+00  0.00000000E+00  0.00000000E+00
  0.00000000E+00  0.00000000E+00  0.00000000E+00
  0.00000000E+00  0.00000000E+00  0.00000000E+00
  0.00000000E+00  0.00000000E+00  0.00000000E+00
  0.00000000E+00  0.00000000E+00  0.00000000E+00
  0.00000000E+00  0.00000000E+00  0.00000000E+00
  0.00000000E+00  0.00000000E+00  0.00000000E+00
  0.00000000E+00  0.00000000E+00  0.00000000E+00
  0.00000000E+00  0.00000000E+00  0.00000000E+00
  0.00000000E+00  0.00000000E+00  0.00000000E+00
  0.00000000E+00  0.00000000E+00  0.00000000E+00
  0.00000000E+00  0.00000000E+00  0.00000000E+00
  0.00000000E+00  0.00000000E+00  0.00000000E+00
  0.00000000E+00  0.00000000E+00  0.00000000E+00
  0.00000000E+00  0.00000000E+00  0.00000000E+00
  0.00000000E+00  0.00000000E+00  0.00000000E+00
  0.00000000E+00  0.00000000E+00  0.00000000E+00
  0.00000000E+00  0.00000000E+00  0.00000000E+00
  0.00000000E+00  0.00000000E+00  0.00000000E+00
  0.00000000E+00  0.00000000E+00  0.00000000E+00
  0.00000000E+00  0.00000000E+00  0.00000000E+00
  0.00000000E+00  0.00000000E+00  0.00000000E+00
  0.00000000E+00  0.00000000E+00  0.00000000E+00
  0.00000000E+00  0.00000000E+00  0.00000000E+00
  0.00000000E+00  0.00000000E+00  0.00000000E+00
  0.00000000E+00  0.00000000E+00  0.00000000E+00
  0.00000000E+00  0.00000000E+00  0.00000000E+00
  0.00000000E+00  0.00000000E+00  0.00000000E+00
  0.00000000E+00  0.00000000E+00  0.00000000E+00
  0.00000000E+00  0.00000000E+00  0.00000000E+00
  0.00000000E+00  0.00000000E+00  0.00000000E+00
  0.00000000E+00  0.00000000E+00  0.00000000E+00
  0.00000000E+00  0.00000000E+00  0.00000000E+00
  0.00000000E+00  0.00000000E+00  0.00000000E+00
  0.00000000E+00  0.00000000E+00  0.00000000E+00
  0.00000000E+00  0.00000000E+00  0.00000000E+00
  0.00000000E+00  0.00000000E+00  0.00000000E+00
  0.00000000E+00  0.00000000E+00  0.00000000E+00
  0.00000000E+00  0.00000000E+00  0.00000000E+00
  0.00000000E+00  0.00000000E+00  0.00000000E+00
  0.00000000E+00  0.00000000E+00  0.00000000E+00
  0.00000000E+00  0.00000000E+00  0.00000000E+00
  0.00000000E+00  0.00000000E+00  0.00000000E+00
  0.00000000E+00  0.00000000E+00  0.00000000E+00
  0.00000000E+00  0.00000000E+00  0.00000000E+00
  0.00000000E+00  0.00000000E+00  0.00000000E+00
  0.00000000E+00  0.00000000E+00  0.00000000E+00
  0.00000000E+00  0.00000000E+00  0.00000000E+00
  0.00000000E+00  0.00000000E+00  0.00000000E+00
  0.00000000E+00  0.00000000E+00  0.00000000E+00
