Rh48 C6 Br6                             
    1.000000000000000     
    10.8856652999999994    0.0000000000000000    0.0000000000000000
     0.0000000000000000   10.8856652999999994    0.0000000000000000
     0.0000000000000000    0.0000000000000000   16.5547259500000017
   Rh   C    Br
    48     6     6
Selective dynamics
Direct
  0.9999956641273542  0.0000069588099620  0.4088556201999083   T   T   T
  0.9983044220929003  0.2511602987191850  0.4097386152209168   T   T   T
  0.0000034244780451  0.4999957285538486  0.4114173988392835   T   T   T
  0.0016981990675049  0.7488450290053876  0.4097349862080435   T   T   T
  0.2511547817189594  0.9983046001949347  0.4097319678913109   T   T   T
  0.2489084451466042  0.2489196686096875  0.4091286991008403   T   T   T
  0.2483527383665134  0.4995792252869649  0.4087273948435524   T   T   T
  0.2511511942035796  0.7488445473353664  0.4097802744367698   T   T   T
  0.5000025738791436  0.0000026997792517  0.4114081107084289   T   T   T
  0.4995820744249073  0.2483528852806600  0.4087247225419119   T   T   T
  0.4999925424580809  0.5000141453559621  0.4075963573508190   T   T   T
  0.5004200366782854  0.7516429952591892  0.4087319213929277   T   T   T
  0.7488395979543654  0.0016970655783624  0.4097376408475242   T   T   T
  0.7488530270979723  0.2511489327250089  0.4097762539068341   T   T   T
  0.7516503668088177  0.5004239756734492  0.4087273446960396   T   T   T
  0.7510792142560092  0.7510887167884164  0.4091326480923456   T   T   T
  0.1211809315128463  0.1211739790878426  0.5162610041163660   T   T   T
  0.1240227819631485  0.3729729542174312  0.5188590898925511   T   T   T
  0.1254084764962968  0.6254542196293826  0.5208263282331558   T   T   T
  0.1252998044857776  0.8747049574333232  0.5169380986290548   T   T   T
  0.3729741232580466  0.1240251845894278  0.5188466369933167   T   T   T
  0.3740406495865400  0.3740376744778402  0.5155876162982906   T   T   T
  0.3750444751025626  0.6249383828664605  0.5203200076320300   T   T   T
  0.3745394781687494  0.8745959660416034  0.5208270835377391   T   T   T
  0.6254648761012618  0.1254137320817463  0.5208289378560877   T   T   T
  0.6249353876141512  0.3750580283949745  0.5203093155467897   T   T   T
  0.6259537700511686  0.6259504600463828  0.5155864185092582   T   T   T
  0.6270189779058128  0.8759917136321889  0.5188411305738043   T   T   T
  0.8746958104174283  0.1253028317135119  0.5169450370235467   T   T   T
  0.8745867338629552  0.3745368361736539  0.5208305675303109   T   T   T
  0.8759704881282673  0.6270298893630368  0.5188757560059258   T   T   T
  0.8788109836264582  0.8788334589478950  0.5162550206546541   T   T   T
  0.1249999997703384  0.1249999997703384  0.3020285575914343   F   F   F
  0.1250000006889778  0.3750000002296616  0.3020285575914343   F   F   F
  0.1250000006889778  0.6250000006889778  0.3020285575914343   F   F   F
  0.1250000006889778  0.8750000011483010  0.3020285575914343   F   F   F
  0.3750000011483010  0.1249999997703384  0.3020285575914343   F   F   F
  0.3750000011483010  0.3750000002296616  0.3020285575914343   F   F   F
  0.3750000011483010  0.6250000006889778  0.3020285575914343   F   F   F
  0.3750000011483010  0.8750000011483010  0.3020285575914343   F   F   F
  0.6250000006889778  0.1249999997703384  0.3020285575914343   F   F   F
  0.6250000006889778  0.3750000002296616  0.3020285575914343   F   F   F
  0.6250000016076172  0.6250000006889778  0.3020285575914343   F   F   F
  0.6250000016076172  0.8750000011483010  0.3020285575914343   F   F   F
  0.8750000011483010  0.1249999997703384  0.3020285575914343   F   F   F
  0.8750000011483010  0.3750000002296616  0.3020285575914343   F   F   F
  0.8750000011483010  0.6250000006889778  0.3020285575914343   F   F   F
  0.8750000020669404  0.8750000011483010  0.3020285575914343   F   F   F
  0.6257838542590548  0.4665053742014038  0.6377822912622193   T   T   T
  0.5334784224911928  0.3742556901852296  0.6377739936969249   T   T   T
  0.4094031076762477  0.4093348883533281  0.6303437828320355   T   T   T
  0.3743999956314994  0.5333864199479663  0.6377181721775145   T   T   T
  0.4666891627517558  0.6256165402839642  0.6377237289111974   T   T   T
  0.5907061320575480  0.5906132417439736  0.6303506515877118   T   T   T
  0.8126866424593615  0.4242502709632845  0.6651823313330354   T   T   T
  0.5756803688053793  0.1872318977425564  0.6651718702858531   T   T   T
  0.2003979137653147  0.2005879635116656  0.6433217340218818   T   T   T
  0.1870704220293007  0.5757926139846887  0.6651553007410556   T   T   T
  0.4243308715651395  0.8129209502241252  0.6651460408596179   T   T   T
  0.7996813473226965  0.7993939821001632  0.6433255166896146   T   T   T
 
  0.00000000E+00  0.00000000E+00  0.00000000E+00
  0.00000000E+00  0.00000000E+00  0.00000000E+00
  0.00000000E+00  0.00000000E+00  0.00000000E+00
  0.00000000E+00  0.00000000E+00  0.00000000E+00
  0.00000000E+00  0.00000000E+00  0.00000000E+00
  0.00000000E+00  0.00000000E+00  0.00000000E+00
  0.00000000E+00  0.00000000E+00  0.00000000E+00
  0.00000000E+00  0.00000000E+00  0.00000000E+00
  0.00000000E+00  0.00000000E+00  0.00000000E+00
  0.00000000E+00  0.00000000E+00  0.00000000E+00
  0.00000000E+00  0.00000000E+00  0.00000000E+00
  0.00000000E+00  0.00000000E+00  0.00000000E+00
  0.00000000E+00  0.00000000E+00  0.00000000E+00
  0.00000000E+00  0.00000000E+00  0.00000000E+00
  0.00000000E+00  0.00000000E+00  0.00000000E+00
  0.00000000E+00  0.00000000E+00  0.00000000E+00
  0.00000000E+00  0.00000000E+00  0.00000000E+00
  0.00000000E+00  0.00000000E+00  0.00000000E+00
  0.00000000E+00  0.00000000E+00  0.00000000E+00
  0.00000000E+00  0.00000000E+00  0.00000000E+00
  0.00000000E+00  0.00000000E+00  0.00000000E+00
  0.00000000E+00  0.00000000E+00  0.00000000E+00
  0.00000000E+00  0.00000000E+00  0.00000000E+00
  0.00000000E+00  0.00000000E+00  0.00000000E+00
  0.00000000E+00  0.00000000E+00  0.00000000E+00
  0.00000000E+00  0.00000000E+00  0.00000000E+00
  0.00000000E+00  0.00000000E+00  0.00000000E+00
  0.00000000E+00  0.00000000E+00  0.00000000E+00
  0.00000000E+00  0.00000000E+00  0.00000000E+00
  0.00000000E+00  0.00000000E+00  0.00000000E+00
  0.00000000E+00  0.00000000E+00  0.00000000E+00
  0.00000000E+00  0.00000000E+00  0.00000000E+00
  0.00000000E+00  0.00000000E+00  0.00000000E+00
  0.00000000E+00  0.00000000E+00  0.00000000E+00
  0.00000000E+00  0.00000000E+00  0.00000000E+00
  0.00000000E+00  0.00000000E+00  0.00000000E+00
  0.00000000E+00  0.00000000E+00  0.00000000E+00
  0.00000000E+00  0.00000000E+00  0.00000000E+00
  0.00000000E+00  0.00000000E+00  0.00000000E+00
  0.00000000E+00  0.00000000E+00  0.00000000E+00
  0.00000000E+00  0.00000000E+00  0.00000000E+00
  0.00000000E+00  0.00000000E+00  0.00000000E+00
  0.00000000E+00  0.00000000E+00  0.00000000E+00
  0.00000000E+00  0.00000000E+00  0.00000000E+00
  0.00000000E+00  0.00000000E+00  0.00000000E+00
  0.00000000E+00  0.00000000E+00  0.00000000E+00
  0.00000000E+00  0.00000000E+00  0.00000000E+00
  0.00000000E+00  0.00000000E+00  0.00000000E+00
  0.00000000E+00  0.00000000E+00  0.00000000E+00
  0.00000000E+00  0.00000000E+00  0.00000000E+00
  0.00000000E+00  0.00000000E+00  0.00000000E+00
  0.00000000E+00  0.00000000E+00  0.00000000E+00
  0.00000000E+00  0.00000000E+00  0.00000000E+00
  0.00000000E+00  0.00000000E+00  0.00000000E+00
  0.00000000E+00  0.00000000E+00  0.00000000E+00
  0.00000000E+00  0.00000000E+00  0.00000000E+00
  0.00000000E+00  0.00000000E+00  0.00000000E+00
  0.00000000E+00  0.00000000E+00  0.00000000E+00
  0.00000000E+00  0.00000000E+00  0.00000000E+00
  0.00000000E+00  0.00000000E+00  0.00000000E+00
