Pt  C  F                                
    1.000000000000000     
    11.2480068000000006    0.0000000000000000    0.0000000000000000
     0.0000000000000000   15.9070838000000006    0.0000000000000000
     0.0000000000000000    0.0000000000000000   22.2180025631249976
   Pt   C    F 
    64     6     6
Selective dynamics
Direct
  0.2500000008890453  0.2500000006286527  0.3375640982438100   F   F   F
  0.2500000008890453  0.5000000006286527  0.3375640982438100   F   F   F
  0.2500000008890453  0.7500000012572983  0.3375640982438100   F   F   F
  0.2500000008890453  0.0000000000000000  0.3375640982438100   F   F   F
  0.5000000017780906  0.5000000006286527  0.3375640982438100   F   F   F
  0.0000000035561882  0.0000000000000000  0.3375640982438100   F   F   F
  0.5000000017780906  0.7500000012572983  0.3375640982438100   F   F   F
  0.5000000017780906  0.0000000000000000  0.3375640982438100   F   F   F
  0.7500000026671358  0.0000000000000000  0.3375640982438100   F   F   F
  0.0000000035561882  0.7500000012572983  0.3375640982438100   F   F   F
  0.5000000017780906  0.2500000006286527  0.3375640982438100   F   F   F
  0.7500000026671358  0.2500000006286527  0.3375640982438100   F   F   F
  0.7500000026671358  0.5000000006286527  0.3375640982438100   F   F   F
  0.7500000026671358  0.7500000012572983  0.3375640982438100   F   F   F
  0.0000000035561882  0.2500000006286527  0.3375640982438100   F   F   F
  0.0000000035561882  0.5000000006286527  0.3375640982438100   F   F   F
  0.2491724315705539  0.2505867650056439  0.4677048598440635   T   T   T
  0.2469970071961498  0.4997961322416129  0.4658808694827593   T   T   T
  0.2534190386062743  0.7462729018657721  0.4695611611227614   T   T   T
  0.2498142837631607  0.0001718687032734  0.4679687936733997   T   T   T
  0.5006502742607255  0.2526672929787167  0.4689901186715464   T   T   T
  0.5000000017780906  0.5000000006286527  0.4635390633956348   T   T   T
  0.4993497292954554  0.7473327089072341  0.4689901182214603   T   T   T
  0.5000000017780906  0.0000000000000000  0.4677723906355952   T   T   T
  0.7465809649499068  0.2537271000201787  0.4695611615728476   T   T   T
  0.7530029963600317  0.5002038690156924  0.4658808699328454   T   T   T
  0.7508275719856271  0.7494132368803075  0.4677048602941497   T   T   T
  0.7501857197930204  0.9998281312967264  0.4679687936733997   T   T   T
  0.9977820328921333  0.2503039925586519  0.4677496953828620   T   T   T
  0.0000000035561882  0.5000000006286527  0.4681308866069010   T   T   T
  0.0022179742202431  0.7496960093272990  0.4677496953828620   T   T   T
  0.0000000035561882  0.0000000000000000  0.4681847949998218   T   T   T
  0.1241603017791601  0.1259917803200215  0.5253570457526224   T   T   T
  0.1219576208422664  0.3745094344972416  0.5259595915352105   T   T   T
  0.1274050049734513  0.6245560017894627  0.5262981253142806   T   T   T
  0.1276189762668894  0.8736445506379098  0.5250783242692906   T   T   T
  0.3753089187497380  0.1261816512270550  0.5251588563745340   T   T   T
  0.3692626898653920  0.3777706766562923  0.5264340544446154   T   T   T
  0.3807754444817938  0.6128092305496037  0.5325010318258862   T   T   T
  0.3761795627758693  0.8740232370173329  0.5254204729953801   T   T   T
  0.6238204407803116  0.1259767642399658  0.5254204729953801   T   T   T
  0.6192245590743872  0.3871907707076948  0.5325010318258862   T   T   T
  0.6307373136907887  0.6222293246010061  0.5264340544446154   T   T   T
  0.6246910848064431  0.8738183500302430  0.5251588563745340   T   T   T
  0.8723810272892913  0.1263554506193884  0.5250783242692906   T   T   T
  0.8725949985827298  0.3754439994678351  0.5262981253142806   T   T   T
  0.8780423827139219  0.6254905667600565  0.5259595915352105   T   T   T
  0.8758397008879751  0.8740082209372768  0.5253570457526224   T   T   T
  0.1250000000000000  0.1250000003143228  0.4008461529820977   F   F   F
  0.1250000000000000  0.3750000003143228  0.4008461529820977   F   F   F
  0.1250000008890453  0.6250000009429755  0.4008461529820977   F   F   F
  0.1250000008890453  0.8750000009429755  0.4008461529820977   F   F   F
  0.3750000008890453  0.1250000003143228  0.4008461529820977   F   F   F
  0.3750000008890453  0.3750000003143228  0.4008461529820977   F   F   F
  0.3750000008890453  0.6250000009429755  0.4008461529820977   F   F   F
  0.3750000008890453  0.8750000009429755  0.4008461529820977   F   F   F
  0.6250000017780906  0.1250000003143228  0.4008461529820977   F   F   F
  0.6250000017780906  0.3750000003143228  0.4008461529820977   F   F   F
  0.6250000017780906  0.6250000009429755  0.4008461529820977   F   F   F
  0.6250000026671358  0.8750000009429755  0.4008461529820977   F   F   F
  0.8750000026671358  0.1250000003143228  0.4008461529820977   F   F   F
  0.8750000026671358  0.3750000003143228  0.4008461529820977   F   F   F
  0.8750000035561882  0.6250000009429755  0.4008461529820977   F   F   F
  0.8750000026671358  0.8750000009429755  0.4008461529820977   F   F   F
  0.6258123422284462  0.4699870987716838  0.6078871845998139   T   T   T
  0.5292151212881654  0.4100407643895956  0.6151475592005595   T   T   T
  0.3996199213119799  0.4345913999865381  0.6066144427936067   T   T   T
  0.3741876862210382  0.5300129150586326  0.6078871845998139   T   T   T
  0.4707848564856742  0.5899592242946916  0.6151475592005595   T   T   T
  0.6003800822442010  0.5654086012707672  0.6066144427936067   T   T   T
  0.7259642396585044  0.4537165089455688  0.6408876457068046   T   T   T
  0.5454574437804810  0.3476528425612555  0.6560745638351214   T   T   T
  0.3331003605818297  0.3981031012384570  0.6524573157112206   T   T   T
  0.2740357638976842  0.5462834923117366  0.6408876457068046   T   T   T
  0.4545424939862710  0.6523471385792203  0.6560745638351214   T   T   T
  0.6668996180810550  0.6018968874458303  0.6524573157112206   T   T   T
 
  0.00000000E+00  0.00000000E+00  0.00000000E+00
  0.00000000E+00  0.00000000E+00  0.00000000E+00
  0.00000000E+00  0.00000000E+00  0.00000000E+00
  0.00000000E+00  0.00000000E+00  0.00000000E+00
  0.00000000E+00  0.00000000E+00  0.00000000E+00
  0.00000000E+00  0.00000000E+00  0.00000000E+00
  0.00000000E+00  0.00000000E+00  0.00000000E+00
  0.00000000E+00  0.00000000E+00  0.00000000E+00
  0.00000000E+00  0.00000000E+00  0.00000000E+00
  0.00000000E+00  0.00000000E+00  0.00000000E+00
  0.00000000E+00  0.00000000E+00  0.00000000E+00
  0.00000000E+00  0.00000000E+00  0.00000000E+00
  0.00000000E+00  0.00000000E+00  0.00000000E+00
  0.00000000E+00  0.00000000E+00  0.00000000E+00
  0.00000000E+00  0.00000000E+00  0.00000000E+00
  0.00000000E+00  0.00000000E+00  0.00000000E+00
  0.00000000E+00  0.00000000E+00  0.00000000E+00
  0.00000000E+00  0.00000000E+00  0.00000000E+00
  0.00000000E+00  0.00000000E+00  0.00000000E+00
  0.00000000E+00  0.00000000E+00  0.00000000E+00
  0.00000000E+00  0.00000000E+00  0.00000000E+00
  0.00000000E+00  0.00000000E+00  0.00000000E+00
  0.00000000E+00  0.00000000E+00  0.00000000E+00
  0.00000000E+00  0.00000000E+00  0.00000000E+00
  0.00000000E+00  0.00000000E+00  0.00000000E+00
  0.00000000E+00  0.00000000E+00  0.00000000E+00
  0.00000000E+00  0.00000000E+00  0.00000000E+00
  0.00000000E+00  0.00000000E+00  0.00000000E+00
  0.00000000E+00  0.00000000E+00  0.00000000E+00
  0.00000000E+00  0.00000000E+00  0.00000000E+00
  0.00000000E+00  0.00000000E+00  0.00000000E+00
  0.00000000E+00  0.00000000E+00  0.00000000E+00
  0.00000000E+00  0.00000000E+00  0.00000000E+00
  0.00000000E+00  0.00000000E+00  0.00000000E+00
  0.00000000E+00  0.00000000E+00  0.00000000E+00
  0.00000000E+00  0.00000000E+00  0.00000000E+00
  0.00000000E+00  0.00000000E+00  0.00000000E+00
  0.00000000E+00  0.00000000E+00  0.00000000E+00
  0.00000000E+00  0.00000000E+00  0.00000000E+00
  0.00000000E+00  0.00000000E+00  0.00000000E+00
  0.00000000E+00  0.00000000E+00  0.00000000E+00
  0.00000000E+00  0.00000000E+00  0.00000000E+00
  0.00000000E+00  0.00000000E+00  0.00000000E+00
  0.00000000E+00  0.00000000E+00  0.00000000E+00
  0.00000000E+00  0.00000000E+00  0.00000000E+00
  0.00000000E+00  0.00000000E+00  0.00000000E+00
  0.00000000E+00  0.00000000E+00  0.00000000E+00
  0.00000000E+00  0.00000000E+00  0.00000000E+00
  0.00000000E+00  0.00000000E+00  0.00000000E+00
  0.00000000E+00  0.00000000E+00  0.00000000E+00
  0.00000000E+00  0.00000000E+00  0.00000000E+00
  0.00000000E+00  0.00000000E+00  0.00000000E+00
  0.00000000E+00  0.00000000E+00  0.00000000E+00
  0.00000000E+00  0.00000000E+00  0.00000000E+00
  0.00000000E+00  0.00000000E+00  0.00000000E+00
  0.00000000E+00  0.00000000E+00  0.00000000E+00
  0.00000000E+00  0.00000000E+00  0.00000000E+00
  0.00000000E+00  0.00000000E+00  0.00000000E+00
  0.00000000E+00  0.00000000E+00  0.00000000E+00
  0.00000000E+00  0.00000000E+00  0.00000000E+00
  0.00000000E+00  0.00000000E+00  0.00000000E+00
  0.00000000E+00  0.00000000E+00  0.00000000E+00
  0.00000000E+00  0.00000000E+00  0.00000000E+00
  0.00000000E+00  0.00000000E+00  0.00000000E+00
  0.00000000E+00  0.00000000E+00  0.00000000E+00
  0.00000000E+00  0.00000000E+00  0.00000000E+00
  0.00000000E+00  0.00000000E+00  0.00000000E+00
  0.00000000E+00  0.00000000E+00  0.00000000E+00
  0.00000000E+00  0.00000000E+00  0.00000000E+00
  0.00000000E+00  0.00000000E+00  0.00000000E+00
  0.00000000E+00  0.00000000E+00  0.00000000E+00
  0.00000000E+00  0.00000000E+00  0.00000000E+00
  0.00000000E+00  0.00000000E+00  0.00000000E+00
  0.00000000E+00  0.00000000E+00  0.00000000E+00
  0.00000000E+00  0.00000000E+00  0.00000000E+00
  0.00000000E+00  0.00000000E+00  0.00000000E+00
