Cu  C  N  F                             
    1.000000000000000     
    10.2424774999999997    0.0000000000000000    0.0000000000000000
     0.0000000000000000   14.4850505999999992    0.0000000000000000
     0.0000000000000000    0.0000000000000000   21.8409290399999989
   Cu   C    N    F 
    64     4     2     4
Selective dynamics
Direct
  0.2499999995118358  0.2499999993096296  0.3433919860398049   F   F   F
  0.0000000000000000  0.7499999965481621  0.3433919860398049   F   F   F
  0.2499999995118358  0.4999999986192663  0.3433919860398049   F   F   F
  0.2499999995118358  0.7499999979288958  0.3433919860398049   F   F   F
  0.2499999995118358  0.0000000000000000  0.3433919860398049   F   F   F
  0.4999999990236716  0.2499999993096296  0.3433919860398049   F   F   F
  0.4999999990236716  0.4999999986192663  0.3433919860398049   F   F   F
  0.0000000000000000  0.0000000000000000  0.3433919860398049   F   F   F
  0.4999999990236716  0.7499999979288958  0.3433919860398049   F   F   F
  0.4999999990236716  0.0000000000000000  0.3433919860398049   F   F   F
  0.7499999985355075  0.2499999993096296  0.3433919860398049   F   F   F
  0.7499999985355075  0.4999999986192663  0.3433919860398049   F   F   F
  0.7499999985355075  0.7499999979288958  0.3433919860398049   F   F   F
  0.7499999985355075  0.0000000000000000  0.3433919860398049   F   F   F
  0.9999999980473504  0.2499999993096296  0.3433919860398049   F   F   F
  0.0000000000000000  0.4999999986192663  0.3433919860398049   F   F   F
  0.2499838326281900  0.2500841477781906  0.4617249287480140   T   T   T
  0.2500452473325866  0.4998444117288679  0.4617972818333569   T   T   T
  0.2498864943387553  0.7500675637730541  0.4616427981489163   T   T   T
  0.2500032631310389 -0.0000145391335040  0.4616879185283571   T   T   T
  0.4999684744603077  0.2498938868438530  0.4615746518848164   T   T   T
  0.5000012983495659  0.4999960686743565  0.4618265103626737   T   T   T
  0.5000328126831592  0.7501089105303974  0.4615782388338198   T   T   T
  0.4999984400799575 -0.0000142561629750  0.4617073531236672   T   T   T
  0.7501155656441376  0.2499399952789300  0.4616413919898424   T   T   T
  0.7499567861509232  0.5001455069491362  0.4617967877288079   T   T   T
  0.7500158577249142  0.7499170625527133  0.4617227438774522   T   T   T
  0.7499983536530536  0.0000163488588044  0.4616873631282557   T   T   T
 -0.0000119045140140  0.2500833091601795  0.4617148156157221   T   T   T
 -0.0000019165679023  0.4999940532301248  0.4617151154506779   T   T   T
  0.0000097131343523  0.7499227628226237  0.4617095398590830   T   T   T
  0.0000002900456220 -0.0000001834707852  0.4616884404965296   T   T   T
  0.1249871656669023  0.1250922517746168  0.5165527814900196   T   T   T
  0.1249179568060320  0.3750133378268728  0.5166466610382389   T   T   T
  0.1250645787873411  0.6248677448936704  0.5166571445896213   T   T   T
  0.1249998063067940  0.8749579737582012  0.5165890481473778   T   T   T
  0.3750427339016555  0.1250746012831082  0.5165454067143697   T   T   T
  0.3751098698364392  0.3748383097062636  0.5168841386736838   T   T   T
  0.3748023957283815  0.6250331971387810  0.5161594420890039   T   T   T
  0.3750318809902897  0.8748976731590322  0.5165529221544173   T   T   T
  0.6249659074502496  0.1250996652581221  0.5165546543448145   T   T   T
  0.6252025269053716  0.3749675688575435  0.5161568226737427   T   T   T
  0.6248912371188940  0.6251602825453981  0.5168831947492407   T   T   T
  0.6249572847457051  0.8749327953444217  0.5165483469967501   T   T   T
  0.8750015110663256  0.1250422966469895  0.5165914768335770   T   T   T
  0.8749351929170665  0.3751336382754948  0.5166532786964071   T   T   T
  0.8750774692888792  0.6249856322635503  0.5166462481020793   T   T   T
  0.8750135933002254  0.8749073187849388  0.5165501180118300   T   T   T
  0.1250000002440785  0.1249999996548183  0.4020117305412967   F   F   F
  0.1250000002440785  0.3749999989644479  0.4020117305412967   F   F   F
  0.1250000002440785  0.6249999982740846  0.4020117305412967   F   F   F
  0.1250000002440785  0.8749999975837142  0.4020117305412967   F   F   F
  0.3749999997559215  0.1249999996548183  0.4020117305412967   F   F   F
  0.3749999997559215  0.3749999989644479  0.4020117305412967   F   F   F
  0.3749999997559215  0.6249999982740846  0.4020117305412967   F   F   F
  0.3749999997559215  0.8749999975837142  0.4020117305412967   F   F   F
  0.6249999982914289  0.1249999996548183  0.4020117305412967   F   F   F
  0.6249999992677573  0.3749999989644479  0.4020117305412967   F   F   F
  0.6249999992677573  0.6249999982740846  0.4020117305412967   F   F   F
  0.6249999992677573  0.8749999975837142  0.4020117305412967   F   F   F
  0.8749999987795931  0.1249999996548183  0.4020117305412967   F   F   F
  0.8749999978032648  0.3749999989644479  0.4020117305412967   F   F   F
  0.8749999987795931  0.6249999982740846  0.4020117305412967   F   F   F
  0.8749999987795931  0.8749999975837142  0.4020117305412967   F   F   F
  0.5501648799380822  0.4155570729917287  0.6513035689273488   T   T   T
  0.6293752757862865  0.4944416914554994  0.6513906913044175   T   T   T
  0.4498385227844646  0.5844477996084826  0.6513065425277045   T   T   T
  0.3706298498759254  0.5055637186928907  0.6513937203305065   T   T   T
  0.5783960851058187  0.5780791924789229  0.6513658122409473   T   T   T
  0.4216081415382381  0.4219241938941113  0.6513675882092937   T   T   T
  0.2401637434302589  0.5130201559718160  0.6523833620035535   T   T   T
  0.3967065415638265  0.6693054157575706  0.6531613472150986   T   T   T
  0.6032936247821730  0.3307036005742643  0.6531557824265397   T   T   T
  0.7598335907610256  0.4869831589589766  0.6523783156228626   T   T   T
 
  0.00000000E+00  0.00000000E+00  0.00000000E+00
  0.00000000E+00  0.00000000E+00  0.00000000E+00
  0.00000000E+00  0.00000000E+00  0.00000000E+00
  0.00000000E+00  0.00000000E+00  0.00000000E+00
  0.00000000E+00  0.00000000E+00  0.00000000E+00
  0.00000000E+00  0.00000000E+00  0.00000000E+00
  0.00000000E+00  0.00000000E+00  0.00000000E+00
  0.00000000E+00  0.00000000E+00  0.00000000E+00
  0.00000000E+00  0.00000000E+00  0.00000000E+00
  0.00000000E+00  0.00000000E+00  0.00000000E+00
  0.00000000E+00  0.00000000E+00  0.00000000E+00
  0.00000000E+00  0.00000000E+00  0.00000000E+00
  0.00000000E+00  0.00000000E+00  0.00000000E+00
  0.00000000E+00  0.00000000E+00  0.00000000E+00
  0.00000000E+00  0.00000000E+00  0.00000000E+00
  0.00000000E+00  0.00000000E+00  0.00000000E+00
  0.00000000E+00  0.00000000E+00  0.00000000E+00
  0.00000000E+00  0.00000000E+00  0.00000000E+00
  0.00000000E+00  0.00000000E+00  0.00000000E+00
  0.00000000E+00  0.00000000E+00  0.00000000E+00
  0.00000000E+00  0.00000000E+00  0.00000000E+00
  0.00000000E+00  0.00000000E+00  0.00000000E+00
  0.00000000E+00  0.00000000E+00  0.00000000E+00
  0.00000000E+00  0.00000000E+00  0.00000000E+00
  0.00000000E+00  0.00000000E+00  0.00000000E+00
  0.00000000E+00  0.00000000E+00  0.00000000E+00
  0.00000000E+00  0.00000000E+00  0.00000000E+00
  0.00000000E+00  0.00000000E+00  0.00000000E+00
  0.00000000E+00  0.00000000E+00  0.00000000E+00
  0.00000000E+00  0.00000000E+00  0.00000000E+00
  0.00000000E+00  0.00000000E+00  0.00000000E+00
  0.00000000E+00  0.00000000E+00  0.00000000E+00
  0.00000000E+00  0.00000000E+00  0.00000000E+00
  0.00000000E+00  0.00000000E+00  0.00000000E+00
  0.00000000E+00  0.00000000E+00  0.00000000E+00
  0.00000000E+00  0.00000000E+00  0.00000000E+00
  0.00000000E+00  0.00000000E+00  0.00000000E+00
  0.00000000E+00  0.00000000E+00  0.00000000E+00
  0.00000000E+00  0.00000000E+00  0.00000000E+00
  0.00000000E+00  0.00000000E+00  0.00000000E+00
  0.00000000E+00  0.00000000E+00  0.00000000E+00
  0.00000000E+00  0.00000000E+00  0.00000000E+00
  0.00000000E+00  0.00000000E+00  0.00000000E+00
  0.00000000E+00  0.00000000E+00  0.00000000E+00
  0.00000000E+00  0.00000000E+00  0.00000000E+00
  0.00000000E+00  0.00000000E+00  0.00000000E+00
  0.00000000E+00  0.00000000E+00  0.00000000E+00
  0.00000000E+00  0.00000000E+00  0.00000000E+00
  0.00000000E+00  0.00000000E+00  0.00000000E+00
  0.00000000E+00  0.00000000E+00  0.00000000E+00
  0.00000000E+00  0.00000000E+00  0.00000000E+00
  0.00000000E+00  0.00000000E+00  0.00000000E+00
  0.00000000E+00  0.00000000E+00  0.00000000E+00
  0.00000000E+00  0.00000000E+00  0.00000000E+00
  0.00000000E+00  0.00000000E+00  0.00000000E+00
  0.00000000E+00  0.00000000E+00  0.00000000E+00
  0.00000000E+00  0.00000000E+00  0.00000000E+00
  0.00000000E+00  0.00000000E+00  0.00000000E+00
  0.00000000E+00  0.00000000E+00  0.00000000E+00
  0.00000000E+00  0.00000000E+00  0.00000000E+00
  0.00000000E+00  0.00000000E+00  0.00000000E+00
  0.00000000E+00  0.00000000E+00  0.00000000E+00
  0.00000000E+00  0.00000000E+00  0.00000000E+00
  0.00000000E+00  0.00000000E+00  0.00000000E+00
  0.00000000E+00  0.00000000E+00  0.00000000E+00
  0.00000000E+00  0.00000000E+00  0.00000000E+00
  0.00000000E+00  0.00000000E+00  0.00000000E+00
  0.00000000E+00  0.00000000E+00  0.00000000E+00
  0.00000000E+00  0.00000000E+00  0.00000000E+00
  0.00000000E+00  0.00000000E+00  0.00000000E+00
  0.00000000E+00  0.00000000E+00  0.00000000E+00
  0.00000000E+00  0.00000000E+00  0.00000000E+00
  0.00000000E+00  0.00000000E+00  0.00000000E+00
  0.00000000E+00  0.00000000E+00  0.00000000E+00
