Pd  C  H Br                             
   1.00000000000000     
    11.1922750000000004    0.0000000000000000    0.0000000000000000
    -5.5961369999999997    9.6927939999999992    0.0000000000000000
     0.0000000000000000    0.0000000000000000   24.8538405000000040
   Pd   C    H    Br
    64     6     2     4
Selective dynamics
Direct
  0.9999999513476965  0.0000000206338839  0.3017642283493345   F   F   F
  0.2499999873901899  0.2500000051584692  0.3017642283493345   F   F   F
  0.2499999828216346  0.5000000103169455  0.3017642283493345   F   F   F
  0.2499999773596073  0.7500000154754147  0.3017642283493345   F   F   F
  0.2499999727910591  0.0000000206338839  0.3017642283493345   F   F   F
  0.4999999802424000  0.2500000051584692  0.3017642283493345   F   F   F
  0.4999999756738518  0.5000000103169455  0.3017642283493345   F   F   F
  0.4999999702118245  0.7500000154754147  0.3017642283493345   F   F   F
  0.7499999730946101  0.2500000051584692  0.3017642283493345   F   F   F
  0.7499999685260619  0.5000000103169455  0.3017642283493345   F   F   F
  0.7499999630640346  0.7500000154754147  0.3017642283493345   F   F   F
  0.7499999584954864  0.0000000206338839  0.3017642283493345   F   F   F
  0.9999999659468273  0.2500000051584692  0.3017642283493345   F   F   F
  0.9999999613782720  0.5000000103169455  0.3017642283493345   F   F   F
  0.9999999559162518  0.7500000154754147  0.3017642283493345   F   F   F
  0.4999999656432692  0.0000000206338839  0.3017642283493345   F   F   F
  0.0833330000000032  0.1666669999999968  0.3936861790032040   F   F   F
  0.0833330000000032  0.4166669999999968  0.3936861790032040   F   F   F
  0.0833330000000032  0.6666669999999968  0.3936861790032040   F   F   F
  0.0833330000000032  0.9166669999999968  0.3936861790032040   F   F   F
  0.3333330000000032  0.1666669999999968  0.3936861790032040   F   F   F
  0.3333330000000032  0.4166669999999968  0.3936861790032040   F   F   F
  0.3333330000000032  0.6666669999999968  0.3936861790032040   F   F   F
  0.3333330000000032  0.9166669999999968  0.3936861790032040   F   F   F
  0.5833330000000032  0.1666669999999968  0.3936861790032040   F   F   F
  0.5833330000000032  0.4166669999999968  0.3936861790032040   F   F   F
  0.5833330000000032  0.6666669999999968  0.3936861790032040   F   F   F
  0.5833330000000032  0.9166669999999968  0.3936861790032040   F   F   F
  0.8333330000000032  0.1666669999999968  0.3936861790032040   F   F   F
  0.8333330000000032  0.4166669999999968  0.3936861790032040   F   F   F
  0.8333330000000032  0.6666669999999968  0.3936861790032040   F   F   F
  0.8333330000000032  0.9166669999999968  0.3936861790032040   F   F   F
  0.2454425965743694  0.9916448082346337  0.5765153901977013   T   T   T
  0.2549782592822398  0.2524890303372072  0.5791834923912210   T   T   T
  0.2454918803933203  0.5038104023174388  0.5765164260085519   T   T   T
  0.2485779672468588  0.7492791785809219  0.5750080695618101   T   T   T
  0.5007468556721698  0.9953026195967509  0.5732094220561464   T   T   T
  0.5023065013717811  0.2425825017729486  0.5771739396198436   T   T   T
  0.5023250464356205  0.5096767505054071  0.5771648812978417   T   T   T
  0.5007365504079934  0.7554358185202033  0.5731795712044087   T   T   T
  0.7524717918291742  0.0012486035932236  0.5751009916025271   T   T   T
  0.7576040287905343  0.2481390033356483  0.5770189208347599   T   T   T
  0.7505435722836261  0.5002572677706003  0.5793877271678537   T   T   T
  0.7575639044118000  0.7594173685906340  0.5769921514034064   T   T   T
  0.0023048276166593  0.0022557541061547  0.5755336867558567   T   T   T
  0.0023114209961696  0.2500873210951171  0.5755584482243322   T   T   T
  0.9999001907785664  0.5008924051997432  0.5759127330268520   T   T   T
  0.9998733260139965  0.7489744699957387  0.5759155267455428   T   T   T
  0.1686374772817010  0.0850105215646281  0.4852410815677919   T   T   T
  0.1686388552003836  0.3336083369104185  0.4852351450137574   T   T   T
  0.1652603695255184  0.5819989770570564  0.4834899855612751   T   T   T
  0.1652519114580479  0.8333102725891648  0.4835054006731335   T   T   T
  0.4163824533786132  0.0841867433848760  0.4841679837399532   T   T   T
  0.4182096244939206  0.3340640901765438  0.4843759865870145   T   T   T
  0.4164011233607188  0.5822137116953561  0.4841806384638969   T   T   T
  0.4150128898615103  0.8325166124700527  0.4825027068293309   T   T   T
  0.6672588127257261  0.0833295233448819  0.4833216253160122   T   T   T
  0.6661499878972826  0.3320982658804809  0.4847391841537177   T   T   T
  0.6661401254670760  0.5840048289846864  0.4847439245946862   T   T   T
  0.6672712593946345  0.8339528878697480  0.4833031037446346   T   T   T
  0.9181818499155042  0.0841239050146555  0.4836943342934070   T   T   T
  0.9158092425373329  0.3325614987961936  0.4841929753623718   T   T   T
  0.9126651048810827  0.5813346067143274  0.4853498906420998   T   T   T
  0.9158209213259081  0.8332450537625731  0.4841874970509487   T   T   T
  0.3455746519878787  0.2978102743987547  0.6573671846094513   T   T   T
  0.4260267489882353  0.4486195552344382  0.6577833077152643   T   T   T
  0.5740611671929380  0.5226029424974435  0.6576755201820074   T   T   T
  0.6546821333066783  0.4523684940556312  0.6571406321723680   T   T   T
  0.5740075424592925  0.3014975095200532  0.6576868275721997   T   T   T
  0.4259267111145902  0.2273817042646707  0.6577835364233954   T   T   T
  0.2489963734021972  0.2495429252437486  0.6802382641504953   T   T   T
  0.7509354357580681  0.5004119665072190  0.6802143198944053   T   T   T
  0.3207242022852690  0.5340317500874695  0.6814844702967691   T   T   T
  0.6802289699974329  0.7134454064900745  0.6812489775926721   T   T   T
  0.6799897171356608  0.2164589082165003  0.6813598162509296   T   T   T
  0.3204855733800335  0.0366961694264881  0.6814157076289452   T   T   T
 
  0.00000000E+00  0.00000000E+00  0.00000000E+00
  0.00000000E+00  0.00000000E+00  0.00000000E+00
  0.00000000E+00  0.00000000E+00  0.00000000E+00
  0.00000000E+00  0.00000000E+00  0.00000000E+00
  0.00000000E+00  0.00000000E+00  0.00000000E+00
  0.00000000E+00  0.00000000E+00  0.00000000E+00
  0.00000000E+00  0.00000000E+00  0.00000000E+00
  0.00000000E+00  0.00000000E+00  0.00000000E+00
  0.00000000E+00  0.00000000E+00  0.00000000E+00
  0.00000000E+00  0.00000000E+00  0.00000000E+00
  0.00000000E+00  0.00000000E+00  0.00000000E+00
  0.00000000E+00  0.00000000E+00  0.00000000E+00
  0.00000000E+00  0.00000000E+00  0.00000000E+00
  0.00000000E+00  0.00000000E+00  0.00000000E+00
  0.00000000E+00  0.00000000E+00  0.00000000E+00
  0.00000000E+00  0.00000000E+00  0.00000000E+00
  0.00000000E+00  0.00000000E+00  0.00000000E+00
  0.00000000E+00  0.00000000E+00  0.00000000E+00
  0.00000000E+00  0.00000000E+00  0.00000000E+00
  0.00000000E+00  0.00000000E+00  0.00000000E+00
  0.00000000E+00  0.00000000E+00  0.00000000E+00
  0.00000000E+00  0.00000000E+00  0.00000000E+00
  0.00000000E+00  0.00000000E+00  0.00000000E+00
  0.00000000E+00  0.00000000E+00  0.00000000E+00
  0.00000000E+00  0.00000000E+00  0.00000000E+00
  0.00000000E+00  0.00000000E+00  0.00000000E+00
  0.00000000E+00  0.00000000E+00  0.00000000E+00
  0.00000000E+00  0.00000000E+00  0.00000000E+00
  0.00000000E+00  0.00000000E+00  0.00000000E+00
  0.00000000E+00  0.00000000E+00  0.00000000E+00
  0.00000000E+00  0.00000000E+00  0.00000000E+00
  0.00000000E+00  0.00000000E+00  0.00000000E+00
  0.00000000E+00  0.00000000E+00  0.00000000E+00
  0.00000000E+00  0.00000000E+00  0.00000000E+00
  0.00000000E+00  0.00000000E+00  0.00000000E+00
  0.00000000E+00  0.00000000E+00  0.00000000E+00
  0.00000000E+00  0.00000000E+00  0.00000000E+00
  0.00000000E+00  0.00000000E+00  0.00000000E+00
  0.00000000E+00  0.00000000E+00  0.00000000E+00
  0.00000000E+00  0.00000000E+00  0.00000000E+00
  0.00000000E+00  0.00000000E+00  0.00000000E+00
  0.00000000E+00  0.00000000E+00  0.00000000E+00
  0.00000000E+00  0.00000000E+00  0.00000000E+00
  0.00000000E+00  0.00000000E+00  0.00000000E+00
  0.00000000E+00  0.00000000E+00  0.00000000E+00
  0.00000000E+00  0.00000000E+00  0.00000000E+00
  0.00000000E+00  0.00000000E+00  0.00000000E+00
  0.00000000E+00  0.00000000E+00  0.00000000E+00
  0.00000000E+00  0.00000000E+00  0.00000000E+00
  0.00000000E+00  0.00000000E+00  0.00000000E+00
  0.00000000E+00  0.00000000E+00  0.00000000E+00
  0.00000000E+00  0.00000000E+00  0.00000000E+00
  0.00000000E+00  0.00000000E+00  0.00000000E+00
  0.00000000E+00  0.00000000E+00  0.00000000E+00
  0.00000000E+00  0.00000000E+00  0.00000000E+00
  0.00000000E+00  0.00000000E+00  0.00000000E+00
  0.00000000E+00  0.00000000E+00  0.00000000E+00
  0.00000000E+00  0.00000000E+00  0.00000000E+00
  0.00000000E+00  0.00000000E+00  0.00000000E+00
  0.00000000E+00  0.00000000E+00  0.00000000E+00
  0.00000000E+00  0.00000000E+00  0.00000000E+00
  0.00000000E+00  0.00000000E+00  0.00000000E+00
  0.00000000E+00  0.00000000E+00  0.00000000E+00
  0.00000000E+00  0.00000000E+00  0.00000000E+00
  0.00000000E+00  0.00000000E+00  0.00000000E+00
  0.00000000E+00  0.00000000E+00  0.00000000E+00
  0.00000000E+00  0.00000000E+00  0.00000000E+00
  0.00000000E+00  0.00000000E+00  0.00000000E+00
  0.00000000E+00  0.00000000E+00  0.00000000E+00
  0.00000000E+00  0.00000000E+00  0.00000000E+00
  0.00000000E+00  0.00000000E+00  0.00000000E+00
  0.00000000E+00  0.00000000E+00  0.00000000E+00
  0.00000000E+00  0.00000000E+00  0.00000000E+00
  0.00000000E+00  0.00000000E+00  0.00000000E+00
  0.00000000E+00  0.00000000E+00  0.00000000E+00
  0.00000000E+00  0.00000000E+00  0.00000000E+00
