Ag  C  H Cl                             
    1.000000000000000     
    11.7702790000000004    0.0000000000000000    0.0000000000000000
     0.0000000000000000   11.7702790000000004    0.0000000000000000
     0.0000000000000000    0.0000000000000000   24.2421330600000005
   Ag   C    H    Cl
    64     6     4     2
Selective dynamics
Direct
  0.0000000000000000  0.2499999991504041  0.3093787160328390   F   F   F
  0.7499999974512050  0.7499999974512050  0.3093787160328390   F   F   F
  0.0000000000000000  0.4999999983008081  0.3093787160328390   F   F   F
  0.0000000000000000  0.7499999974512050  0.3093787160328390   F   F   F
  0.0000000000000000  0.0000000000000000  0.3093787160328390   F   F   F
  0.2499999991504041  0.2499999991504041  0.3093787160328390   F   F   F
  0.2499999991504041  0.4999999983008081  0.3093787160328390   F   F   F
  0.7499999974512050  0.0000000000000000  0.3093787160328390   F   F   F
  0.2499999991504041  0.7499999974512050  0.3093787160328390   F   F   F
  0.2499999991504041  0.0000000000000000  0.3093787160328390   F   F   F
  0.4999999983008081  0.2499999991504041  0.3093787160328390   F   F   F
  0.4999999983008081  0.4999999983008081  0.3093787160328390   F   F   F
  0.4999999983008081  0.7499999974512050  0.3093787160328390   F   F   F
  0.4999999983008081  0.0000000000000000  0.3093787160328390   F   F   F
  0.7499999974512050  0.2499999991504041  0.3093787160328390   F   F   F
  0.7499999974512050  0.4999999983008081  0.3093787160328390   F   F   F
 -0.0000135177002147  0.2499710089635516  0.4741567474303545   T   T   T
 -0.0000059484384897  0.4999931131525235  0.4741062803409471   T   T   T
  0.0000030833720079  0.7500167284706555  0.4741555228095515   T   T   T
 -0.0000051010305076 -0.0000050812899495  0.4741395746329338   T   T   T
  0.2496456321956312  0.2496451211124388  0.4739661534290737   T   T   T
  0.2497518024751352  0.5002422624305389  0.4740427162915906   T   T   T
  0.2500344925367063  0.7499538038541931  0.4741587868135145   T   T   T
  0.2499719386179004 -0.0000140629522382  0.4741567418707840   T   T   T
  0.5002440270279015  0.2497519797224066  0.4740437406471229   T   T   T
  0.4999940963364218  0.4999926569532121  0.4738727651724373   T   T   T
  0.4997463772676429  0.7502348274661289  0.4740439863433976   T   T   T
  0.4999942915051665 -0.0000067984156117  0.4741068255574464   T   T   T
  0.7499524867800412  0.2500346714702491  0.4741599333798808   T   T   T
  0.7502333543016327  0.4997445586687174  0.4740445619751048   T   T   T
  0.7503390690657603  0.7503395676447729  0.4739672142412705   T   T   T
  0.7500167306196127  0.0000027957371141  0.4741561087559975   T   T   T
  0.1247948628209239  0.1247944179827385  0.5522428974003768   T   T   T
  0.1248837509849131  0.3752182910303551  0.5522572710121738   T   T   T
  0.1250433347232540  0.6249721495604390  0.5523213233032082   T   T   T
  0.1252171330079896  0.8747686090019261  0.5523858732551880   T   T   T
  0.3752188350742270  0.1248834201388321  0.5522569155400763   T   T   T
  0.3749429019837737  0.3749420376216230  0.5510196518651077   T   T   T
  0.3749959544226281  0.6249792216162025  0.5522939420634007   T   T   T
  0.3750057214032152  0.8749279973893268  0.5523219713802254   T   T   T
  0.6249727345212148  0.1250428957856163  0.5523202421910941   T   T   T
  0.6249795451296664  0.3749959245659210  0.5522945957180265   T   T   T
  0.6250322729171846  0.6250328645151351  0.5510303489162403   T   T   T
  0.6247670534832030  0.8750988619620771  0.5522576340181004   T   T   T
  0.8747691832243271  0.1252168057245604  0.5523848691618495   T   T   T
  0.8749285160864132  0.3750051971531940  0.5523222966853218   T   T   T
  0.8750993203428042  0.6247663614503655  0.5522589628099419   T   T   T
  0.8751913315426411  0.8751906730615282  0.5522438660226094   T   T   T
  0.1249999995752020  0.1249999995752020  0.3952090765398992   F   F   F
  0.1249999995752020  0.3749999987256061  0.3952090765398992   F   F   F
  0.1249999995752020  0.6249999978760030  0.3952090765398992   F   F   F
  0.1249999995752020  0.8749999970264071  0.3952090765398992   F   F   F
  0.3749999987256061  0.1249999995752020  0.3952090765398992   F   F   F
  0.3749999987256061  0.3749999987256061  0.3952090765398992   F   F   F
  0.3749999987256061  0.6249999978760030  0.3952090765398992   F   F   F
  0.3749999987256061  0.8749999970264071  0.3952090765398992   F   F   F
  0.6249999978760030  0.1249999995752020  0.3952090765398992   F   F   F
  0.6249999978760030  0.3749999987256061  0.3952090765398992   F   F   F
  0.6249999978760030  0.6249999978760030  0.3952090765398992   F   F   F
  0.6249999978760030  0.8749999970264071  0.3952090765398992   F   F   F
  0.8749999970264071  0.1249999995752020  0.3952090765398992   F   F   F
  0.8749999970264071  0.3749999987256061  0.3952090765398992   F   F   F
  0.8749999970264071  0.6249999978760030  0.3952090765398992   F   F   F
  0.8749999970264071  0.8749999970264071  0.3952090765398992   F   F   F
  0.5834977978523259  0.5834651031779289  0.6766479430634789   T   T   T
  0.6150169079445292  0.4690482993692067  0.6754462433126276   T   T   T
  0.5310148913866795  0.3851102634839111  0.6754399599630905   T   T   T
  0.4166294902447930  0.4166651272026386  0.6766160749926606   T   T   T
  0.3851342041282588  0.5310659839630316  0.6754395826611219   T   T   T
  0.4690972604589602  0.6150384566318385  0.6754468359306846   T   T   T
  0.7045323055171882  0.4453393130831381  0.6749582936351056   T   T   T
  0.5546412395258993  0.2955689374394601  0.6749599830619748   T   T   T
  0.2955902908423608  0.5546796400486542  0.6749596223267814   T   T   T
  0.4453815064078027  0.7045508047141642  0.6749581306110678   T   T   T
  0.6875201001370718  0.6873845996821726  0.6789329233718725   T   T   T
  0.3125217021275525  0.3126929796959419  0.6788665728925903   T   T   T
 
  0.00000000E+00  0.00000000E+00  0.00000000E+00
  0.00000000E+00  0.00000000E+00  0.00000000E+00
  0.00000000E+00  0.00000000E+00  0.00000000E+00
  0.00000000E+00  0.00000000E+00  0.00000000E+00
  0.00000000E+00  0.00000000E+00  0.00000000E+00
  0.00000000E+00  0.00000000E+00  0.00000000E+00
  0.00000000E+00  0.00000000E+00  0.00000000E+00
  0.00000000E+00  0.00000000E+00  0.00000000E+00
  0.00000000E+00  0.00000000E+00  0.00000000E+00
  0.00000000E+00  0.00000000E+00  0.00000000E+00
  0.00000000E+00  0.00000000E+00  0.00000000E+00
  0.00000000E+00  0.00000000E+00  0.00000000E+00
  0.00000000E+00  0.00000000E+00  0.00000000E+00
  0.00000000E+00  0.00000000E+00  0.00000000E+00
  0.00000000E+00  0.00000000E+00  0.00000000E+00
  0.00000000E+00  0.00000000E+00  0.00000000E+00
  0.00000000E+00  0.00000000E+00  0.00000000E+00
  0.00000000E+00  0.00000000E+00  0.00000000E+00
  0.00000000E+00  0.00000000E+00  0.00000000E+00
  0.00000000E+00  0.00000000E+00  0.00000000E+00
  0.00000000E+00  0.00000000E+00  0.00000000E+00
  0.00000000E+00  0.00000000E+00  0.00000000E+00
  0.00000000E+00  0.00000000E+00  0.00000000E+00
  0.00000000E+00  0.00000000E+00  0.00000000E+00
  0.00000000E+00  0.00000000E+00  0.00000000E+00
  0.00000000E+00  0.00000000E+00  0.00000000E+00
  0.00000000E+00  0.00000000E+00  0.00000000E+00
  0.00000000E+00  0.00000000E+00  0.00000000E+00
  0.00000000E+00  0.00000000E+00  0.00000000E+00
  0.00000000E+00  0.00000000E+00  0.00000000E+00
  0.00000000E+00  0.00000000E+00  0.00000000E+00
  0.00000000E+00  0.00000000E+00  0.00000000E+00
  0.00000000E+00  0.00000000E+00  0.00000000E+00
  0.00000000E+00  0.00000000E+00  0.00000000E+00
  0.00000000E+00  0.00000000E+00  0.00000000E+00
  0.00000000E+00  0.00000000E+00  0.00000000E+00
  0.00000000E+00  0.00000000E+00  0.00000000E+00
  0.00000000E+00  0.00000000E+00  0.00000000E+00
  0.00000000E+00  0.00000000E+00  0.00000000E+00
  0.00000000E+00  0.00000000E+00  0.00000000E+00
  0.00000000E+00  0.00000000E+00  0.00000000E+00
  0.00000000E+00  0.00000000E+00  0.00000000E+00
  0.00000000E+00  0.00000000E+00  0.00000000E+00
  0.00000000E+00  0.00000000E+00  0.00000000E+00
  0.00000000E+00  0.00000000E+00  0.00000000E+00
  0.00000000E+00  0.00000000E+00  0.00000000E+00
  0.00000000E+00  0.00000000E+00  0.00000000E+00
  0.00000000E+00  0.00000000E+00  0.00000000E+00
  0.00000000E+00  0.00000000E+00  0.00000000E+00
  0.00000000E+00  0.00000000E+00  0.00000000E+00
  0.00000000E+00  0.00000000E+00  0.00000000E+00
  0.00000000E+00  0.00000000E+00  0.00000000E+00
  0.00000000E+00  0.00000000E+00  0.00000000E+00
  0.00000000E+00  0.00000000E+00  0.00000000E+00
  0.00000000E+00  0.00000000E+00  0.00000000E+00
  0.00000000E+00  0.00000000E+00  0.00000000E+00
  0.00000000E+00  0.00000000E+00  0.00000000E+00
  0.00000000E+00  0.00000000E+00  0.00000000E+00
  0.00000000E+00  0.00000000E+00  0.00000000E+00
  0.00000000E+00  0.00000000E+00  0.00000000E+00
  0.00000000E+00  0.00000000E+00  0.00000000E+00
  0.00000000E+00  0.00000000E+00  0.00000000E+00
  0.00000000E+00  0.00000000E+00  0.00000000E+00
  0.00000000E+00  0.00000000E+00  0.00000000E+00
  0.00000000E+00  0.00000000E+00  0.00000000E+00
  0.00000000E+00  0.00000000E+00  0.00000000E+00
  0.00000000E+00  0.00000000E+00  0.00000000E+00
  0.00000000E+00  0.00000000E+00  0.00000000E+00
  0.00000000E+00  0.00000000E+00  0.00000000E+00
  0.00000000E+00  0.00000000E+00  0.00000000E+00
  0.00000000E+00  0.00000000E+00  0.00000000E+00
  0.00000000E+00  0.00000000E+00  0.00000000E+00
  0.00000000E+00  0.00000000E+00  0.00000000E+00
  0.00000000E+00  0.00000000E+00  0.00000000E+00
  0.00000000E+00  0.00000000E+00  0.00000000E+00
  0.00000000E+00  0.00000000E+00  0.00000000E+00
