Ir48 C4 N2 F4                           
    1.000000000000000     
    10.9622135000000007    0.0000000000000000    0.0000000000000000
     0.0000000000000000   10.9622135000000007    0.0000000000000000
     0.0000000000000000    0.0000000000000000   16.7325000400000015
   Ir   C    N    F 
    48     4     2     4
Selective dynamics
Direct
 -0.0008642254567005  0.2495193107329771  0.4094566724603327   T   T   T
  0.0000023548945963  0.5000054258186619  0.4094899060684016   T   T   T
  0.0008672014992135  0.7504777766247472  0.4094556746578271   T   T   T
  0.0000012788158218 -0.0000031914867823  0.4093990444622941   T   T   T
  0.2505685388490967  0.2505665587136410  0.4104208742300364   T   T   T
  0.2507861523069644  0.4998100124583832  0.4105008092336550   T   T   T
  0.2527781314690858  0.7472141609750093  0.4119140402146700   T   T   T
  0.2495194503430336 -0.0008669215280847  0.4094535331945098   T   T   T
  0.4998084248160790  0.2507867256611369  0.4105051299175792   T   T   T
  0.4999982306301123  0.4999983411205963  0.4110203143702539   T   T   T
  0.5001948151529934  0.7492126617926496  0.4105020121521302   T   T   T
  0.5000035794490425  0.0000022822149353  0.4094880820616808   T   T   T
  0.7472116975086351  0.2527799922014000  0.4119199168126247   T   T   T
  0.7492108470176241  0.5001949308985856  0.4105075437745804   T   T   T
  0.7494345013717426  0.7494322832033754  0.4104233418645284   T   T   T
  0.7504776640024585  0.0008635618626517  0.4094547548001995   T   T   T
  0.1247534672658591  0.1247468695045596  0.5211664245567161   T   T   T
  0.1225036710175102  0.3744142713714791  0.5211063173023679   T   T   T
  0.1233422965136722  0.6247175744409738  0.5219786573214521   T   T   T
  0.1249414475645587  0.8750603447690498  0.5212265634716015   T   T   T
  0.3744164600108806  0.1224970708697920  0.5211065679068309   T   T   T
  0.3719968441491295  0.3719955244446450  0.5229515762122900   T   T   T
  0.3742721535693249  0.6257296461780549  0.5315816086624644   T   T   T
  0.3752852832244380  0.8766610990038421  0.5219799495863020   T   T   T
  0.6247155910422253  0.1233376302509784  0.5219806892341250   T   T   T
  0.6257282519795876  0.3742663599284280  0.5315761212878856   T   T   T
  0.6280000565717440  0.6280034626007562  0.5229538616422110   T   T   T
  0.6255830351238769  0.8775011192095302  0.5211045543538956   T   T   T
  0.8750621239425411  0.1249344556307629  0.5212271207986456   T   T   T
  0.8766602542638980  0.3752798601292573  0.5219772349009907   T   T   T
  0.8775016539797483  0.6255865115081378  0.5211061968386420   T   T   T
  0.8752505187768165  0.8752501348879118  0.5211686452774650   T   T   T
  0.1250000002280558  0.1250000002280558  0.2988196616194330   F   F   F
  0.1250000002280558  0.3749999997719442  0.2988196616194330   F   F   F
  0.1250000002280558  0.6249999993158326  0.2988196616194330   F   F   F
  0.1250000002280558  0.8749999988597210  0.2988196616194330   F   F   F
  0.3749999997719442  0.1250000002280558  0.2988196616194330   F   F   F
  0.3749999997719442  0.3749999997719442  0.2988196616194330   F   F   F
  0.3749999997719442  0.6249999993158326  0.2988196616194330   F   F   F
  0.3749999997719442  0.8749999988597210  0.2988196616194330   F   F   F
  0.6249999993158326  0.1250000002280558  0.2988196616194330   F   F   F
  0.6249999993158326  0.3749999997719442  0.2988196616194330   F   F   F
  0.6249999993158326  0.6249999993158326  0.2988196616194330   F   F   F
  0.6249999993158326  0.8749999988597210  0.2988196616194330   F   F   F
  0.8749999988597210  0.1250000002280558  0.2988196616194330   F   F   F
  0.8749999988597210  0.3749999997719442  0.2988196616194330   F   F   F
  0.8749999988597210  0.6249999993158326  0.2988196616194330   F   F   F
  0.8749999988597210  0.8749999988597210  0.2988196616194330   F   F   F
  0.5301499299921431  0.3763587252067586  0.6473928358134782   T   T   T
  0.6236356626303915  0.4698317531929164  0.6473923631934607   T   T   T
  0.4698317102074411  0.6236463201788285  0.6473922995144454   T   T   T
  0.3763468960209280  0.5301616569600006  0.6473930319820188   T   T   T
  0.5935175396319403  0.5934979872889062  0.6424338819546407   T   T   T
  0.4064900706104096  0.4065202393029079  0.6424339860086036   T   T   T
  0.2729515531214879  0.5509612719998667  0.6911313751830047   T   T   T
  0.4490680409672641  0.7270737706328249  0.6911306620544567   T   T   T
  0.5509230999185915  0.2729475187013697  0.6911300440039639   T   T   T
  0.7270373176445089  0.4490598429148168  0.6911369606054053   T   T   T
 
  0.00000000E+00  0.00000000E+00  0.00000000E+00
  0.00000000E+00  0.00000000E+00  0.00000000E+00
  0.00000000E+00  0.00000000E+00  0.00000000E+00
  0.00000000E+00  0.00000000E+00  0.00000000E+00
  0.00000000E+00  0.00000000E+00  0.00000000E+00
  0.00000000E+00  0.00000000E+00  0.00000000E+00
  0.00000000E+00  0.00000000E+00  0.00000000E+00
  0.00000000E+00  0.00000000E+00  0.00000000E+00
  0.00000000E+00  0.00000000E+00  0.00000000E+00
  0.00000000E+00  0.00000000E+00  0.00000000E+00
  0.00000000E+00  0.00000000E+00  0.00000000E+00
  0.00000000E+00  0.00000000E+00  0.00000000E+00
  0.00000000E+00  0.00000000E+00  0.00000000E+00
  0.00000000E+00  0.00000000E+00  0.00000000E+00
  0.00000000E+00  0.00000000E+00  0.00000000E+00
  0.00000000E+00  0.00000000E+00  0.00000000E+00
  0.00000000E+00  0.00000000E+00  0.00000000E+00
  0.00000000E+00  0.00000000E+00  0.00000000E+00
  0.00000000E+00  0.00000000E+00  0.00000000E+00
  0.00000000E+00  0.00000000E+00  0.00000000E+00
  0.00000000E+00  0.00000000E+00  0.00000000E+00
  0.00000000E+00  0.00000000E+00  0.00000000E+00
  0.00000000E+00  0.00000000E+00  0.00000000E+00
  0.00000000E+00  0.00000000E+00  0.00000000E+00
  0.00000000E+00  0.00000000E+00  0.00000000E+00
  0.00000000E+00  0.00000000E+00  0.00000000E+00
  0.00000000E+00  0.00000000E+00  0.00000000E+00
  0.00000000E+00  0.00000000E+00  0.00000000E+00
  0.00000000E+00  0.00000000E+00  0.00000000E+00
  0.00000000E+00  0.00000000E+00  0.00000000E+00
  0.00000000E+00  0.00000000E+00  0.00000000E+00
  0.00000000E+00  0.00000000E+00  0.00000000E+00
  0.00000000E+00  0.00000000E+00  0.00000000E+00
  0.00000000E+00  0.00000000E+00  0.00000000E+00
  0.00000000E+00  0.00000000E+00  0.00000000E+00
  0.00000000E+00  0.00000000E+00  0.00000000E+00
  0.00000000E+00  0.00000000E+00  0.00000000E+00
  0.00000000E+00  0.00000000E+00  0.00000000E+00
  0.00000000E+00  0.00000000E+00  0.00000000E+00
  0.00000000E+00  0.00000000E+00  0.00000000E+00
  0.00000000E+00  0.00000000E+00  0.00000000E+00
  0.00000000E+00  0.00000000E+00  0.00000000E+00
  0.00000000E+00  0.00000000E+00  0.00000000E+00
  0.00000000E+00  0.00000000E+00  0.00000000E+00
  0.00000000E+00  0.00000000E+00  0.00000000E+00
  0.00000000E+00  0.00000000E+00  0.00000000E+00
  0.00000000E+00  0.00000000E+00  0.00000000E+00
  0.00000000E+00  0.00000000E+00  0.00000000E+00
  0.00000000E+00  0.00000000E+00  0.00000000E+00
  0.00000000E+00  0.00000000E+00  0.00000000E+00
  0.00000000E+00  0.00000000E+00  0.00000000E+00
  0.00000000E+00  0.00000000E+00  0.00000000E+00
  0.00000000E+00  0.00000000E+00  0.00000000E+00
  0.00000000E+00  0.00000000E+00  0.00000000E+00
  0.00000000E+00  0.00000000E+00  0.00000000E+00
  0.00000000E+00  0.00000000E+00  0.00000000E+00
  0.00000000E+00  0.00000000E+00  0.00000000E+00
  0.00000000E+00  0.00000000E+00  0.00000000E+00
