H4 Pt48 C6 Cl2                          
    1.000000000000000     
    11.2480069999999994    0.0000000000000000    0.0000000000000000
    -5.6240030000000001    9.7410599999999992    0.0000000000000000
     0.0000000000000000    0.0000000000000000   17.5937739999999998
   H    Pt   C    Cl
     4    48     6     2
Selective dynamics
Direct
  0.4970460627979776  0.3687537049046625  0.7721835894629479   T   T   T
  0.3687671939978046  0.4969671368669069  0.7720974403784595   T   T   T
  0.7529944830784387  0.8811843529530705  0.7721020044563716   T   T   T
  0.8812827684088873  0.7529736704351393  0.7721856151690787   T   T   T
  0.0833330000000032  0.1666669999999968  0.3410300000000035   F   F   F
  0.0833330000000032  0.4166669999999968  0.3410300000000035   F   F   F
  0.0833330000000032  0.6666669999999968  0.3410300000000035   F   F   F
  0.0833330000000032  0.9166669999999968  0.3410300000000035   F   F   F
  0.3333330000000032  0.1666669999999968  0.3410300000000035   F   F   F
  0.3333330000000032  0.4166669999999968  0.3410300000000035   F   F   F
  0.3333330000000032  0.6666669999999968  0.3410300000000035   F   F   F
  0.3333330000000032  0.9166669999999968  0.3410300000000035   F   F   F
  0.5833330000000032  0.1666669999999968  0.3410300000000035   F   F   F
  0.5833330000000032  0.4166669999999968  0.3410300000000035   F   F   F
  0.5833330000000032  0.6666669999999968  0.3410300000000035   F   F   F
  0.5833330000000032  0.9166669999999968  0.3410300000000035   F   F   F
  0.8333330000000032  0.1666669999999968  0.3410300000000035   F   F   F
  0.8333330000000032  0.4166669999999968  0.3410300000000035   F   F   F
  0.8333330000000032  0.6666669999999968  0.3410300000000035   F   F   F
  0.8333330000000032  0.9166669999999968  0.3410300000000035   F   F   F
  0.2495282087854847  0.2496613922446329  0.6068581434337332   T   T   T
  0.2489181973808883  0.4995445727507786  0.6059469318595063   T   T   T
  0.2494922823374637  0.7501102304975760  0.6056550362814548   T   T   T
  0.2498235370176545  0.0001911761718247  0.6066253069430232   T   T   T
  0.4997645588830295  0.2494084803685226  0.6060163188996341   T   T   T
  0.4987960855145701  0.4990095400893395  0.6071365225497729   T   T   T
  0.4993309405857076  0.7506648721107112  0.6032293351477804   T   T   T
  0.4998925627793511  0.0005181057802162  0.6056839483562442   T   T   T
  0.7501589523720966  0.2496717398058124  0.6055638163557617   T   T   T
  0.7504789835673904  0.4995150736244796  0.6030265538201434   T   T   T
  0.7509910069047052  0.7512019121457953  0.6071504233550868   T   T   T
  0.7504509117848173  0.0010820323201628  0.6059931939748964   T   T   T
  0.0000224592838691  0.2499835102545660  0.6064971206546943   T   T   T
  0.0003289984370412  0.4998339577649062  0.6055535276229875   T   T   T
  0.0005866686475358  0.7502383553929164  0.6060056835492560   T   T   T
  0.0003414388943881  0.0004721218850179  0.6068664087167335   T   T   T
  0.1666259165639232  0.0833727942488949  0.4738012251426227   T   T   T
  0.1665178438613069  0.3327383207135099  0.4736785851861640   T   T   T
  0.1672531485845994  0.5836161223116179  0.4731232690217766   T   T   T
  0.1667642040792146  0.8340553550814889  0.4734358134757954   T   T   T
  0.4159642815902060  0.0832383724602153  0.4734521973678056   T   T   T
  0.4160472037311891  0.3326975120006423  0.4739130369620455   T   T   T
  0.4161422265554151  0.5824423220616666  0.4734615315069135   T   T   T
  0.4162167597123769  0.8338004471503240  0.4726169665276458   T   T   T
  0.6663752730217283  0.0827446194525550  0.4731310962366209   T   T   T
  0.6659695877973277  0.3323803335214848  0.4727727266958226   T   T   T
  0.6662392479000090  0.5837590396001886  0.4737214127377527   T   T   T
  0.6675597832635347  0.8338597470873452  0.4734618499396319   T   T   T
  0.9172540795036284  0.0834818192839748  0.4736796473391820   T   T   T
  0.9168884320905306  0.3331103502728823  0.4733082594818612   T   T   T
  0.9176091732179117  0.5840228906591562  0.4727724432092657   T   T   T
  0.9173016441486581  0.8339521672704464  0.4739054451500451   T   T   T
  0.6965192175183788  0.5534304252595703  0.7756744571910161   T   T   T
  0.5530014745046756  0.4808585997828843  0.7724499773972227   T   T   T
  0.4809450295283000  0.5529395964147241  0.7723852149868904   T   T   T
  0.5535431954873076  0.6964911816317993  0.7755793607707417   T   T   T
  0.6970433798307880  0.7690821400826948  0.7723838088488435   T   T   T
  0.7690926945754413  0.6969900715767068  0.7724489126252294   T   T   T
  0.7849700287259225  0.4650497983705151  0.7828675318623297   T   T   T
  0.4650758950741007  0.7849199925202655  0.7826736171325095   T   T   T
 
  0.00000000E+00  0.00000000E+00  0.00000000E+00
  0.00000000E+00  0.00000000E+00  0.00000000E+00
  0.00000000E+00  0.00000000E+00  0.00000000E+00
  0.00000000E+00  0.00000000E+00  0.00000000E+00
  0.00000000E+00  0.00000000E+00  0.00000000E+00
  0.00000000E+00  0.00000000E+00  0.00000000E+00
  0.00000000E+00  0.00000000E+00  0.00000000E+00
  0.00000000E+00  0.00000000E+00  0.00000000E+00
  0.00000000E+00  0.00000000E+00  0.00000000E+00
  0.00000000E+00  0.00000000E+00  0.00000000E+00
  0.00000000E+00  0.00000000E+00  0.00000000E+00
  0.00000000E+00  0.00000000E+00  0.00000000E+00
  0.00000000E+00  0.00000000E+00  0.00000000E+00
  0.00000000E+00  0.00000000E+00  0.00000000E+00
  0.00000000E+00  0.00000000E+00  0.00000000E+00
  0.00000000E+00  0.00000000E+00  0.00000000E+00
  0.00000000E+00  0.00000000E+00  0.00000000E+00
  0.00000000E+00  0.00000000E+00  0.00000000E+00
  0.00000000E+00  0.00000000E+00  0.00000000E+00
  0.00000000E+00  0.00000000E+00  0.00000000E+00
  0.00000000E+00  0.00000000E+00  0.00000000E+00
  0.00000000E+00  0.00000000E+00  0.00000000E+00
  0.00000000E+00  0.00000000E+00  0.00000000E+00
  0.00000000E+00  0.00000000E+00  0.00000000E+00
  0.00000000E+00  0.00000000E+00  0.00000000E+00
  0.00000000E+00  0.00000000E+00  0.00000000E+00
  0.00000000E+00  0.00000000E+00  0.00000000E+00
  0.00000000E+00  0.00000000E+00  0.00000000E+00
  0.00000000E+00  0.00000000E+00  0.00000000E+00
  0.00000000E+00  0.00000000E+00  0.00000000E+00
  0.00000000E+00  0.00000000E+00  0.00000000E+00
  0.00000000E+00  0.00000000E+00  0.00000000E+00
  0.00000000E+00  0.00000000E+00  0.00000000E+00
  0.00000000E+00  0.00000000E+00  0.00000000E+00
  0.00000000E+00  0.00000000E+00  0.00000000E+00
  0.00000000E+00  0.00000000E+00  0.00000000E+00
  0.00000000E+00  0.00000000E+00  0.00000000E+00
  0.00000000E+00  0.00000000E+00  0.00000000E+00
  0.00000000E+00  0.00000000E+00  0.00000000E+00
  0.00000000E+00  0.00000000E+00  0.00000000E+00
  0.00000000E+00  0.00000000E+00  0.00000000E+00
  0.00000000E+00  0.00000000E+00  0.00000000E+00
  0.00000000E+00  0.00000000E+00  0.00000000E+00
  0.00000000E+00  0.00000000E+00  0.00000000E+00
  0.00000000E+00  0.00000000E+00  0.00000000E+00
  0.00000000E+00  0.00000000E+00  0.00000000E+00
  0.00000000E+00  0.00000000E+00  0.00000000E+00
  0.00000000E+00  0.00000000E+00  0.00000000E+00
  0.00000000E+00  0.00000000E+00  0.00000000E+00
  0.00000000E+00  0.00000000E+00  0.00000000E+00
  0.00000000E+00  0.00000000E+00  0.00000000E+00
  0.00000000E+00  0.00000000E+00  0.00000000E+00
  0.00000000E+00  0.00000000E+00  0.00000000E+00
  0.00000000E+00  0.00000000E+00  0.00000000E+00
  0.00000000E+00  0.00000000E+00  0.00000000E+00
  0.00000000E+00  0.00000000E+00  0.00000000E+00
  0.00000000E+00  0.00000000E+00  0.00000000E+00
  0.00000000E+00  0.00000000E+00  0.00000000E+00
  0.00000000E+00  0.00000000E+00  0.00000000E+00
  0.00000000E+00  0.00000000E+00  0.00000000E+00
