Pt  C  H Cl                             
    1.000000000000000     
    11.2480068000000006    0.0000000000000000    0.0000000000000000
     0.0000000000000000   11.2480068000000006    0.0000000000000000
     0.0000000000000000    0.0000000000000000   23.9651564400000012
   Pt   C    H    Cl
    64     6     4     2
Selective dynamics
Direct
  0.2500000008890453  0.0000000000000000  0.3129543518222917   F   F   F
  0.0000000000000000  0.5000000017780906  0.3129543518222917   F   F   F
  0.2500000008890453  0.2500000008890453  0.3129543518222917   F   F   F
  0.2500000008890453  0.5000000017780906  0.3129543518222917   F   F   F
  0.2500000008890453  0.7500000026671358  0.3129543518222917   F   F   F
  0.5000000017780906  0.0000000000000000  0.3129543518222917   F   F   F
  0.5000000017780906  0.2500000008890453  0.3129543518222917   F   F   F
  0.0000000000000000  0.7500000026671358  0.3129543518222917   F   F   F
  0.5000000017780906  0.5000000017780906  0.3129543518222917   F   F   F
  0.5000000017780906  0.7500000026671358  0.3129543518222917   F   F   F
  0.7500000026671358  0.0000000000000000  0.3129543518222917   F   F   F
  0.7500000026671358  0.2500000008890453  0.3129543518222917   F   F   F
  0.7500000026671358  0.5000000017780906  0.3129543518222917   F   F   F
  0.7500000026671358  0.7500000026671358  0.3129543518222917   F   F   F
  0.0000000000000000  0.0000000000000000  0.3129543518222917   F   F   F
  0.0000000000000000  0.2500000008890453  0.3129543518222917   F   F   F
  0.2500221290274811  0.9998198657374731  0.4780669038760689   T   T   T
  0.2500514841126608  0.2500505019581279  0.4779600602359743   T   T   T
  0.2500830188044939  0.5007439369946989  0.4780979369452628   T   T   T
  0.2502610450807302  0.7497322727492299  0.4783662466038299   T   T   T
  0.5000013966881014  0.0000007171711323  0.4780443749905868   T   T   T
  0.5007502414935067  0.2500762798230616  0.4781047836133531   T   T   T
  0.5000066867521504  0.4999947445325670  0.4782954733925277   T   T   T
  0.4992590335952992  0.7499143549451123  0.4781018357927717   T   T   T
  0.7499718865134877  0.0001691559460044  0.4780671000235779   T   T   T
  0.7497352715418922  0.2502603356431519  0.4783721312065201   T   T   T
  0.7499179063998853  0.4992472494775921  0.4781045147960651   T   T   T
  0.7499507479986357  0.7499460998498160  0.4779617671470456   T   T   T
 -0.0000007960904740  0.0000005482476965  0.4779970275188640   T   T   T
  0.9998264264363318  0.2500282651966943  0.4780688146985987   T   T   T
  0.0000028443303708  0.4999996587604291  0.4780403885458863   T   T   T
  0.0001767024728230  0.7499729196568072  0.4780656375658928   T   T   T
  0.1251001395693212  0.1250995637223712  0.5597506254914750   T   T   T
  0.1248028935266122  0.3752098512982329  0.5599578059312846   T   T   T
  0.1246350160503996  0.6248654286802507  0.5600450333181863   T   T   T
  0.1249044623401968  0.8750870942388942  0.5599382478229736   T   T   T
  0.3752039001083947  0.1247816068614846  0.5599634663983659   T   T   T
  0.3749705389259668  0.3749649315177063  0.5590742275537819   T   T   T
  0.3739432145907368  0.6260547005446702  0.5616258320736739   T   T   T
  0.3751331944772100  0.8753649748310830  0.5600471959932852   T   T   T
  0.6248616232781050  0.1246239040486054  0.5600484299237972   T   T   T
  0.6260537411784748  0.3739415883740201  0.5616325458577620   T   T   T
  0.6250296519818799  0.6250247594521284  0.5590804680796015   T   T   T
  0.6247940136423900  0.8751994121422375  0.5599569428995249   T   T   T
  0.8750957843458989  0.1248930698842467  0.5599422209444298   T   T   T
  0.8753739534527818  0.3751277065169105  0.5600505767007427   T   T   T
  0.8752102159949688  0.6247900631790851  0.5599589314990242   T   T   T
  0.8748990818002206  0.8748895512184554  0.5597465291117040   T   T   T
  0.1250000008890453  0.1250000000000000  0.3959242036977884   F   F   F
  0.1250000008890453  0.3750000008890453  0.3959242036977884   F   F   F
  0.1250000008890453  0.6250000026671358  0.3959242036977884   F   F   F
  0.1250000008890453  0.8750000026671358  0.3959242036977884   F   F   F
  0.3750000017780906  0.1250000000000000  0.3959242036977884   F   F   F
  0.3750000017780906  0.3750000008890453  0.3959242036977884   F   F   F
  0.3750000017780906  0.6250000026671358  0.3959242036977884   F   F   F
  0.3750000017780906  0.8750000026671358  0.3959242036977884   F   F   F
  0.6250000026671358  0.1250000000000000  0.3959242036977884   F   F   F
  0.6250000026671358  0.3750000008890453  0.3959242036977884   F   F   F
  0.6250000026671358  0.6250000026671358  0.3959242036977884   F   F   F
  0.6250000026671358  0.8750000026671358  0.3959242036977884   F   F   F
  0.8750000035561882  0.1250000000000000  0.3959242036977884   F   F   F
  0.8750000026671358  0.3750000008890453  0.3959242036977884   F   F   F
  0.8750000035561882  0.6250000026671358  0.3959242036977884   F   F   F
  0.8750000035561882  0.8750000026671358  0.3959242036977884   F   F   F
  0.4123957824225239  0.4124471463159363  0.6836649855222005   T   T   T
  0.3793442367529815  0.5325846128907707  0.6824871699398110   T   T   T
  0.4674148474317701  0.6206449909402686  0.6824961410614450   T   T   T
  0.5875837269709261  0.5875840646262547  0.6836787324239726   T   T   T
  0.6206608299552011  0.4674487694642859  0.6824942407338784   T   T   T
  0.5325777473356925  0.3794189300451201  0.6824888122888552   T   T   T
  0.2857575668192708  0.5573575498622572  0.6835710487913854   T   T   T
  0.4426415597766819  0.7142850770088264  0.6835836153186653   T   T   T
  0.7142307905126540  0.4426643288463356  0.6835839359924458   T   T   T
  0.5573493496836663  0.2857254722947452  0.6835750584412539   T   T   T
  0.3037768215522363  0.3038630662514014  0.6897264432610718   T   T   T
  0.6961577223567537  0.6962515237461860  0.6898166558970209   T   T   T
 
  0.00000000E+00  0.00000000E+00  0.00000000E+00
  0.00000000E+00  0.00000000E+00  0.00000000E+00
  0.00000000E+00  0.00000000E+00  0.00000000E+00
  0.00000000E+00  0.00000000E+00  0.00000000E+00
  0.00000000E+00  0.00000000E+00  0.00000000E+00
  0.00000000E+00  0.00000000E+00  0.00000000E+00
  0.00000000E+00  0.00000000E+00  0.00000000E+00
  0.00000000E+00  0.00000000E+00  0.00000000E+00
  0.00000000E+00  0.00000000E+00  0.00000000E+00
  0.00000000E+00  0.00000000E+00  0.00000000E+00
  0.00000000E+00  0.00000000E+00  0.00000000E+00
  0.00000000E+00  0.00000000E+00  0.00000000E+00
  0.00000000E+00  0.00000000E+00  0.00000000E+00
  0.00000000E+00  0.00000000E+00  0.00000000E+00
  0.00000000E+00  0.00000000E+00  0.00000000E+00
  0.00000000E+00  0.00000000E+00  0.00000000E+00
  0.00000000E+00  0.00000000E+00  0.00000000E+00
  0.00000000E+00  0.00000000E+00  0.00000000E+00
  0.00000000E+00  0.00000000E+00  0.00000000E+00
  0.00000000E+00  0.00000000E+00  0.00000000E+00
  0.00000000E+00  0.00000000E+00  0.00000000E+00
  0.00000000E+00  0.00000000E+00  0.00000000E+00
  0.00000000E+00  0.00000000E+00  0.00000000E+00
  0.00000000E+00  0.00000000E+00  0.00000000E+00
  0.00000000E+00  0.00000000E+00  0.00000000E+00
  0.00000000E+00  0.00000000E+00  0.00000000E+00
  0.00000000E+00  0.00000000E+00  0.00000000E+00
  0.00000000E+00  0.00000000E+00  0.00000000E+00
  0.00000000E+00  0.00000000E+00  0.00000000E+00
  0.00000000E+00  0.00000000E+00  0.00000000E+00
  0.00000000E+00  0.00000000E+00  0.00000000E+00
  0.00000000E+00  0.00000000E+00  0.00000000E+00
  0.00000000E+00  0.00000000E+00  0.00000000E+00
  0.00000000E+00  0.00000000E+00  0.00000000E+00
  0.00000000E+00  0.00000000E+00  0.00000000E+00
  0.00000000E+00  0.00000000E+00  0.00000000E+00
  0.00000000E+00  0.00000000E+00  0.00000000E+00
  0.00000000E+00  0.00000000E+00  0.00000000E+00
  0.00000000E+00  0.00000000E+00  0.00000000E+00
  0.00000000E+00  0.00000000E+00  0.00000000E+00
  0.00000000E+00  0.00000000E+00  0.00000000E+00
  0.00000000E+00  0.00000000E+00  0.00000000E+00
  0.00000000E+00  0.00000000E+00  0.00000000E+00
  0.00000000E+00  0.00000000E+00  0.00000000E+00
  0.00000000E+00  0.00000000E+00  0.00000000E+00
  0.00000000E+00  0.00000000E+00  0.00000000E+00
  0.00000000E+00  0.00000000E+00  0.00000000E+00
  0.00000000E+00  0.00000000E+00  0.00000000E+00
  0.00000000E+00  0.00000000E+00  0.00000000E+00
  0.00000000E+00  0.00000000E+00  0.00000000E+00
  0.00000000E+00  0.00000000E+00  0.00000000E+00
  0.00000000E+00  0.00000000E+00  0.00000000E+00
  0.00000000E+00  0.00000000E+00  0.00000000E+00
  0.00000000E+00  0.00000000E+00  0.00000000E+00
  0.00000000E+00  0.00000000E+00  0.00000000E+00
  0.00000000E+00  0.00000000E+00  0.00000000E+00
  0.00000000E+00  0.00000000E+00  0.00000000E+00
  0.00000000E+00  0.00000000E+00  0.00000000E+00
  0.00000000E+00  0.00000000E+00  0.00000000E+00
  0.00000000E+00  0.00000000E+00  0.00000000E+00
  0.00000000E+00  0.00000000E+00  0.00000000E+00
  0.00000000E+00  0.00000000E+00  0.00000000E+00
  0.00000000E+00  0.00000000E+00  0.00000000E+00
  0.00000000E+00  0.00000000E+00  0.00000000E+00
  0.00000000E+00  0.00000000E+00  0.00000000E+00
  0.00000000E+00  0.00000000E+00  0.00000000E+00
  0.00000000E+00  0.00000000E+00  0.00000000E+00
  0.00000000E+00  0.00000000E+00  0.00000000E+00
  0.00000000E+00  0.00000000E+00  0.00000000E+00
  0.00000000E+00  0.00000000E+00  0.00000000E+00
  0.00000000E+00  0.00000000E+00  0.00000000E+00
  0.00000000E+00  0.00000000E+00  0.00000000E+00
  0.00000000E+00  0.00000000E+00  0.00000000E+00
  0.00000000E+00  0.00000000E+00  0.00000000E+00
  0.00000000E+00  0.00000000E+00  0.00000000E+00
  0.00000000E+00  0.00000000E+00  0.00000000E+00
