Au  C  H Br                             
    1.000000000000000     
    11.7981856999999994    0.0000000000000000    0.0000000000000000
     0.0000000000000000   11.7981856999999994    0.0000000000000000
     0.0000000000000000    0.0000000000000000   24.2569328400000011
   Au   C    H    Br
    64     6     4     2
Selective dynamics
Direct
  0.2500000004237961  0.0000000000000000  0.3091899561032889   F   F   F
  0.0000000000000000  0.5000000008475851  0.3091899561032889   F   F   F
  0.2500000004237961  0.2500000004237961  0.3091899561032889   F   F   F
  0.2500000004237961  0.5000000008475851  0.3091899561032889   F   F   F
  0.2500000004237961  0.7500000012713812  0.3091899561032889   F   F   F
  0.5000000008475851  0.0000000000000000  0.3091899561032889   F   F   F
  0.5000000008475851  0.2500000004237961  0.3091899561032889   F   F   F
  0.0000000000000000  0.7500000012713812  0.3091899561032889   F   F   F
  0.5000000008475851  0.5000000008475851  0.3091899561032889   F   F   F
  0.5000000008475851  0.7500000012713812  0.3091899561032889   F   F   F
  0.7500000012713812  0.0000000000000000  0.3091899561032889   F   F   F
  0.7500000012713812  0.2500000004237961  0.3091899561032889   F   F   F
  0.7500000012713812  0.5000000008475851  0.3091899561032889   F   F   F
  0.7500000012713812  0.7500000012713812  0.3091899561032889   F   F   F
  0.0000000000000000  0.0000000000000000  0.3091899561032889   F   F   F
  0.0000000000000000  0.2500000004237961  0.3091899561032889   F   F   F
  0.2493958823693551  0.9990649925587941  0.4806846342112691   T   T   T
  0.2491126187871361  0.2491135159848073  0.4805312047350292   T   T   T
  0.2489328923816521  0.5003482092211035  0.4806592275635473   T   T   T
  0.2493172297072055  0.7506802291159447  0.4807527362220048   T   T   T
  0.4999984637514291 -0.0000013054944844  0.4812450608287864   T   T   T
  0.5003488602507237  0.2489364523453149  0.4806612633953735   T   T   T
  0.4999992701121054  0.4999972102198301  0.4804159166487745   T   T   T
  0.4996497269858744  0.7510642587935830  0.4806593935718298   T   T   T
  0.7506006482286963  0.0009330025614196  0.4806846354562646   T   T   T
  0.7506791329059316  0.2493163398530782  0.4807518541047215   T   T   T
  0.7510641076172087  0.4996524329659318  0.4806578314767727   T   T   T
  0.7508834885257207  0.7508842054723579  0.4805311358931398   T   T   T
 -0.0000018397049951 -0.0000009835422988  0.4810423087066823   T   T   T
  0.9990642292301625  0.2493967685861299  0.4806846490225231   T   T   T
 -0.0000020143730648  0.4999991239066399  0.4812449119548091   T   T   T
  0.0009321148741396  0.7506013867942505  0.4806847177277030   T   T   T
  0.1247101689176788  0.1247111769261165  0.5667099720682520   T   T   T
  0.1246177800916942  0.3753227722492356  0.5666652779108454   T   T   T
  0.1253866071128963  0.6263921042702242  0.5679522879564932   T   T   T
  0.1249770499957347  0.8750207379718132  0.5680378915724188   T   T   T
  0.3753222638515720  0.1246198954700454  0.5666653368176664   T   T   T
  0.3750161830086526  0.3750108751297452  0.5645511112865568   T   T   T
  0.3744474299066801  0.6255506769992982  0.5666572552175133   T   T   T
  0.3736057768545327  0.8746111085429271  0.5679522883242857   T   T   T
  0.6263914297838312  0.1253890062433395  0.5679521640021545   T   T   T
  0.6255926105572895  0.3744577486175855  0.5666610694827517   T   T   T
  0.6249869451118024  0.6249887669740305  0.5645522305208548   T   T   T
  0.6246751269054082  0.8753786334424210  0.5666654294075301   T   T   T
  0.8750200325351518  0.1249775893968219  0.5680379373775616   T   T   T
  0.8746159784892450  0.3736065056003217  0.5679529558633956   T   T   T
  0.8753783116154261  0.6246758985961265  0.5666653962543199   T   T   T
  0.8752866991664904  0.8752874077699555  0.5667101812541824   T   T   T
  0.1249999997881019  0.1250000006356942  0.3951713245539921   F   F   F
  0.1250000006356942  0.3750000010594832  0.3951713245539921   F   F   F
  0.1250000006356942  0.6250000006356942  0.3951713245539921   F   F   F
  0.1250000006356942  0.8750000019070754  0.3951713245539921   F   F   F
  0.3750000010594832  0.1250000006356942  0.3951713245539921   F   F   F
  0.3750000010594832  0.3750000010594832  0.3951713245539921   F   F   F
  0.3750000010594832  0.6250000006356942  0.3951713245539921   F   F   F
  0.3750000010594832  0.8750000019070754  0.3951713245539921   F   F   F
  0.6250000006356942  0.1250000006356942  0.3951713245539921   F   F   F
  0.6250000014832793  0.3750000010594832  0.3951713245539921   F   F   F
  0.6250000014832793  0.6250000006356942  0.3951713245539921   F   F   F
  0.6250000014832793  0.8750000019070754  0.3951713245539921   F   F   F
  0.8750000019070754  0.1250000006356942  0.3951713245539921   F   F   F
  0.8750000019070754  0.3750000010594832  0.3951713245539921   F   F   F
  0.8750000019070754  0.6250000006356942  0.3951713245539921   F   F   F
  0.8750000019070754  0.8750000019070754  0.3951713245539921   F   F   F
  0.4170069781522048  0.4170346676872386  0.6957559951153001   T   T   T
  0.3850794967223068  0.5310459615999027  0.6946931526417500   T   T   T
  0.4689970185106908  0.6148721328051130  0.6946792030007684   T   T   T
  0.5829585022539069  0.5829298099179705  0.6957365309955328   T   T   T
  0.6148756814103559  0.4689326372027220  0.6946860158299886   T   T   T
  0.5309776412035924  0.3850839024753816  0.6946890780401690   T   T   T
  0.2958914165377425  0.5549250597703549  0.6933128134591612   T   T   T
  0.4451945149077031  0.7041052982779633  0.6933004216959612   T   T   T
  0.7040664177435663  0.4450530247637955  0.6933015320102693   T   T   T
  0.5547578704809241  0.2958603581519023  0.6933055759032954   T   T   T
  0.3027472781129777  0.3026330297780673  0.6970683375122851   T   T   T
  0.6972541085588695  0.6973302267216750  0.6970144235981827   T   T   T
 
  0.00000000E+00  0.00000000E+00  0.00000000E+00
  0.00000000E+00  0.00000000E+00  0.00000000E+00
  0.00000000E+00  0.00000000E+00  0.00000000E+00
  0.00000000E+00  0.00000000E+00  0.00000000E+00
  0.00000000E+00  0.00000000E+00  0.00000000E+00
  0.00000000E+00  0.00000000E+00  0.00000000E+00
  0.00000000E+00  0.00000000E+00  0.00000000E+00
  0.00000000E+00  0.00000000E+00  0.00000000E+00
  0.00000000E+00  0.00000000E+00  0.00000000E+00
  0.00000000E+00  0.00000000E+00  0.00000000E+00
  0.00000000E+00  0.00000000E+00  0.00000000E+00
  0.00000000E+00  0.00000000E+00  0.00000000E+00
  0.00000000E+00  0.00000000E+00  0.00000000E+00
  0.00000000E+00  0.00000000E+00  0.00000000E+00
  0.00000000E+00  0.00000000E+00  0.00000000E+00
  0.00000000E+00  0.00000000E+00  0.00000000E+00
  0.00000000E+00  0.00000000E+00  0.00000000E+00
  0.00000000E+00  0.00000000E+00  0.00000000E+00
  0.00000000E+00  0.00000000E+00  0.00000000E+00
  0.00000000E+00  0.00000000E+00  0.00000000E+00
  0.00000000E+00  0.00000000E+00  0.00000000E+00
  0.00000000E+00  0.00000000E+00  0.00000000E+00
  0.00000000E+00  0.00000000E+00  0.00000000E+00
  0.00000000E+00  0.00000000E+00  0.00000000E+00
  0.00000000E+00  0.00000000E+00  0.00000000E+00
  0.00000000E+00  0.00000000E+00  0.00000000E+00
  0.00000000E+00  0.00000000E+00  0.00000000E+00
  0.00000000E+00  0.00000000E+00  0.00000000E+00
  0.00000000E+00  0.00000000E+00  0.00000000E+00
  0.00000000E+00  0.00000000E+00  0.00000000E+00
  0.00000000E+00  0.00000000E+00  0.00000000E+00
  0.00000000E+00  0.00000000E+00  0.00000000E+00
  0.00000000E+00  0.00000000E+00  0.00000000E+00
  0.00000000E+00  0.00000000E+00  0.00000000E+00
  0.00000000E+00  0.00000000E+00  0.00000000E+00
  0.00000000E+00  0.00000000E+00  0.00000000E+00
  0.00000000E+00  0.00000000E+00  0.00000000E+00
  0.00000000E+00  0.00000000E+00  0.00000000E+00
  0.00000000E+00  0.00000000E+00  0.00000000E+00
  0.00000000E+00  0.00000000E+00  0.00000000E+00
  0.00000000E+00  0.00000000E+00  0.00000000E+00
  0.00000000E+00  0.00000000E+00  0.00000000E+00
  0.00000000E+00  0.00000000E+00  0.00000000E+00
  0.00000000E+00  0.00000000E+00  0.00000000E+00
  0.00000000E+00  0.00000000E+00  0.00000000E+00
  0.00000000E+00  0.00000000E+00  0.00000000E+00
  0.00000000E+00  0.00000000E+00  0.00000000E+00
  0.00000000E+00  0.00000000E+00  0.00000000E+00
  0.00000000E+00  0.00000000E+00  0.00000000E+00
  0.00000000E+00  0.00000000E+00  0.00000000E+00
  0.00000000E+00  0.00000000E+00  0.00000000E+00
  0.00000000E+00  0.00000000E+00  0.00000000E+00
  0.00000000E+00  0.00000000E+00  0.00000000E+00
  0.00000000E+00  0.00000000E+00  0.00000000E+00
  0.00000000E+00  0.00000000E+00  0.00000000E+00
  0.00000000E+00  0.00000000E+00  0.00000000E+00
  0.00000000E+00  0.00000000E+00  0.00000000E+00
  0.00000000E+00  0.00000000E+00  0.00000000E+00
  0.00000000E+00  0.00000000E+00  0.00000000E+00
  0.00000000E+00  0.00000000E+00  0.00000000E+00
  0.00000000E+00  0.00000000E+00  0.00000000E+00
  0.00000000E+00  0.00000000E+00  0.00000000E+00
  0.00000000E+00  0.00000000E+00  0.00000000E+00
  0.00000000E+00  0.00000000E+00  0.00000000E+00
  0.00000000E+00  0.00000000E+00  0.00000000E+00
  0.00000000E+00  0.00000000E+00  0.00000000E+00
  0.00000000E+00  0.00000000E+00  0.00000000E+00
  0.00000000E+00  0.00000000E+00  0.00000000E+00
  0.00000000E+00  0.00000000E+00  0.00000000E+00
  0.00000000E+00  0.00000000E+00  0.00000000E+00
  0.00000000E+00  0.00000000E+00  0.00000000E+00
  0.00000000E+00  0.00000000E+00  0.00000000E+00
  0.00000000E+00  0.00000000E+00  0.00000000E+00
  0.00000000E+00  0.00000000E+00  0.00000000E+00
  0.00000000E+00  0.00000000E+00  0.00000000E+00
  0.00000000E+00  0.00000000E+00  0.00000000E+00
