Cu  C  F                                
   1.00000000000000     
    10.2424769999999992    0.0000000000000000    0.0000000000000000
    -5.1212390000000001    8.8702459999999999    0.0000000000000000
     0.0000000000000000    0.0000000000000000   24.2722108799999958
   Cu   C    F 
    64     6     6
Selective dynamics
Direct
  0.7500000436217675  0.9999999661790682  0.3089953377992387   F   F   F
  0.0000000023248248  0.2499999909810811  0.3089953377992387   F   F   F
  0.0000000042370090  0.4999999830895305  0.3089953377992387   F   F   F
  0.0000000055855054  0.7499999740706187  0.3089953377992387   F   F   F
  0.0000000084740179  0.9999999661790682  0.3089953377992387   F   F   F
  0.2500000140407437  0.2499999909810811  0.3089953377992387   F   F   F
  0.2500000159529208  0.4999999830895305  0.3089953377992387   F   F   F
  0.2500000173014243  0.7499999740706187  0.3089953377992387   F   F   F
  0.5000000257566555  0.2499999909810811  0.3089953377992387   F   F   F
  0.5000000276688397  0.4999999830895305  0.3089953377992387   F   F   F
  0.5000000290173432  0.7499999740706187  0.3089953377992387   F   F   F
  0.5000000319058486  0.9999999661790682  0.3089953377992387   F   F   F
  0.7500000374725744  0.2499999909810811  0.3089953377992387   F   F   F
  0.7500000393847586  0.4999999830895305  0.3089953377992387   F   F   F
  0.7500000417095833  0.7499999740706187  0.3089953377992387   F   F   F
  0.2500000201899297  0.9999999661790682  0.3089953377992387   F   F   F
  0.0833330000000032  0.1666669999999968  0.3951324008931820   F   F   F
  0.0833330000000032  0.4166669999999968  0.3951324008931820   F   F   F
  0.0833330000000032  0.6666669999999968  0.3951324008931820   F   F   F
  0.0833330000000032  0.9166669999999968  0.3951324008931820   F   F   F
  0.3333330000000032  0.1666669999999968  0.3951324008931820   F   F   F
  0.3333330000000032  0.4166669999999968  0.3951324008931820   F   F   F
  0.3333330000000032  0.6666669999999968  0.3951324008931820   F   F   F
  0.3333330000000032  0.9166669999999968  0.3951324008931820   F   F   F
  0.5833330000000032  0.1666669999999968  0.3951324008931820   F   F   F
  0.5833330000000032  0.4166669999999968  0.3951324008931820   F   F   F
  0.5833330000000032  0.6666669999999968  0.3951324008931820   F   F   F
  0.5833330000000032  0.9166669999999968  0.3951324008931820   F   F   F
  0.8333330000000032  0.1666669999999968  0.3951324008931820   F   F   F
  0.8333330000000032  0.4166669999999968  0.3951324008931820   F   F   F
  0.8333330000000032  0.6666669999999968  0.3951324008931820   F   F   F
  0.8333330000000032  0.9166669999999968  0.3951324008931820   F   F   F
  0.9997953319493187  0.9998117918227075  0.5647305464104925   T   T   T
  0.9998178225370583  0.2499096621199660  0.5647442093987474   T   T   T
  0.0000890168957380  0.4999451919282232  0.5647971462296402   T   T   T
  0.0000331750385909  0.7499361486466541  0.5647816116692184   T   T   T
  0.2498878670922204  0.9998443826061558  0.5647497600365418   T   T   T
  0.2497342286506922  0.2498157423942198  0.5640721093227200   T   T   T
  0.2500989745982793  0.4998511954430918  0.5639428389923287   T   T   T
  0.2500213750338787  0.7498669342761516  0.5648245586825620   T   T   T
  0.4998818826347846  0.0001236432305912  0.5648399567220047   T   T   T
  0.4997902379872536  0.2501847801811758  0.5639585912060344   T   T   T
  0.5001391449439544  0.5002134861173855  0.5640711546141349   T   T   T
  0.5000664425333433  0.7501462339687006  0.5647468572707085   T   T   T
  0.7499130188673142  0.0000722463355353  0.5648016221929759   T   T   T
  0.7498637994034089  0.2500997143505403  0.5648455261047975   T   T   T
  0.7501240640958313  0.5000699213170975  0.5647458224279246   T   T   T
  0.7501136784197728  0.7501313496352953  0.5647526709843566   T   T   T
  0.1664714213177818  0.0829111934696015  0.4798351432332658   T   T   T
  0.1663615827259638  0.3331152648408667  0.4797013006076928   T   T   T
  0.1664837410154325  0.5834933528973013  0.4798250204592656   T   T   T
  0.1665646187124218  0.8331818290874941  0.4799779730731398   T   T   T
  0.4164603820884322  0.0829745285021301  0.4798356398734679   T   T   T
  0.4165865997635306  0.3333414610827647  0.4795613668173761   T   T   T
  0.4168440465278458  0.5836257741294466  0.4796722040090940   T   T   T
  0.4166390525531351  0.8333107173027003  0.4799871242612540   T   T   T
  0.6665877797197851  0.0833718370385494  0.4800174094717489   T   T   T
  0.6669614587557213  0.3334760587106390  0.4798517078094979   T   T   T
  0.6670741089848146  0.5835189151950605  0.4798373377053805   T   T   T
  0.6667287965956739  0.8334233553713520  0.4799764354634474   T   T   T
  0.9165599481230869  0.0832450791925768  0.4799692849448599   T   T   T
  0.9166824570112184  0.3333521213137475  0.4799864558763460   T   T   T
  0.9167805239979948  0.5833868382458377  0.4799687792512016   T   T   T
  0.9166838493481012  0.8333047554627530  0.4799525166212636   T   T   T
  0.2964386257078738  0.2176471769042826  0.6908201923528826   T   T   T
  0.2176611979567140  0.2964104739809994  0.6908075677020060   T   T   T
  0.2964629845103134  0.4538104159886969  0.6910238105694220   T   T   T
  0.4538661094905779  0.5325844005930828  0.6908011708799091   T   T   T
  0.5326100969919795  0.4538663291832470  0.6908092075337896   T   T   T
  0.4538486421691694  0.2964561596739681  0.6910413318535334   T   T   T
  0.2206749956852231  0.0657737617249421  0.6911313669684689   T   T   T
  0.0657987595628356  0.2206462237752499  0.6911307381592902   T   T   T
  0.2204363865016898  0.5295457887660889  0.6913910188686677   T   T   T
  0.5293931762232786  0.6843009969866862  0.6911225140800190   T   T   T
  0.6843230866686235  0.5294060003097941  0.6911258546007480   T   T   T
  0.5295903113560758  0.2204353516511912  0.6914171802217740   T   T   T
 
  0.00000000E+00  0.00000000E+00  0.00000000E+00
  0.00000000E+00  0.00000000E+00  0.00000000E+00
  0.00000000E+00  0.00000000E+00  0.00000000E+00
  0.00000000E+00  0.00000000E+00  0.00000000E+00
  0.00000000E+00  0.00000000E+00  0.00000000E+00
  0.00000000E+00  0.00000000E+00  0.00000000E+00
  0.00000000E+00  0.00000000E+00  0.00000000E+00
  0.00000000E+00  0.00000000E+00  0.00000000E+00
  0.00000000E+00  0.00000000E+00  0.00000000E+00
  0.00000000E+00  0.00000000E+00  0.00000000E+00
  0.00000000E+00  0.00000000E+00  0.00000000E+00
  0.00000000E+00  0.00000000E+00  0.00000000E+00
  0.00000000E+00  0.00000000E+00  0.00000000E+00
  0.00000000E+00  0.00000000E+00  0.00000000E+00
  0.00000000E+00  0.00000000E+00  0.00000000E+00
  0.00000000E+00  0.00000000E+00  0.00000000E+00
  0.00000000E+00  0.00000000E+00  0.00000000E+00
  0.00000000E+00  0.00000000E+00  0.00000000E+00
  0.00000000E+00  0.00000000E+00  0.00000000E+00
  0.00000000E+00  0.00000000E+00  0.00000000E+00
  0.00000000E+00  0.00000000E+00  0.00000000E+00
  0.00000000E+00  0.00000000E+00  0.00000000E+00
  0.00000000E+00  0.00000000E+00  0.00000000E+00
  0.00000000E+00  0.00000000E+00  0.00000000E+00
  0.00000000E+00  0.00000000E+00  0.00000000E+00
  0.00000000E+00  0.00000000E+00  0.00000000E+00
  0.00000000E+00  0.00000000E+00  0.00000000E+00
  0.00000000E+00  0.00000000E+00  0.00000000E+00
  0.00000000E+00  0.00000000E+00  0.00000000E+00
  0.00000000E+00  0.00000000E+00  0.00000000E+00
  0.00000000E+00  0.00000000E+00  0.00000000E+00
  0.00000000E+00  0.00000000E+00  0.00000000E+00
  0.00000000E+00  0.00000000E+00  0.00000000E+00
  0.00000000E+00  0.00000000E+00  0.00000000E+00
  0.00000000E+00  0.00000000E+00  0.00000000E+00
  0.00000000E+00  0.00000000E+00  0.00000000E+00
  0.00000000E+00  0.00000000E+00  0.00000000E+00
  0.00000000E+00  0.00000000E+00  0.00000000E+00
  0.00000000E+00  0.00000000E+00  0.00000000E+00
  0.00000000E+00  0.00000000E+00  0.00000000E+00
  0.00000000E+00  0.00000000E+00  0.00000000E+00
  0.00000000E+00  0.00000000E+00  0.00000000E+00
  0.00000000E+00  0.00000000E+00  0.00000000E+00
  0.00000000E+00  0.00000000E+00  0.00000000E+00
  0.00000000E+00  0.00000000E+00  0.00000000E+00
  0.00000000E+00  0.00000000E+00  0.00000000E+00
  0.00000000E+00  0.00000000E+00  0.00000000E+00
  0.00000000E+00  0.00000000E+00  0.00000000E+00
  0.00000000E+00  0.00000000E+00  0.00000000E+00
  0.00000000E+00  0.00000000E+00  0.00000000E+00
  0.00000000E+00  0.00000000E+00  0.00000000E+00
  0.00000000E+00  0.00000000E+00  0.00000000E+00
  0.00000000E+00  0.00000000E+00  0.00000000E+00
  0.00000000E+00  0.00000000E+00  0.00000000E+00
  0.00000000E+00  0.00000000E+00  0.00000000E+00
  0.00000000E+00  0.00000000E+00  0.00000000E+00
  0.00000000E+00  0.00000000E+00  0.00000000E+00
  0.00000000E+00  0.00000000E+00  0.00000000E+00
  0.00000000E+00  0.00000000E+00  0.00000000E+00
  0.00000000E+00  0.00000000E+00  0.00000000E+00
  0.00000000E+00  0.00000000E+00  0.00000000E+00
  0.00000000E+00  0.00000000E+00  0.00000000E+00
  0.00000000E+00  0.00000000E+00  0.00000000E+00
  0.00000000E+00  0.00000000E+00  0.00000000E+00
  0.00000000E+00  0.00000000E+00  0.00000000E+00
  0.00000000E+00  0.00000000E+00  0.00000000E+00
  0.00000000E+00  0.00000000E+00  0.00000000E+00
  0.00000000E+00  0.00000000E+00  0.00000000E+00
  0.00000000E+00  0.00000000E+00  0.00000000E+00
  0.00000000E+00  0.00000000E+00  0.00000000E+00
  0.00000000E+00  0.00000000E+00  0.00000000E+00
  0.00000000E+00  0.00000000E+00  0.00000000E+00
  0.00000000E+00  0.00000000E+00  0.00000000E+00
  0.00000000E+00  0.00000000E+00  0.00000000E+00
  0.00000000E+00  0.00000000E+00  0.00000000E+00
  0.00000000E+00  0.00000000E+00  0.00000000E+00
