Cu48 H4 C6 Br2                          
    1.000000000000000     
    10.2424769999999992    0.0000000000000000    0.0000000000000000
    -5.1212390000000001    8.8702459999999999    0.0000000000000000
     0.0000000000000000    0.0000000000000000   17.1847619999999992
   Cu   H    C    Br
    48     4     6     2
Selective dynamics
Direct
  0.0833330000000032  0.1666669999999968  0.3491470000000021   F   F   F
  0.0833330000000032  0.4166669999999968  0.3491470000000021   F   F   F
  0.0833330000000032  0.6666669999999968  0.3491470000000021   F   F   F
  0.0833330000000032  0.9166669999999968  0.3491470000000021   F   F   F
  0.3333330000000032  0.1666669999999968  0.3491470000000021   F   F   F
  0.3333330000000032  0.4166669999999968  0.3491470000000021   F   F   F
  0.3333330000000032  0.6666669999999968  0.3491470000000021   F   F   F
  0.3333330000000032  0.9166669999999968  0.3491470000000021   F   F   F
  0.5833330000000032  0.1666669999999968  0.3491470000000021   F   F   F
  0.5833330000000032  0.4166669999999968  0.3491470000000021   F   F   F
  0.5833330000000032  0.6666669999999968  0.3491470000000021   F   F   F
  0.5833330000000032  0.9166669999999968  0.3491470000000021   F   F   F
  0.8333330000000032  0.1666669999999968  0.3491470000000021   F   F   F
  0.8333330000000032  0.4166669999999968  0.3491470000000021   F   F   F
  0.8333330000000032  0.6666669999999968  0.3491470000000021   F   F   F
  0.8333330000000032  0.9166669999999968  0.3491470000000021   F   F   F
  0.9996256633006766  0.9997170080814115  0.5882328706655358   T   T   T
  0.9995190560583822  0.2494570686502158  0.5882612389243960   T   T   T
  0.9999458060530984  0.4997465648927815  0.5885167502710118   T   T   T
  0.0000702106717370  0.7499318418061804  0.5883919253783105   T   T   T
  0.2494612532623748  0.9996648971969577  0.5882525273139478   T   T   T
  0.2491001255026646  0.2492063330244960  0.5889608965941946   T   T   T
  0.2503641627226187  0.4996368976862371  0.5877703841906197   T   T   T
  0.2502578358222110  0.7500567214997602  0.5885121292686790   T   T   T
  0.4996607404174540  0.9999936390801736  0.5886575828276364   T   T   T
  0.4996126689005109  0.2503843612325625  0.5878835061702148   T   T   T
  0.5007966420487762  0.5009036484873519  0.5889582783512139   T   T   T
  0.5005404402612328  0.7504811556754447  0.5882569393702113   T   T   T
  0.7498471514045164  0.0001496308002373  0.5884766975766738   T   T   T
  0.7500039842095561  0.2503378901264099  0.5886599307003451   T   T   T
  0.7503322302847479  0.5005386572113153  0.5882557043436734   T   T   T
  0.7502801144873956  0.7503729373776196  0.5882319035729395   T   T   T
  0.1667026823420557  0.0834681115682372  0.4688204965790419   T   T   T
  0.1666424053506219  0.3330459381738606  0.4689140447374953   T   T   T
  0.1667798656587465  0.5832301458228883  0.4687255932647005   T   T   T
  0.1666577776275489  0.8331251190329851  0.4687576775924498   T   T   T
  0.4165593103498324  0.0833207668027143  0.4688311929690840   T   T   T
  0.4164435656054977  0.3335460971384876  0.4692250102368334   T   T   T
  0.4169519043966687  0.5833631543650952  0.4689091735900206   T   T   T
  0.4166298652527729  0.8333451427306571  0.4688359351244245   T   T   T
  0.6664451047950237  0.0835360918283286  0.4689532536723888   T   T   T
  0.6666591457638376  0.3334238377513259  0.4688559419902276   T   T   T
  0.6665330000057423  0.5833046695535629  0.4688302009283802   T   T   T
  0.6668504490179714  0.8335469212737152  0.4686631409921702   T   T   T
  0.9164574227144371  0.0831395478520207  0.4686739271004541   T   T   T
  0.9166651510222010  0.3333706685844220  0.4688712437121012   T   T   T
  0.9168881608840422  0.5833639789345995  0.4687803150782131   T   T   T
  0.9167463836780172  0.8332570075898502  0.4686453146850269   T   T   T
  0.5160485065769436  0.6564485987688116  0.7652238785476868   T   T   T
  0.6564653304173191  0.5159963933345466  0.7652850393856312   T   T   T
  0.2339814961123707  0.0935083977801483  0.7652942932441391   T   T   T
  0.0935758350643567  0.2339722070069783  0.7652303181670490   T   T   T
  0.2969621343820634  0.4530165578491534  0.7672004115381270   T   T   T
  0.4544194847697511  0.5333253081623468  0.7658574423233020   T   T   T
  0.5333901385850837  0.4543824027720262  0.7658977324877938   T   T   T
  0.4530787132834817  0.2969391419992178  0.7672785835203229   T   T   T
  0.2956123507576507  0.2166288970689862  0.7659010861462008   T   T   T
  0.2166559705863165  0.2955861286693349  0.7658593812773304   T   T   T
  0.1895871773516191  0.5604076262798188  0.7670911579316737   T   T   T
  0.5604558322966398  0.1895531176355405  0.7672597545418611   T   T   T
 
  0.00000000E+00  0.00000000E+00  0.00000000E+00
  0.00000000E+00  0.00000000E+00  0.00000000E+00
  0.00000000E+00  0.00000000E+00  0.00000000E+00
  0.00000000E+00  0.00000000E+00  0.00000000E+00
  0.00000000E+00  0.00000000E+00  0.00000000E+00
  0.00000000E+00  0.00000000E+00  0.00000000E+00
  0.00000000E+00  0.00000000E+00  0.00000000E+00
  0.00000000E+00  0.00000000E+00  0.00000000E+00
  0.00000000E+00  0.00000000E+00  0.00000000E+00
  0.00000000E+00  0.00000000E+00  0.00000000E+00
  0.00000000E+00  0.00000000E+00  0.00000000E+00
  0.00000000E+00  0.00000000E+00  0.00000000E+00
  0.00000000E+00  0.00000000E+00  0.00000000E+00
  0.00000000E+00  0.00000000E+00  0.00000000E+00
  0.00000000E+00  0.00000000E+00  0.00000000E+00
  0.00000000E+00  0.00000000E+00  0.00000000E+00
  0.00000000E+00  0.00000000E+00  0.00000000E+00
  0.00000000E+00  0.00000000E+00  0.00000000E+00
  0.00000000E+00  0.00000000E+00  0.00000000E+00
  0.00000000E+00  0.00000000E+00  0.00000000E+00
  0.00000000E+00  0.00000000E+00  0.00000000E+00
  0.00000000E+00  0.00000000E+00  0.00000000E+00
  0.00000000E+00  0.00000000E+00  0.00000000E+00
  0.00000000E+00  0.00000000E+00  0.00000000E+00
  0.00000000E+00  0.00000000E+00  0.00000000E+00
  0.00000000E+00  0.00000000E+00  0.00000000E+00
  0.00000000E+00  0.00000000E+00  0.00000000E+00
  0.00000000E+00  0.00000000E+00  0.00000000E+00
  0.00000000E+00  0.00000000E+00  0.00000000E+00
  0.00000000E+00  0.00000000E+00  0.00000000E+00
  0.00000000E+00  0.00000000E+00  0.00000000E+00
  0.00000000E+00  0.00000000E+00  0.00000000E+00
  0.00000000E+00  0.00000000E+00  0.00000000E+00
  0.00000000E+00  0.00000000E+00  0.00000000E+00
  0.00000000E+00  0.00000000E+00  0.00000000E+00
  0.00000000E+00  0.00000000E+00  0.00000000E+00
  0.00000000E+00  0.00000000E+00  0.00000000E+00
  0.00000000E+00  0.00000000E+00  0.00000000E+00
  0.00000000E+00  0.00000000E+00  0.00000000E+00
  0.00000000E+00  0.00000000E+00  0.00000000E+00
  0.00000000E+00  0.00000000E+00  0.00000000E+00
  0.00000000E+00  0.00000000E+00  0.00000000E+00
  0.00000000E+00  0.00000000E+00  0.00000000E+00
  0.00000000E+00  0.00000000E+00  0.00000000E+00
  0.00000000E+00  0.00000000E+00  0.00000000E+00
  0.00000000E+00  0.00000000E+00  0.00000000E+00
  0.00000000E+00  0.00000000E+00  0.00000000E+00
  0.00000000E+00  0.00000000E+00  0.00000000E+00
  0.00000000E+00  0.00000000E+00  0.00000000E+00
  0.00000000E+00  0.00000000E+00  0.00000000E+00
  0.00000000E+00  0.00000000E+00  0.00000000E+00
  0.00000000E+00  0.00000000E+00  0.00000000E+00
  0.00000000E+00  0.00000000E+00  0.00000000E+00
  0.00000000E+00  0.00000000E+00  0.00000000E+00
  0.00000000E+00  0.00000000E+00  0.00000000E+00
  0.00000000E+00  0.00000000E+00  0.00000000E+00
  0.00000000E+00  0.00000000E+00  0.00000000E+00
  0.00000000E+00  0.00000000E+00  0.00000000E+00
  0.00000000E+00  0.00000000E+00  0.00000000E+00
  0.00000000E+00  0.00000000E+00  0.00000000E+00
