Ag48 C4 N2 Br4                          
    1.000000000000000     
    11.7702790000000004    0.0000000000000000    0.0000000000000000
     0.0000000000000000   16.6456881000000010    0.0000000000000000
     0.0000000000000000    0.0000000000000000   15.7051487600000002
   Ag   C    N    Br
    48     4     2     4
Selective dynamics
Direct
  0.0001940217930283  0.2502197431325754  0.4048474618194362   T   T   T
  0.0000019165929217  0.5000017526079148  0.4042454095490982   T   T   T
  0.9998053513674421  0.7497784351114873  0.4048475040403900   T   T   T
  0.9999969263053288  0.0000000723759612  0.4046694765142504   T   T   T
  0.2499546807371615  0.2502975188746532  0.4050169907432632   T   T   T
  0.2504030761899614  0.5000585963995690  0.4040268907261364   T   T   T
  0.2492665349900065  0.7500260235332803  0.4039523358650996   T   T   T
  0.2501537169632186  0.0000319540836955  0.4048141561310317   T   T   T
  0.4999575963682901  0.2500519562639454  0.4038366428560778   T   T   T
  0.4999994446608227  0.5000005574201865  0.4057388221134488   T   T   T
  0.5000452770376285  0.7499480533867242  0.4038379260509402   T   T   T
  0.5000037851092216  0.9999994332755122  0.4048019212701206   T   T   T
  0.7507317885244618  0.2499698353482103  0.4039551031328017   T   T   T
  0.7495956079276667  0.4999437270124929  0.4040265351225756   T   T   T
  0.7500445897313881  0.7497044725930877  0.4050207834376351   T   T   T
  0.7498454989380789  0.9999674890381982  0.4048218886989332   T   T   T
  0.1251151232244538  0.1250647228413584  0.4906534386963912   T   T   T
  0.1249202550179334  0.3757654676660849  0.4910848967114347   T   T   T
  0.1239952472955039  0.6244497500439152  0.4909870501926861   T   T   T
  0.1251785184466669  0.8748894701561838  0.4906444886388215   T   T   T
  0.3753734718872508  0.1256393811219212  0.4906645550865250   T   T   T
  0.3752971212575815  0.3751868626066681  0.4911983907594788   T   T   T
  0.3737937418533548  0.6255738056281359  0.4896842728772839   T   T   T
  0.3750246983086569  0.8742698070291510  0.4905510751609725   T   T   T
  0.6249751198091502  0.1257317539611833  0.4905481807878260   T   T   T
  0.6262054691638497  0.3744267910699577  0.4896858884794284   T   T   T
  0.6247021249644433  0.6248118009508801  0.4911983129290505   T   T   T
  0.6246256146455735  0.8743596180222966  0.4906578559839758   T   T   T
  0.8748222951383156  0.1251122187000249  0.4906416397771594   T   T   T
  0.8760054347140951  0.3755508479075829  0.4909958856636507   T   T   T
  0.8750801789586617  0.6242333029965579  0.4910841898088876   T   T   T
  0.8748851247825087  0.8749343283463276  0.4906504390184381   T   T   T
  0.1249999995752020  0.1250000004505694  0.3183669302601402   F   F   F
  0.1249999995752020  0.3750000007509442  0.3183669302601402   F   F   F
  0.1249999995752020  0.6250000016520829  0.3183669302601402   F   F   F
  0.1249999995752020  0.8750000019524578  0.3183669302601402   F   F   F
  0.3749999987256061  0.1250000004505694  0.3183669302601402   F   F   F
  0.3749999987256061  0.3750000007509442  0.3183669302601402   F   F   F
  0.3749999987256061  0.6250000016520829  0.3183669302601402   F   F   F
  0.3749999987256061  0.8750000019524578  0.3183669302601402   F   F   F
  0.6249999978760030  0.1250000004505694  0.3183669302601402   F   F   F
  0.6249999978760030  0.3750000007509442  0.3183669302601402   F   F   F
  0.6249999978760030  0.6250000016520829  0.3183669302601402   F   F   F
  0.6249999978760030  0.8750000019524578  0.3183669302601402   F   F   F
  0.8749999970264071  0.1250000004505694  0.3183669302601402   F   F   F
  0.8749999970264071  0.3750000007509442  0.3183669302601402   F   F   F
  0.8749999970264071  0.6250000016520829  0.3183669302601402   F   F   F
  0.8749999970264071  0.8750000019524578  0.3183669302601402   F   F   F
  0.4550350049486056  0.5741517881195435  0.6816054022875164   T   T   T
  0.3856813197891498  0.5050154291066988  0.6795510527464828   T   T   T
  0.5449536965740904  0.4258491325547595  0.6816050418813902   T   T   T
  0.6143353969266059  0.4949721465993449  0.6795520943965343   T   T   T
  0.4328332399710604  0.4327124156868294  0.6790206967264538   T   T   T
  0.5671477611923095  0.5672953479221192  0.6790224132653080   T   T   T
  0.7748332592692861  0.4900929577928821  0.6729338151440771   T   T   T
  0.6053017192049168  0.3203244758903310  0.6861688798672816   T   T   T
  0.3946972909286757  0.6796725314956831  0.6861701359904444   T   T   T
  0.2251581890763674  0.5099062747520691  0.6729306912154271   T   T   T
 
  0.00000000E+00  0.00000000E+00  0.00000000E+00
  0.00000000E+00  0.00000000E+00  0.00000000E+00
  0.00000000E+00  0.00000000E+00  0.00000000E+00
  0.00000000E+00  0.00000000E+00  0.00000000E+00
  0.00000000E+00  0.00000000E+00  0.00000000E+00
  0.00000000E+00  0.00000000E+00  0.00000000E+00
  0.00000000E+00  0.00000000E+00  0.00000000E+00
  0.00000000E+00  0.00000000E+00  0.00000000E+00
  0.00000000E+00  0.00000000E+00  0.00000000E+00
  0.00000000E+00  0.00000000E+00  0.00000000E+00
  0.00000000E+00  0.00000000E+00  0.00000000E+00
  0.00000000E+00  0.00000000E+00  0.00000000E+00
  0.00000000E+00  0.00000000E+00  0.00000000E+00
  0.00000000E+00  0.00000000E+00  0.00000000E+00
  0.00000000E+00  0.00000000E+00  0.00000000E+00
  0.00000000E+00  0.00000000E+00  0.00000000E+00
  0.00000000E+00  0.00000000E+00  0.00000000E+00
  0.00000000E+00  0.00000000E+00  0.00000000E+00
  0.00000000E+00  0.00000000E+00  0.00000000E+00
  0.00000000E+00  0.00000000E+00  0.00000000E+00
  0.00000000E+00  0.00000000E+00  0.00000000E+00
  0.00000000E+00  0.00000000E+00  0.00000000E+00
  0.00000000E+00  0.00000000E+00  0.00000000E+00
  0.00000000E+00  0.00000000E+00  0.00000000E+00
  0.00000000E+00  0.00000000E+00  0.00000000E+00
  0.00000000E+00  0.00000000E+00  0.00000000E+00
  0.00000000E+00  0.00000000E+00  0.00000000E+00
  0.00000000E+00  0.00000000E+00  0.00000000E+00
  0.00000000E+00  0.00000000E+00  0.00000000E+00
  0.00000000E+00  0.00000000E+00  0.00000000E+00
  0.00000000E+00  0.00000000E+00  0.00000000E+00
  0.00000000E+00  0.00000000E+00  0.00000000E+00
  0.00000000E+00  0.00000000E+00  0.00000000E+00
  0.00000000E+00  0.00000000E+00  0.00000000E+00
  0.00000000E+00  0.00000000E+00  0.00000000E+00
  0.00000000E+00  0.00000000E+00  0.00000000E+00
  0.00000000E+00  0.00000000E+00  0.00000000E+00
  0.00000000E+00  0.00000000E+00  0.00000000E+00
  0.00000000E+00  0.00000000E+00  0.00000000E+00
  0.00000000E+00  0.00000000E+00  0.00000000E+00
  0.00000000E+00  0.00000000E+00  0.00000000E+00
  0.00000000E+00  0.00000000E+00  0.00000000E+00
  0.00000000E+00  0.00000000E+00  0.00000000E+00
  0.00000000E+00  0.00000000E+00  0.00000000E+00
  0.00000000E+00  0.00000000E+00  0.00000000E+00
  0.00000000E+00  0.00000000E+00  0.00000000E+00
  0.00000000E+00  0.00000000E+00  0.00000000E+00
  0.00000000E+00  0.00000000E+00  0.00000000E+00
  0.00000000E+00  0.00000000E+00  0.00000000E+00
  0.00000000E+00  0.00000000E+00  0.00000000E+00
  0.00000000E+00  0.00000000E+00  0.00000000E+00
  0.00000000E+00  0.00000000E+00  0.00000000E+00
  0.00000000E+00  0.00000000E+00  0.00000000E+00
  0.00000000E+00  0.00000000E+00  0.00000000E+00
  0.00000000E+00  0.00000000E+00  0.00000000E+00
  0.00000000E+00  0.00000000E+00  0.00000000E+00
  0.00000000E+00  0.00000000E+00  0.00000000E+00
  0.00000000E+00  0.00000000E+00  0.00000000E+00
