Ir  C Br                                
    1.000000000000000     
    10.9622135000000007    0.0000000000000000    0.0000000000000000
     0.0000000000000000   15.5029109999999992    0.0000000000000000
     0.0000000000000000    0.0000000000000000   22.1108300437499992
   Ir   C    Br
    64     6     6
Selective dynamics
Direct
  0.2499999995438884  0.0000000000000000  0.3392002916742598   F   F   F
  0.9999999981755536  0.4999999993549622  0.3392002916742598   F   F   F
  0.2499999995438884  0.2499999993549622  0.3392002916742598   F   F   F
  0.2499999995438884  0.4999999993549622  0.3392002916742598   F   F   F
  0.2499999995438884  0.7499999987099173  0.3392002916742598   F   F   F
  0.4999999990877768  0.0000000000000000  0.3392002916742598   F   F   F
  0.4999999990877768  0.2499999993549622  0.3392002916742598   F   F   F
  0.4999999990877768  0.4999999993549622  0.3392002916742598   F   F   F
  0.4999999990877768  0.7499999987099173  0.3392002916742598   F   F   F
  0.7499999986316652  0.0000000000000000  0.3392002916742598   F   F   F
  0.7499999986316652  0.2499999993549622  0.3392002916742598   F   F   F
  0.7499999986316652  0.4999999993549622  0.3392002916742598   F   F   F
  0.0000000000000000  0.0000000000000000  0.3392002916742598   F   F   F
  0.9999999981755536  0.2499999993549622  0.3392002916742598   F   F   F
  0.9999999981755536  0.7499999987099173  0.3392002916742598   F   F   F
  0.7499999986316652  0.7499999987099173  0.3392002916742598   F   F   F
  0.2502321704960200 -0.0000290384604811  0.4602734048789202   T   T   T
  0.2495757592905506  0.2506244302557703  0.4617159229856370   T   T   T
  0.2512767660149821  0.5000390657298682  0.4603613360880876   T   T   T
  0.2517577991937782  0.7483859771460649  0.4617794303838169   T   T   T
  0.4999905314467036  0.0000365203761798  0.4627868684187942   T   T   T
  0.4988069196396478  0.2490501577849558  0.4616476843628580   T   T   T
  0.4999957100053304  0.4999838827656407  0.4611319407254358   T   T   T
  0.5011814781462423  0.7509496207109712  0.4616498837279782   T   T   T
  0.7497624932381164  0.0000222541342562  0.4602377589843368   T   T   T
  0.7482278976522202  0.2516226967929094  0.4617942411092299   T   T   T
  0.7487408109693318  0.4999565740851326  0.4603685438836582   T   T   T
  0.7504386149836438  0.7493667085517917  0.4617247905607442   T   T   T
 -0.0000008258916800 -0.0000191124285588  0.4628407833527177   T   T   T
  0.9983152731358700  0.2501444016619392  0.4631121079203379   T   T   T
 -0.0000019711593427  0.4999993633669996  0.4639566750642509   T   T   T
  0.0016844100964378  0.7498785767427347  0.4631125778880095   T   T   T
  0.1247319975554795  0.1253630114616038  0.5217903456338939   T   T   T
  0.1206418306185046  0.3747270322736277  0.5201849315236309   T   T   T
  0.1314109805299821  0.6215091612669179  0.5231168903419496   T   T   T
  0.1249574563062926  0.8744973120373020  0.5217958544731222   T   T   T
  0.3744925979072606  0.1246532721875809  0.5217753685686649   T   T   T
  0.3656189812036433  0.3746278556901781  0.5225569292072845   T   T   T
  0.3836826434317430  0.6289294316972570  0.5227308486264194   T   T   T
  0.3747652173359126  0.8751014244713494  0.5216459094267715   T   T   T
  0.6253183520414060  0.1249259783394244  0.5216658258006668   T   T   T
  0.6162850687263318  0.3710549634973432  0.5227338639582177   T   T   T
  0.6343717488303861  0.6253588201223119  0.5225533787887433   T   T   T
  0.6254683039780398  0.8753622185075607  0.5217584904784902   T   T   T
  0.8751723114693268  0.1255003270955837  0.5217484224319897   T   T   T
  0.8685565436891489  0.3784776952973600  0.5231214912481680   T   T   T
  0.8793687842676359  0.6252268488707085  0.5201607276131016   T   T   T
  0.8752660725241022  0.8746403508283664  0.5217980256000787   T   T   T
  0.1249999993158326  0.1249999996774775  0.4011733916681877   F   F   F
  0.1249999993158326  0.3749999996774775  0.4011733916681877   F   F   F
  0.1250000002280558  0.6249999990324397  0.4011733916681877   F   F   F
  0.1250000002280558  0.8749999983874019  0.4011733916681877   F   F   F
  0.3749999988597210  0.1249999996774775  0.4011733916681877   F   F   F
  0.3749999997719442  0.3749999996774775  0.4011733916681877   F   F   F
  0.3749999997719442  0.6249999990324397  0.4011733916681877   F   F   F
  0.3749999997719442  0.8749999983874019  0.4011733916681877   F   F   F
  0.6249999993158326  0.1249999996774775  0.4011733916681877   F   F   F
  0.6249999984036094  0.3749999996774775  0.4011733916681877   F   F   F
  0.6249999993158326  0.6249999990324397  0.4011733916681877   F   F   F
  0.6249999993158326  0.8749999983874019  0.4011733916681877   F   F   F
  0.8749999979474978  0.1249999996774775  0.4011733916681877   F   F   F
  0.8749999988597210  0.3749999996774775  0.4011733916681877   F   F   F
  0.8749999988597210  0.6249999990324397  0.4011733916681877   F   F   F
  0.8749999988597210  0.8749999983874019  0.4011733916681877   F   F   F
  0.3736232005647510  0.5094628962715979  0.6152342699806207   T   T   T
  0.4470732149223580  0.5808939441638399  0.6002778951914467   T   T   T
  0.5786702452185436  0.5721267144878736  0.5997569463018002   T   T   T
  0.6263539524637705  0.4904629290702300  0.6152240901949663   T   T   T
  0.5529463980402988  0.4191241134868133  0.6002907346086538   T   T   T
  0.4212630700391949  0.4279136366424489  0.5997696613255566   T   T   T
  0.1909380515788940  0.5300791044145102  0.6180043872525971   T   T   T
  0.2511212012719206  0.8697954162385476  0.6161357146386907   T   T   T
  0.7505533555191705  0.8705993131830633  0.6162417663394730   T   T   T
  0.8090626914443810  0.4698430154501277  0.6180219306366692   T   T   T
  0.7494679876555752  0.1305490177255238  0.6161181038576039   T   T   T
  0.2492682261210555  0.1294945938245800  0.6162558811345791   T   T   T
 
  0.00000000E+00  0.00000000E+00  0.00000000E+00
  0.00000000E+00  0.00000000E+00  0.00000000E+00
  0.00000000E+00  0.00000000E+00  0.00000000E+00
  0.00000000E+00  0.00000000E+00  0.00000000E+00
  0.00000000E+00  0.00000000E+00  0.00000000E+00
  0.00000000E+00  0.00000000E+00  0.00000000E+00
  0.00000000E+00  0.00000000E+00  0.00000000E+00
  0.00000000E+00  0.00000000E+00  0.00000000E+00
  0.00000000E+00  0.00000000E+00  0.00000000E+00
  0.00000000E+00  0.00000000E+00  0.00000000E+00
  0.00000000E+00  0.00000000E+00  0.00000000E+00
  0.00000000E+00  0.00000000E+00  0.00000000E+00
  0.00000000E+00  0.00000000E+00  0.00000000E+00
  0.00000000E+00  0.00000000E+00  0.00000000E+00
  0.00000000E+00  0.00000000E+00  0.00000000E+00
  0.00000000E+00  0.00000000E+00  0.00000000E+00
  0.00000000E+00  0.00000000E+00  0.00000000E+00
  0.00000000E+00  0.00000000E+00  0.00000000E+00
  0.00000000E+00  0.00000000E+00  0.00000000E+00
  0.00000000E+00  0.00000000E+00  0.00000000E+00
  0.00000000E+00  0.00000000E+00  0.00000000E+00
  0.00000000E+00  0.00000000E+00  0.00000000E+00
  0.00000000E+00  0.00000000E+00  0.00000000E+00
  0.00000000E+00  0.00000000E+00  0.00000000E+00
  0.00000000E+00  0.00000000E+00  0.00000000E+00
  0.00000000E+00  0.00000000E+00  0.00000000E+00
  0.00000000E+00  0.00000000E+00  0.00000000E+00
  0.00000000E+00  0.00000000E+00  0.00000000E+00
  0.00000000E+00  0.00000000E+00  0.00000000E+00
  0.00000000E+00  0.00000000E+00  0.00000000E+00
  0.00000000E+00  0.00000000E+00  0.00000000E+00
  0.00000000E+00  0.00000000E+00  0.00000000E+00
  0.00000000E+00  0.00000000E+00  0.00000000E+00
  0.00000000E+00  0.00000000E+00  0.00000000E+00
  0.00000000E+00  0.00000000E+00  0.00000000E+00
  0.00000000E+00  0.00000000E+00  0.00000000E+00
  0.00000000E+00  0.00000000E+00  0.00000000E+00
  0.00000000E+00  0.00000000E+00  0.00000000E+00
  0.00000000E+00  0.00000000E+00  0.00000000E+00
  0.00000000E+00  0.00000000E+00  0.00000000E+00
  0.00000000E+00  0.00000000E+00  0.00000000E+00
  0.00000000E+00  0.00000000E+00  0.00000000E+00
  0.00000000E+00  0.00000000E+00  0.00000000E+00
  0.00000000E+00  0.00000000E+00  0.00000000E+00
  0.00000000E+00  0.00000000E+00  0.00000000E+00
  0.00000000E+00  0.00000000E+00  0.00000000E+00
  0.00000000E+00  0.00000000E+00  0.00000000E+00
  0.00000000E+00  0.00000000E+00  0.00000000E+00
  0.00000000E+00  0.00000000E+00  0.00000000E+00
  0.00000000E+00  0.00000000E+00  0.00000000E+00
  0.00000000E+00  0.00000000E+00  0.00000000E+00
  0.00000000E+00  0.00000000E+00  0.00000000E+00
  0.00000000E+00  0.00000000E+00  0.00000000E+00
  0.00000000E+00  0.00000000E+00  0.00000000E+00
  0.00000000E+00  0.00000000E+00  0.00000000E+00
  0.00000000E+00  0.00000000E+00  0.00000000E+00
  0.00000000E+00  0.00000000E+00  0.00000000E+00
  0.00000000E+00  0.00000000E+00  0.00000000E+00
  0.00000000E+00  0.00000000E+00  0.00000000E+00
  0.00000000E+00  0.00000000E+00  0.00000000E+00
  0.00000000E+00  0.00000000E+00  0.00000000E+00
  0.00000000E+00  0.00000000E+00  0.00000000E+00
  0.00000000E+00  0.00000000E+00  0.00000000E+00
  0.00000000E+00  0.00000000E+00  0.00000000E+00
  0.00000000E+00  0.00000000E+00  0.00000000E+00
  0.00000000E+00  0.00000000E+00  0.00000000E+00
  0.00000000E+00  0.00000000E+00  0.00000000E+00
  0.00000000E+00  0.00000000E+00  0.00000000E+00
  0.00000000E+00  0.00000000E+00  0.00000000E+00
  0.00000000E+00  0.00000000E+00  0.00000000E+00
  0.00000000E+00  0.00000000E+00  0.00000000E+00
  0.00000000E+00  0.00000000E+00  0.00000000E+00
  0.00000000E+00  0.00000000E+00  0.00000000E+00
  0.00000000E+00  0.00000000E+00  0.00000000E+00
  0.00000000E+00  0.00000000E+00  0.00000000E+00
  0.00000000E+00  0.00000000E+00  0.00000000E+00
