Ag  C  N Br                             
   1.00000000000000     
    11.7678089999999997    0.0000000000000000    0.0000000000000000
    -5.8839040000000002   10.1912210000000005    0.0000000000000000
     0.0000000000000000    0.0000000000000000   25.2062817300000006
   Ag   C    N    Br
    64     4     2     4
Selective dynamics
Direct
  0.7499999754973956  0.7500000274746270  0.2975448771198046   F   F   F
  0.9999999830044857  0.0000000000000000  0.2975448771198046   F   F   F
  0.9999999789222898  0.2500000088311296  0.2975448771198046   F   F   F
  0.9999999748400938  0.5000000176622592  0.2975448771198046   F   F   F
  0.9999999882440349  0.7500000274746270  0.2975448771198046   F   F   F
  0.2499999957511179  0.0000000000000000  0.2975448771198046   F   F   F
  0.2499999916689291  0.2500000088311296  0.2975448771198046   F   F   F
  0.2499999875867331  0.5000000176622592  0.2975448771198046   F   F   F
  0.4999999915022428  0.0000000000000000  0.2975448771198046   F   F   F
  0.4999999874200469  0.2500000088311296  0.2975448771198046   F   F   F
  0.4999999833378510  0.5000000176622592  0.2975448771198046   F   F   F
  0.4999999797462777  0.7500000274746270  0.2975448771198046   F   F   F
  0.7499999872533607  0.0000000000000000  0.2975448771198046   F   F   F
  0.7499999831711648  0.2500000088311296  0.2975448771198046   F   F   F
  0.7499999790889760  0.5000000176622592  0.2975448771198046   F   F   F
  0.2499999839951599  0.7500000274746270  0.2975448771198046   F   F   F
  0.0833330000000032  0.1666669999999968  0.3928423087572952   F   F   F
  0.0833330000000032  0.4166669999999968  0.3928423087572952   F   F   F
  0.0833330000000032  0.6666669999999968  0.3928423087572952   F   F   F
  0.0833330000000032  0.9166669999999968  0.3928423087572952   F   F   F
  0.3333330000000032  0.1666669999999968  0.3928423087572952   F   F   F
  0.3333330000000032  0.4166669999999968  0.3928423087572952   F   F   F
  0.3333330000000032  0.6666669999999968  0.3928423087572952   F   F   F
  0.3333330000000032  0.9166669999999968  0.3928423087572952   F   F   F
  0.5833330000000032  0.1666669999999968  0.3928423087572952   F   F   F
  0.5833330000000032  0.4166669999999968  0.3928423087572952   F   F   F
  0.5833330000000032  0.6666669999999968  0.3928423087572952   F   F   F
  0.5833330000000032  0.9166669999999968  0.3928423087572952   F   F   F
  0.8333330000000032  0.1666669999999968  0.3928423087572952   F   F   F
  0.8333330000000032  0.4166669999999968  0.3928423087572952   F   F   F
  0.8333330000000032  0.6666669999999968  0.3928423087572952   F   F   F
  0.8333330000000032  0.9166669999999968  0.3928423087572952   F   F   F
  0.2504461096592622  0.2504475332288356  0.5702964611640385   T   T   T
  0.2499739466427132  0.4999583064922338  0.5714273977939315   T   T   T
  0.2499271119262162  0.7499567730589962  0.5714049416204882   T   T   T
  0.2499854014566031  0.9997496614964188  0.5712693043385377   T   T   T
  0.4998642049439569  0.2500478964315476  0.5714345383792439   T   T   T
  0.4993622154526136  0.4993726788561355  0.5702868749974771   T   T   T
  0.4997558747234598  0.7500206171137177  0.5712680592339038   T   T   T
  0.5001177060438067  0.0000770097029607  0.5713890801201309   T   T   T
  0.7498616566533032  0.2498323280033153  0.5714079810677533   T   T   T
  0.7501255812243243  0.4998973353138122  0.5712652287498182   T   T   T
  0.7500897875332506  0.7500980992044173  0.5713530228657336   T   T   T
  0.7499430273097539 -0.0000020043595024  0.5713308000271897   T   T   T
  0.9999059831594992  0.2501741589596216  0.5712689725586507   T   T   T
  0.9999820018224432  0.5000125660900345  0.5713843499885394   T   T   T
 -0.0000053322995896  0.7499245172015709  0.5713398261684902   T   T   T
  0.9997605440424179  0.9997658353272708  0.5713301842522451   T   T   T
  0.1663672938822430  0.0827896824017054  0.4818107507045857   T   T   T
  0.1663547342157833  0.3335980388383724  0.4817735816486038   T   T   T
  0.1666324499672338  0.5833800001299158  0.4819818688064142   T   T   T
  0.1666977604874698  0.8332877306914475  0.4819147436366754   T   T   T
  0.4166465031304665  0.0832742042775975  0.4819749973435581   T   T   T
  0.4170042943465185  0.3328950695691993  0.4815408868083627   T   T   T
  0.4163481278154608  0.5836308865121990  0.4817660268105851   T   T   T
  0.4166175666216730  0.8333894004059629  0.4819590762892869   T   T   T
  0.6666791353208703  0.0833355712439714  0.4819016832795337   T   T   T
  0.6666900307704748  0.3332854997472256  0.4819810373880651   T   T   T
  0.6671743298864959  0.5836221455039547  0.4818133298356562   T   T   T
  0.6665346755922074  0.8332097407176599  0.4819450870644693   T   T   T
  0.9167537526757493  0.0834572252526862  0.4819360998942107   T   T   T
  0.9165235941407678  0.3332972299441517  0.4819596907795662   T   T   T
  0.9166395069642003  0.5832701955963164  0.4819070662744704   T   T   T
  0.9166427910238681  0.8332370335763241  0.4819241595388940   T   T   T
  0.5076432311089001  0.4382444116485319  0.7000881732124951   T   T   T
  0.4383637925477750  0.5076234671492647  0.7000485076277417   T   T   T
  0.2434524995983623  0.3127079572046769  0.7000482932637799   T   T   T
  0.3128002053488810  0.2433597445607675  0.7000856929480839   T   T   T
  0.3085364164825226  0.4425597486610391  0.6999736927920277   T   T   T
  0.4425729309259502  0.3083419336753222  0.7000764319524444   T   T   T
  0.2268612269171274  0.0576132165767180  0.6998815277127104   T   T   T
  0.0577219591728435  0.2268277687765517  0.6998852800601192   T   T   T
  0.6931223848461472  0.5237130208702069  0.6998787394090006   T   T   T
  0.5238780729330875  0.6931758205318795  0.6999088452059058   T   T   T
 
  0.00000000E+00  0.00000000E+00  0.00000000E+00
  0.00000000E+00  0.00000000E+00  0.00000000E+00
  0.00000000E+00  0.00000000E+00  0.00000000E+00
  0.00000000E+00  0.00000000E+00  0.00000000E+00
  0.00000000E+00  0.00000000E+00  0.00000000E+00
  0.00000000E+00  0.00000000E+00  0.00000000E+00
  0.00000000E+00  0.00000000E+00  0.00000000E+00
  0.00000000E+00  0.00000000E+00  0.00000000E+00
  0.00000000E+00  0.00000000E+00  0.00000000E+00
  0.00000000E+00  0.00000000E+00  0.00000000E+00
  0.00000000E+00  0.00000000E+00  0.00000000E+00
  0.00000000E+00  0.00000000E+00  0.00000000E+00
  0.00000000E+00  0.00000000E+00  0.00000000E+00
  0.00000000E+00  0.00000000E+00  0.00000000E+00
  0.00000000E+00  0.00000000E+00  0.00000000E+00
  0.00000000E+00  0.00000000E+00  0.00000000E+00
  0.00000000E+00  0.00000000E+00  0.00000000E+00
  0.00000000E+00  0.00000000E+00  0.00000000E+00
  0.00000000E+00  0.00000000E+00  0.00000000E+00
  0.00000000E+00  0.00000000E+00  0.00000000E+00
  0.00000000E+00  0.00000000E+00  0.00000000E+00
  0.00000000E+00  0.00000000E+00  0.00000000E+00
  0.00000000E+00  0.00000000E+00  0.00000000E+00
  0.00000000E+00  0.00000000E+00  0.00000000E+00
  0.00000000E+00  0.00000000E+00  0.00000000E+00
  0.00000000E+00  0.00000000E+00  0.00000000E+00
  0.00000000E+00  0.00000000E+00  0.00000000E+00
  0.00000000E+00  0.00000000E+00  0.00000000E+00
  0.00000000E+00  0.00000000E+00  0.00000000E+00
  0.00000000E+00  0.00000000E+00  0.00000000E+00
  0.00000000E+00  0.00000000E+00  0.00000000E+00
  0.00000000E+00  0.00000000E+00  0.00000000E+00
  0.00000000E+00  0.00000000E+00  0.00000000E+00
  0.00000000E+00  0.00000000E+00  0.00000000E+00
  0.00000000E+00  0.00000000E+00  0.00000000E+00
  0.00000000E+00  0.00000000E+00  0.00000000E+00
  0.00000000E+00  0.00000000E+00  0.00000000E+00
  0.00000000E+00  0.00000000E+00  0.00000000E+00
  0.00000000E+00  0.00000000E+00  0.00000000E+00
  0.00000000E+00  0.00000000E+00  0.00000000E+00
  0.00000000E+00  0.00000000E+00  0.00000000E+00
  0.00000000E+00  0.00000000E+00  0.00000000E+00
  0.00000000E+00  0.00000000E+00  0.00000000E+00
  0.00000000E+00  0.00000000E+00  0.00000000E+00
  0.00000000E+00  0.00000000E+00  0.00000000E+00
  0.00000000E+00  0.00000000E+00  0.00000000E+00
  0.00000000E+00  0.00000000E+00  0.00000000E+00
  0.00000000E+00  0.00000000E+00  0.00000000E+00
  0.00000000E+00  0.00000000E+00  0.00000000E+00
  0.00000000E+00  0.00000000E+00  0.00000000E+00
  0.00000000E+00  0.00000000E+00  0.00000000E+00
  0.00000000E+00  0.00000000E+00  0.00000000E+00
  0.00000000E+00  0.00000000E+00  0.00000000E+00
  0.00000000E+00  0.00000000E+00  0.00000000E+00
  0.00000000E+00  0.00000000E+00  0.00000000E+00
  0.00000000E+00  0.00000000E+00  0.00000000E+00
  0.00000000E+00  0.00000000E+00  0.00000000E+00
  0.00000000E+00  0.00000000E+00  0.00000000E+00
  0.00000000E+00  0.00000000E+00  0.00000000E+00
  0.00000000E+00  0.00000000E+00  0.00000000E+00
  0.00000000E+00  0.00000000E+00  0.00000000E+00
  0.00000000E+00  0.00000000E+00  0.00000000E+00
  0.00000000E+00  0.00000000E+00  0.00000000E+00
  0.00000000E+00  0.00000000E+00  0.00000000E+00
  0.00000000E+00  0.00000000E+00  0.00000000E+00
  0.00000000E+00  0.00000000E+00  0.00000000E+00
  0.00000000E+00  0.00000000E+00  0.00000000E+00
  0.00000000E+00  0.00000000E+00  0.00000000E+00
  0.00000000E+00  0.00000000E+00  0.00000000E+00
  0.00000000E+00  0.00000000E+00  0.00000000E+00
  0.00000000E+00  0.00000000E+00  0.00000000E+00
  0.00000000E+00  0.00000000E+00  0.00000000E+00
  0.00000000E+00  0.00000000E+00  0.00000000E+00
  0.00000000E+00  0.00000000E+00  0.00000000E+00
