H2 Ir48 C6 Cl4                          
    1.000000000000000     
    10.9622130000000002    0.0000000000000000    0.0000000000000000
    -5.4811069999999997    9.4935550000000006    0.0000000000000000
     0.0000000000000000    0.0000000000000000   16.4774080000000005
   H    Ir   C    Cl
     2    48     6     4
Selective dynamics
Direct
  0.2510629188914635  0.4988569229664321  0.8033231064145099   T   T   T
  0.4997308449587621  0.2502200863066690  0.8042184956549789   T   T   T
  0.0833330000000032  0.1666669999999968  0.3641349999999974   F   F   F
  0.0833330000000032  0.4166669999999968  0.3641349999999974   F   F   F
  0.0833330000000032  0.6666669999999968  0.3641349999999974   F   F   F
  0.0833330000000032  0.9166669999999968  0.3641349999999974   F   F   F
  0.3333330000000032  0.1666669999999968  0.3641349999999974   F   F   F
  0.3333330000000032  0.4166669999999968  0.3641349999999974   F   F   F
  0.3333330000000032  0.6666669999999968  0.3641349999999974   F   F   F
  0.3333330000000032  0.9166669999999968  0.3641349999999974   F   F   F
  0.5833330000000032  0.1666669999999968  0.3641349999999974   F   F   F
  0.5833330000000032  0.4166669999999968  0.3641349999999974   F   F   F
  0.5833330000000032  0.6666669999999968  0.3641349999999974   F   F   F
  0.5833330000000032  0.9166669999999968  0.3641349999999974   F   F   F
  0.8333330000000032  0.1666669999999968  0.3641349999999974   F   F   F
  0.8333330000000032  0.4166669999999968  0.3641349999999974   F   F   F
  0.8333330000000032  0.6666669999999968  0.3641349999999974   F   F   F
  0.8333330000000032  0.9166669999999968  0.3641349999999974   F   F   F
  0.9966856405182156  0.9958956539686952  0.6277534079337812   T   T   T
  0.9945370212064617  0.2479118785105925  0.6303507514808189   T   T   T
  0.0010224201431797  0.5000528910748372  0.6295419505838638   T   T   T
  0.0006386959841720  0.7493438724403134  0.6281004833160040   T   T   T
  0.2475271307848956  0.9936055917880466  0.6297456889059845   T   T   T
  0.2454448607842821  0.2440853154745284  0.6375806683383303   T   T   T
  0.2504392852193220  0.4995428023153252  0.6357193705337423   T   T   T
  0.2499268912167665  0.7489548888841284  0.6295421875762415   T   T   T
  0.5013318387537637  0.0010356652741379  0.6297583581821229   T   T   T
  0.5000061884139697  0.2499648633069569  0.6361689177536647   T   T   T
  0.5058885206824755  0.5045366654248795  0.6375764855398884   T   T   T
  0.5020732529994518  0.7554426751763117  0.6303456841050590   T   T   T
  0.7496934363170311  0.0002996782069928  0.6283596824764857   T   T   T
  0.7489542933130622  0.2486480017322847  0.6297614721963072   T   T   T
  0.7563712747892168  0.5024586089888317  0.6297537262190716   T   T   T
  0.7541054845709141  0.7533182039494051  0.6277556496433974   T   T   T
  0.1685567513583521  0.0864382707673741  0.4971623043142017   T   T   T
  0.1685506586251364  0.3341131985492254  0.4981321275583070   T   T   T
  0.1687207651478744  0.5812608864573861  0.4977908384758436   T   T   T
  0.1685324567678279  0.8337708818950631  0.4959791343756166   T   T   T
  0.4170333235073187  0.0858017257207493  0.4982034973400218   T   T   T
  0.4160715643427366  0.3339250497471298  0.4983003265962651   T   T   T
  0.4158780955262458  0.5814386001286209  0.4981249714763507   T   T   T
  0.4170754153495153  0.8330670415924359  0.4976203330224749   T   T   T
  0.6663125588127272  0.0836885188352028  0.4962165582482925   T   T   T
  0.6642035949034408  0.3329718776026596  0.4982089207005700   T   T   T
  0.6635575467197441  0.5814431649077463  0.4971592925683552   T   T   T
  0.6658144719725172  0.8320979996959181  0.4963864510706983   T   T   T
  0.9178963473636657  0.0841822670237420  0.4963891695209526   T   T   T
  0.9169271910774341  0.3329202057694047  0.4976186010720411   T   T   T
  0.9162109091872424  0.5814525437087710  0.4959835755894630   T   T   T
  0.9172313815663173  0.8327644354439272  0.4949749183625514   T   T   T
  0.2935668197106054  0.4564231980252487  0.7580416169503224   T   T   T
  0.4501842159424072  0.5252185809242178  0.7585883309227341   T   T   T
  0.5265184285609834  0.4490149182698104  0.7586950583795797   T   T   T
  0.4576580951929330  0.2923316573471126  0.7585364742831686   T   T   T
  0.3009162907211760  0.2233817593139236  0.7587087310487988   T   T   T
  0.2246940847613104  0.2997366179009902  0.7585928054755016   T   T   T
  0.5301599366400112  0.7004046568166942  0.7950646360674298   T   T   T
  0.7008660505856454  0.5286564993067415  0.7965402414627576   T   T   T
  0.2212875649742543  0.0491053292543171  0.7965874416461531   T   T   T
  0.0495572883518705  0.2197915726785951  0.7950833704150284   T   T   T
 
  0.00000000E+00  0.00000000E+00  0.00000000E+00
  0.00000000E+00  0.00000000E+00  0.00000000E+00
  0.00000000E+00  0.00000000E+00  0.00000000E+00
  0.00000000E+00  0.00000000E+00  0.00000000E+00
  0.00000000E+00  0.00000000E+00  0.00000000E+00
  0.00000000E+00  0.00000000E+00  0.00000000E+00
  0.00000000E+00  0.00000000E+00  0.00000000E+00
  0.00000000E+00  0.00000000E+00  0.00000000E+00
  0.00000000E+00  0.00000000E+00  0.00000000E+00
  0.00000000E+00  0.00000000E+00  0.00000000E+00
  0.00000000E+00  0.00000000E+00  0.00000000E+00
  0.00000000E+00  0.00000000E+00  0.00000000E+00
  0.00000000E+00  0.00000000E+00  0.00000000E+00
  0.00000000E+00  0.00000000E+00  0.00000000E+00
  0.00000000E+00  0.00000000E+00  0.00000000E+00
  0.00000000E+00  0.00000000E+00  0.00000000E+00
  0.00000000E+00  0.00000000E+00  0.00000000E+00
  0.00000000E+00  0.00000000E+00  0.00000000E+00
  0.00000000E+00  0.00000000E+00  0.00000000E+00
  0.00000000E+00  0.00000000E+00  0.00000000E+00
  0.00000000E+00  0.00000000E+00  0.00000000E+00
  0.00000000E+00  0.00000000E+00  0.00000000E+00
  0.00000000E+00  0.00000000E+00  0.00000000E+00
  0.00000000E+00  0.00000000E+00  0.00000000E+00
  0.00000000E+00  0.00000000E+00  0.00000000E+00
  0.00000000E+00  0.00000000E+00  0.00000000E+00
  0.00000000E+00  0.00000000E+00  0.00000000E+00
  0.00000000E+00  0.00000000E+00  0.00000000E+00
  0.00000000E+00  0.00000000E+00  0.00000000E+00
  0.00000000E+00  0.00000000E+00  0.00000000E+00
  0.00000000E+00  0.00000000E+00  0.00000000E+00
  0.00000000E+00  0.00000000E+00  0.00000000E+00
  0.00000000E+00  0.00000000E+00  0.00000000E+00
  0.00000000E+00  0.00000000E+00  0.00000000E+00
  0.00000000E+00  0.00000000E+00  0.00000000E+00
  0.00000000E+00  0.00000000E+00  0.00000000E+00
  0.00000000E+00  0.00000000E+00  0.00000000E+00
  0.00000000E+00  0.00000000E+00  0.00000000E+00
  0.00000000E+00  0.00000000E+00  0.00000000E+00
  0.00000000E+00  0.00000000E+00  0.00000000E+00
  0.00000000E+00  0.00000000E+00  0.00000000E+00
  0.00000000E+00  0.00000000E+00  0.00000000E+00
  0.00000000E+00  0.00000000E+00  0.00000000E+00
  0.00000000E+00  0.00000000E+00  0.00000000E+00
  0.00000000E+00  0.00000000E+00  0.00000000E+00
  0.00000000E+00  0.00000000E+00  0.00000000E+00
  0.00000000E+00  0.00000000E+00  0.00000000E+00
  0.00000000E+00  0.00000000E+00  0.00000000E+00
  0.00000000E+00  0.00000000E+00  0.00000000E+00
  0.00000000E+00  0.00000000E+00  0.00000000E+00
  0.00000000E+00  0.00000000E+00  0.00000000E+00
  0.00000000E+00  0.00000000E+00  0.00000000E+00
  0.00000000E+00  0.00000000E+00  0.00000000E+00
  0.00000000E+00  0.00000000E+00  0.00000000E+00
  0.00000000E+00  0.00000000E+00  0.00000000E+00
  0.00000000E+00  0.00000000E+00  0.00000000E+00
  0.00000000E+00  0.00000000E+00  0.00000000E+00
  0.00000000E+00  0.00000000E+00  0.00000000E+00
  0.00000000E+00  0.00000000E+00  0.00000000E+00
  0.00000000E+00  0.00000000E+00  0.00000000E+00
