Pd  C  N  F                             
   1.00000000000000     
    11.1922750000000004    0.0000000000000000    0.0000000000000000
    -5.5961369999999997    9.6927939999999992    0.0000000000000000
     0.0000000000000000    0.0000000000000000   24.8538405000000040
   Pd   C    N    F 
    64     4     2     4
Selective dynamics
Direct
  0.9999999513476965  0.0000000206338839  0.3017642283493345   F   F   F
  0.2499999873901899  0.2500000051584692  0.3017642283493345   F   F   F
  0.2499999828216346  0.5000000103169455  0.3017642283493345   F   F   F
  0.2499999773596073  0.7500000154754147  0.3017642283493345   F   F   F
  0.2499999727910591  0.0000000206338839  0.3017642283493345   F   F   F
  0.4999999802424000  0.2500000051584692  0.3017642283493345   F   F   F
  0.4999999756738518  0.5000000103169455  0.3017642283493345   F   F   F
  0.4999999702118245  0.7500000154754147  0.3017642283493345   F   F   F
  0.7499999730946101  0.2500000051584692  0.3017642283493345   F   F   F
  0.7499999685260619  0.5000000103169455  0.3017642283493345   F   F   F
  0.7499999630640346  0.7500000154754147  0.3017642283493345   F   F   F
  0.7499999584954864  0.0000000206338839  0.3017642283493345   F   F   F
  0.9999999659468273  0.2500000051584692  0.3017642283493345   F   F   F
  0.9999999613782720  0.5000000103169455  0.3017642283493345   F   F   F
  0.9999999559162518  0.7500000154754147  0.3017642283493345   F   F   F
  0.4999999656432692  0.0000000206338839  0.3017642283493345   F   F   F
  0.0833330000000032  0.1666669999999968  0.3936861790032040   F   F   F
  0.0833330000000032  0.4166669999999968  0.3936861790032040   F   F   F
  0.0833330000000032  0.6666669999999968  0.3936861790032040   F   F   F
  0.0833330000000032  0.9166669999999968  0.3936861790032040   F   F   F
  0.3333330000000032  0.1666669999999968  0.3936861790032040   F   F   F
  0.3333330000000032  0.4166669999999968  0.3936861790032040   F   F   F
  0.3333330000000032  0.6666669999999968  0.3936861790032040   F   F   F
  0.3333330000000032  0.9166669999999968  0.3936861790032040   F   F   F
  0.5833330000000032  0.1666669999999968  0.3936861790032040   F   F   F
  0.5833330000000032  0.4166669999999968  0.3936861790032040   F   F   F
  0.5833330000000032  0.6666669999999968  0.3936861790032040   F   F   F
  0.5833330000000032  0.9166669999999968  0.3936861790032040   F   F   F
  0.8333330000000032  0.1666669999999968  0.3936861790032040   F   F   F
  0.8333330000000032  0.4166669999999968  0.3936861790032040   F   F   F
  0.8333330000000032  0.6666669999999968  0.3936861790032040   F   F   F
  0.8333330000000032  0.9166669999999968  0.3936861790032040   F   F   F
  0.2498738395530859 -0.0003725198047734  0.5759876007824943   T   T   T
  0.2503018190926597  0.2501524088346773  0.5762312063818555   T   T   T
  0.2499002924720898  0.5002542208969829  0.5759980152615147   T   T   T
  0.2499552782603908  0.7499662690422780  0.5760758425639484   T   T   T
  0.5000314453048387 -0.0001815013721609  0.5760874279691540   T   T   T
  0.5000678692977002  0.2494411227780597  0.5753582759173562   T   T   T
  0.5000678248499664  0.5006253976030421  0.5753564173072612   T   T   T
  0.5000269059877768  0.7501815412812800  0.5760799750309469   T   T   T
  0.7498534845218131 -0.0000763741106118  0.5760340696230466   T   T   T
  0.7502954887499955  0.2498888324603816  0.5759667539575840   T   T   T
  0.7497865833164334  0.4998954564035957  0.5762495433698340   T   T   T
  0.7503125771390311  0.7504158239777037  0.5759701490287794   T   T   T
 -0.0000427428845335  0.0000552937758329  0.5761037138895384   T   T   T
 -0.0000333438453832  0.2499224661970289  0.5761007125199737   T   T   T
  0.0000083029134112  0.4999877805094414  0.5761269595543758   T   T   T
  0.0000255429309115  0.7500161182733671  0.5761207151707040   T   T   T
  0.1670377898159486  0.0836875943107209  0.4840861819513269   T   T   T
  0.1670483962930484  0.3333603600450675  0.4840883433295997   T   T   T
  0.1663353541024239  0.5831896009445856  0.4840076365102188   T   T   T
  0.1663362643833263  0.8331176092061983  0.4839933552666568   T   T   T
  0.4166695171613505  0.0830503207132952  0.4839496244896799   T   T   T
  0.4162083111018627  0.3330942502486215  0.4840162290347802   T   T   T
  0.4166675135962248  0.5835931563842213  0.4839450146825545   T   T   T
  0.4166094522916778  0.8332977270961150  0.4840080340113033   T   T   T
  0.6667516520072363  0.0835552753495595  0.4840073798854349   T   T   T
  0.6667759845552467  0.3337158868168162  0.4840479272335195   T   T   T
  0.6667837201902270  0.5830576084949814  0.4840516466956178   T   T   T
  0.6667720490518235  0.8331943440111313  0.4840009149147496   T   T   T
  0.9168260966348930  0.0834168333158266  0.4840371675616956   T   T   T
  0.9168420990021371  0.3333148903148693  0.4840292474642239   T   T   T
  0.9162159470761094  0.5831010305215466  0.4840999453967656   T   T   T
  0.9168472575039998  0.8335263695933212  0.4840331367774761   T   T   T
  0.5723930219275456  0.5119219000227382  0.6977801414714818   T   T   T
  0.4275809618356033  0.4394910528094023  0.6977724171709694   T   T   T
  0.4275543832688780  0.2380442139289547  0.6977812540425177   T   T   T
  0.5724044726959041  0.3105131158901255  0.6977734600637148   T   T   T
  0.3567626074105142  0.3033801474698284  0.6981744704165319   T   T   T
  0.6432233828376616  0.4466678377739237  0.6981757924127403   T   T   T
  0.6431947038461082  0.2428064715990385  0.7000480615547114   T   T   T
  0.3568731550563173  0.0996335315930057  0.7000607035630118   T   T   T
  0.6431316986304165  0.6504096297926645  0.7000451657541863   T   T   T
  0.3567930456251256  0.5072310526021522  0.7000582883651544   T   T   T
 
  0.00000000E+00  0.00000000E+00  0.00000000E+00
  0.00000000E+00  0.00000000E+00  0.00000000E+00
  0.00000000E+00  0.00000000E+00  0.00000000E+00
  0.00000000E+00  0.00000000E+00  0.00000000E+00
  0.00000000E+00  0.00000000E+00  0.00000000E+00
  0.00000000E+00  0.00000000E+00  0.00000000E+00
  0.00000000E+00  0.00000000E+00  0.00000000E+00
  0.00000000E+00  0.00000000E+00  0.00000000E+00
  0.00000000E+00  0.00000000E+00  0.00000000E+00
  0.00000000E+00  0.00000000E+00  0.00000000E+00
  0.00000000E+00  0.00000000E+00  0.00000000E+00
  0.00000000E+00  0.00000000E+00  0.00000000E+00
  0.00000000E+00  0.00000000E+00  0.00000000E+00
  0.00000000E+00  0.00000000E+00  0.00000000E+00
  0.00000000E+00  0.00000000E+00  0.00000000E+00
  0.00000000E+00  0.00000000E+00  0.00000000E+00
  0.00000000E+00  0.00000000E+00  0.00000000E+00
  0.00000000E+00  0.00000000E+00  0.00000000E+00
  0.00000000E+00  0.00000000E+00  0.00000000E+00
  0.00000000E+00  0.00000000E+00  0.00000000E+00
  0.00000000E+00  0.00000000E+00  0.00000000E+00
  0.00000000E+00  0.00000000E+00  0.00000000E+00
  0.00000000E+00  0.00000000E+00  0.00000000E+00
  0.00000000E+00  0.00000000E+00  0.00000000E+00
  0.00000000E+00  0.00000000E+00  0.00000000E+00
  0.00000000E+00  0.00000000E+00  0.00000000E+00
  0.00000000E+00  0.00000000E+00  0.00000000E+00
  0.00000000E+00  0.00000000E+00  0.00000000E+00
  0.00000000E+00  0.00000000E+00  0.00000000E+00
  0.00000000E+00  0.00000000E+00  0.00000000E+00
  0.00000000E+00  0.00000000E+00  0.00000000E+00
  0.00000000E+00  0.00000000E+00  0.00000000E+00
  0.00000000E+00  0.00000000E+00  0.00000000E+00
  0.00000000E+00  0.00000000E+00  0.00000000E+00
  0.00000000E+00  0.00000000E+00  0.00000000E+00
  0.00000000E+00  0.00000000E+00  0.00000000E+00
  0.00000000E+00  0.00000000E+00  0.00000000E+00
  0.00000000E+00  0.00000000E+00  0.00000000E+00
  0.00000000E+00  0.00000000E+00  0.00000000E+00
  0.00000000E+00  0.00000000E+00  0.00000000E+00
  0.00000000E+00  0.00000000E+00  0.00000000E+00
  0.00000000E+00  0.00000000E+00  0.00000000E+00
  0.00000000E+00  0.00000000E+00  0.00000000E+00
  0.00000000E+00  0.00000000E+00  0.00000000E+00
  0.00000000E+00  0.00000000E+00  0.00000000E+00
  0.00000000E+00  0.00000000E+00  0.00000000E+00
  0.00000000E+00  0.00000000E+00  0.00000000E+00
  0.00000000E+00  0.00000000E+00  0.00000000E+00
  0.00000000E+00  0.00000000E+00  0.00000000E+00
  0.00000000E+00  0.00000000E+00  0.00000000E+00
  0.00000000E+00  0.00000000E+00  0.00000000E+00
  0.00000000E+00  0.00000000E+00  0.00000000E+00
  0.00000000E+00  0.00000000E+00  0.00000000E+00
  0.00000000E+00  0.00000000E+00  0.00000000E+00
  0.00000000E+00  0.00000000E+00  0.00000000E+00
  0.00000000E+00  0.00000000E+00  0.00000000E+00
  0.00000000E+00  0.00000000E+00  0.00000000E+00
  0.00000000E+00  0.00000000E+00  0.00000000E+00
  0.00000000E+00  0.00000000E+00  0.00000000E+00
  0.00000000E+00  0.00000000E+00  0.00000000E+00
  0.00000000E+00  0.00000000E+00  0.00000000E+00
  0.00000000E+00  0.00000000E+00  0.00000000E+00
  0.00000000E+00  0.00000000E+00  0.00000000E+00
  0.00000000E+00  0.00000000E+00  0.00000000E+00
  0.00000000E+00  0.00000000E+00  0.00000000E+00
  0.00000000E+00  0.00000000E+00  0.00000000E+00
  0.00000000E+00  0.00000000E+00  0.00000000E+00
  0.00000000E+00  0.00000000E+00  0.00000000E+00
  0.00000000E+00  0.00000000E+00  0.00000000E+00
  0.00000000E+00  0.00000000E+00  0.00000000E+00
  0.00000000E+00  0.00000000E+00  0.00000000E+00
  0.00000000E+00  0.00000000E+00  0.00000000E+00
  0.00000000E+00  0.00000000E+00  0.00000000E+00
  0.00000000E+00  0.00000000E+00  0.00000000E+00
