Ir48 C4 N2 F4                           
    1.000000000000000     
    10.9622130000000002    0.0000000000000000    0.0000000000000000
    -5.4811069999999997    9.4935550000000006    0.0000000000000000
     0.0000000000000000    0.0000000000000000   17.4753049999999988
   Ir   C    N    F 
    48     4     2     4
Selective dynamics
Direct
  0.0833330000000032  0.1666669999999968  0.3433419999999998   F   F   F
  0.0833330000000032  0.4166669999999968  0.3433419999999998   F   F   F
  0.0833330000000032  0.6666669999999968  0.3433419999999998   F   F   F
  0.0833330000000032  0.9166669999999968  0.3433419999999998   F   F   F
  0.3333330000000032  0.1666669999999968  0.3433419999999998   F   F   F
  0.3333330000000032  0.4166669999999968  0.3433419999999998   F   F   F
  0.3333330000000032  0.6666669999999968  0.3433419999999998   F   F   F
  0.3333330000000032  0.9166669999999968  0.3433419999999998   F   F   F
  0.5833330000000032  0.1666669999999968  0.3433419999999998   F   F   F
  0.5833330000000032  0.4166669999999968  0.3433419999999998   F   F   F
  0.5833330000000032  0.6666669999999968  0.3433419999999998   F   F   F
  0.5833330000000032  0.9166669999999968  0.3433419999999998   F   F   F
  0.8333330000000032  0.1666669999999968  0.3433419999999998   F   F   F
  0.8333330000000032  0.4166669999999968  0.3433419999999998   F   F   F
  0.8333330000000032  0.6666669999999968  0.3433419999999998   F   F   F
  0.8333330000000032  0.9166669999999968  0.3433419999999998   F   F   F
  0.0001101660219334  0.0002636276520889  0.5939139520696344   T   T   T
  0.9998451214036663  0.2500610872375972  0.5938070137498244   T   T   T
  0.9997260506207439  0.5001674582372999  0.5939844058871913   T   T   T
  0.9998220271765277  0.7501753257522168  0.5939501811843826   T   T   T
  0.2498342335167010  0.9999278140460319  0.5938603024835487   T   T   T
  0.2503108358778334  0.2500748470998033  0.5939220794349538   T   T   T
  0.2495616845701392  0.5004290991898586  0.5939441138084263   T   T   T
  0.2498257190898698  0.7502691625187481  0.5939830389667122   T   T   T
  0.4999566033769582  0.9997843005450306  0.5940310264845294   T   T   T
  0.5004642445520489  0.2495223772403818  0.5941022083787502   T   T   T
  0.4999198190022511  0.4996867416189019  0.5939242406103489   T   T   T
  0.4999288501819379  0.7501486410089129  0.5938072751018169   T   T   T
  0.7500585219148732  0.9999348134423158  0.5939820844200696   T   T   T
  0.7502048872966043  0.2500327226707029  0.5940294961735333   T   T   T
  0.7500606402676979  0.5001533765013875  0.5938628569128426   T   T   T
  0.7497261308634080  0.7498805873727363  0.5939160067020950   T   T   T
  0.1666531038849186  0.0833882033262299  0.4684792643035394   T   T   T
  0.1668420976184919  0.3333120521004176  0.4685134296896720   T   T   T
  0.1666926936872315  0.5833066094756845  0.4687010484039860   T   T   T
  0.1665372844996469  0.8333748329200787  0.4685028387932277   T   T   T
  0.4165724112496392  0.0833046897486867  0.4685902738683794   T   T   T
  0.4167227845029728  0.3332776196705680  0.4686000839331115   T   T   T
  0.4166822391413731  0.5831507052368039  0.4685225137717453   T   T   T
  0.4165714945304657  0.8333471687298584  0.4686395437479618   T   T   T
  0.6666230860285864  0.0833656540282277  0.4686432042695614   T   T   T
  0.6666849867240074  0.3334188318105120  0.4685853073299739   T   T   T
  0.6665997064124767  0.5833380761583911  0.4684847853338709   T   T   T
  0.6665882588230403  0.8332799088514591  0.4685922945392775   T   T   T
  0.9167147624788043  0.0834034486141562  0.4685883673317690   T   T   T
  0.9166457024397161  0.3334208126368310  0.4686326360416757   T   T   T
  0.9166218769318064  0.5834599543154084  0.4685004375087232   T   T   T
  0.9166579243176116  0.8333379632984048  0.4685326153967040   T   T   T
  0.5149297454722870  0.4407845558828356  0.7703685329947589   T   T   T
  0.4408448950066912  0.5148865077849720  0.7703831064789739   T   T   T
  0.2351988108826504  0.3092696057514175  0.7703680418516470   T   T   T
  0.3092615684158631  0.2351651437877962  0.7703520231193366   T   T   T
  0.3016119041966689  0.4484768051572843  0.7717027637052496   T   T   T
  0.4484727007813731  0.3015539784201664  0.7717030439896462   T   T   T
  0.2398349717145223  0.0939959232588450  0.7748426500275514   T   T   T
  0.0940152611646070  0.2399136978248961  0.7747636576837920   T   T   T
  0.6561027215932427  0.5100032557562457  0.7748654890168893   T   T   T
  0.5100702667124750  0.6560912121759088  0.7747858644744454   T   T   T
 
  0.00000000E+00  0.00000000E+00  0.00000000E+00
  0.00000000E+00  0.00000000E+00  0.00000000E+00
  0.00000000E+00  0.00000000E+00  0.00000000E+00
  0.00000000E+00  0.00000000E+00  0.00000000E+00
  0.00000000E+00  0.00000000E+00  0.00000000E+00
  0.00000000E+00  0.00000000E+00  0.00000000E+00
  0.00000000E+00  0.00000000E+00  0.00000000E+00
  0.00000000E+00  0.00000000E+00  0.00000000E+00
  0.00000000E+00  0.00000000E+00  0.00000000E+00
  0.00000000E+00  0.00000000E+00  0.00000000E+00
  0.00000000E+00  0.00000000E+00  0.00000000E+00
  0.00000000E+00  0.00000000E+00  0.00000000E+00
  0.00000000E+00  0.00000000E+00  0.00000000E+00
  0.00000000E+00  0.00000000E+00  0.00000000E+00
  0.00000000E+00  0.00000000E+00  0.00000000E+00
  0.00000000E+00  0.00000000E+00  0.00000000E+00
  0.00000000E+00  0.00000000E+00  0.00000000E+00
  0.00000000E+00  0.00000000E+00  0.00000000E+00
  0.00000000E+00  0.00000000E+00  0.00000000E+00
  0.00000000E+00  0.00000000E+00  0.00000000E+00
  0.00000000E+00  0.00000000E+00  0.00000000E+00
  0.00000000E+00  0.00000000E+00  0.00000000E+00
  0.00000000E+00  0.00000000E+00  0.00000000E+00
  0.00000000E+00  0.00000000E+00  0.00000000E+00
  0.00000000E+00  0.00000000E+00  0.00000000E+00
  0.00000000E+00  0.00000000E+00  0.00000000E+00
  0.00000000E+00  0.00000000E+00  0.00000000E+00
  0.00000000E+00  0.00000000E+00  0.00000000E+00
  0.00000000E+00  0.00000000E+00  0.00000000E+00
  0.00000000E+00  0.00000000E+00  0.00000000E+00
  0.00000000E+00  0.00000000E+00  0.00000000E+00
  0.00000000E+00  0.00000000E+00  0.00000000E+00
  0.00000000E+00  0.00000000E+00  0.00000000E+00
  0.00000000E+00  0.00000000E+00  0.00000000E+00
  0.00000000E+00  0.00000000E+00  0.00000000E+00
  0.00000000E+00  0.00000000E+00  0.00000000E+00
  0.00000000E+00  0.00000000E+00  0.00000000E+00
  0.00000000E+00  0.00000000E+00  0.00000000E+00
  0.00000000E+00  0.00000000E+00  0.00000000E+00
  0.00000000E+00  0.00000000E+00  0.00000000E+00
  0.00000000E+00  0.00000000E+00  0.00000000E+00
  0.00000000E+00  0.00000000E+00  0.00000000E+00
  0.00000000E+00  0.00000000E+00  0.00000000E+00
  0.00000000E+00  0.00000000E+00  0.00000000E+00
  0.00000000E+00  0.00000000E+00  0.00000000E+00
  0.00000000E+00  0.00000000E+00  0.00000000E+00
  0.00000000E+00  0.00000000E+00  0.00000000E+00
  0.00000000E+00  0.00000000E+00  0.00000000E+00
  0.00000000E+00  0.00000000E+00  0.00000000E+00
  0.00000000E+00  0.00000000E+00  0.00000000E+00
  0.00000000E+00  0.00000000E+00  0.00000000E+00
  0.00000000E+00  0.00000000E+00  0.00000000E+00
  0.00000000E+00  0.00000000E+00  0.00000000E+00
  0.00000000E+00  0.00000000E+00  0.00000000E+00
  0.00000000E+00  0.00000000E+00  0.00000000E+00
  0.00000000E+00  0.00000000E+00  0.00000000E+00
  0.00000000E+00  0.00000000E+00  0.00000000E+00
  0.00000000E+00  0.00000000E+00  0.00000000E+00
