Cu48 C6 Cl2 H4                          
    1.000000000000000     
    10.2424774999999997    0.0000000000000000    0.0000000000000000
     0.0000000000000000   10.2424774999999997    0.0000000000000000
     0.0000000000000000    0.0000000000000000   16.5502418099999993
   Cu   C    Cl   H 
    48     6     2     4
Selective dynamics
Direct
  0.2499776327568952  0.9997387902564654  0.4091073134520471   T   T   T
  0.2498325132281494  0.2498281392279864  0.4089936672898062   T   T   T
  0.2499795583980244  0.5004236032572962  0.4091892681205920   T   T   T
  0.2500678046792117  0.7499338215996190  0.4093235605848449   T   T   T
  0.4999924025980604  0.9999989848779762  0.4090855909896263   T   T   T
  0.5004199001975280  0.2499804595166637  0.4091861726318982   T   T   T
  0.4999982453912324  0.4999989098272479  0.4090968794300807   T   T   T
  0.4995728499627248  0.7500218581244908  0.4091840316121917   T   T   T
  0.7500230243782156  0.0002550568629047  0.4091190560536475   T   T   T
  0.7499252539342578  0.2500711821967698  0.4093328820543221   T   T   T
  0.7500206580444697  0.4995817334737893  0.4091888126863950   T   T   T
  0.7501749457386566  0.7501666481398530  0.4089981041367707   T   T   T
  0.0000057583405706  0.9999943224246124  0.4091150965834345   T   T   T
  0.9997487347102236  0.2499755585117356  0.4091173496490228   T   T   T
  0.0000034968643732  0.5000084400792346  0.4090933261789189   T   T   T
  0.0002599460348947  0.7500207983877587  0.4091162017646823   T   T   T
  0.1247573627833134  0.1247625627344249  0.5159387426963775   T   T   T
  0.1246218058659494  0.3750567211921307  0.5160938396476453   T   T   T
  0.1248827554699687  0.6249753071040729  0.5163229454507814   T   T   T
  0.1252173013183295  0.8747840898329926  0.5166276377509718   T   T   T
  0.3750604350908660  0.1246211932018539  0.5160869106359200   T   T   T
  0.3750086385974996  0.3750072117678585  0.5147181097620432   T   T   T
  0.3745695526735915  0.6254293778487749  0.5168804646914396   T   T   T
  0.3750236462492538  0.8751187966538794  0.5163224747981303   T   T   T
  0.6249831155941550  0.1248849619150008  0.5163166333726963   T   T   T
  0.6254337245302182  0.3745626061868705  0.5168764184785175   T   T   T
  0.6249925416397701  0.6249927218128661  0.5147163841400868   T   T   T
  0.6249418207666579  0.8753823567726045  0.5160902413983166   T   T   T
  0.8747788704630182  0.1252191828019349  0.5166265710085653   T   T   T
  0.8751163224118059  0.3750159020259147  0.5163230549610276   T   T   T
  0.8753795743998367  0.6249401550246247  0.5160891085429640   T   T   T
  0.8752362256424675  0.8752431772480591  0.5159379589936322   T   T   T
  0.1250000002440785  0.1249999992677573  0.3021103895278969   F   F   F
  0.1250000002440785  0.3749999997559215  0.3021103895278969   F   F   F
  0.1250000002440785  0.6249999982914289  0.3021103895278969   F   F   F
  0.1250000002440785  0.8749999987795931  0.3021103895278969   F   F   F
  0.3749999997559215  0.1249999992677573  0.3021103895278969   F   F   F
  0.3749999997559215  0.3749999997559215  0.3021103895278969   F   F   F
  0.3749999997559215  0.6249999982914289  0.3021103895278969   F   F   F
  0.3749999997559215  0.8749999987795931  0.3021103895278969   F   F   F
  0.6249999982914289  0.1249999992677573  0.3021103895278969   F   F   F
  0.6249999982914289  0.3749999997559215  0.3021103895278969   F   F   F
  0.6249999992677573  0.6249999982914289  0.3021103895278969   F   F   F
  0.6249999992677573  0.8749999987795931  0.3021103895278969   F   F   F
  0.8749999987795931  0.1249999992677573  0.3021103895278969   F   F   F
  0.8749999978032648  0.3749999997559215  0.3021103895278969   F   F   F
  0.8749999987795931  0.6249999982914289  0.3021103895278969   F   F   F
  0.8749999987795931  0.8749999987795931  0.3021103895278969   F   F   F
  0.5959542267232933  0.5959507547488840  0.6861652580617559   T   T   T
  0.6325117971393155  0.4642400435170799  0.6836502955095369   T   T   T
  0.5357378382219622  0.3674853231662709  0.6836495743813700   T   T   T
  0.4040693299225069  0.4040673173094262  0.6861653094573796   T   T   T
  0.3674971484003891  0.5357552263405267  0.6836498326411444   T   T   T
  0.4642441221806308  0.6325168421998200  0.6836534082151076   T   T   T
  0.7152545370933439  0.7152431295808555  0.6928793580627897   T   T   T
  0.2847418725626056  0.2847523094194528  0.6928799208602996   T   T   T
  0.7354364982668784  0.4370950709636574  0.6839124641265499   T   T   T
  0.5628778322047765  0.2645740143513962  0.6839140807565798   T   T   T
  0.2645721161388792  0.5629098837978788  0.6839102686373550   T   T   T
  0.4371251882461138  0.7354369715555862  0.6839142960304656   T   T   T
 
  0.00000000E+00  0.00000000E+00  0.00000000E+00
  0.00000000E+00  0.00000000E+00  0.00000000E+00
  0.00000000E+00  0.00000000E+00  0.00000000E+00
  0.00000000E+00  0.00000000E+00  0.00000000E+00
  0.00000000E+00  0.00000000E+00  0.00000000E+00
  0.00000000E+00  0.00000000E+00  0.00000000E+00
  0.00000000E+00  0.00000000E+00  0.00000000E+00
  0.00000000E+00  0.00000000E+00  0.00000000E+00
  0.00000000E+00  0.00000000E+00  0.00000000E+00
  0.00000000E+00  0.00000000E+00  0.00000000E+00
  0.00000000E+00  0.00000000E+00  0.00000000E+00
  0.00000000E+00  0.00000000E+00  0.00000000E+00
  0.00000000E+00  0.00000000E+00  0.00000000E+00
  0.00000000E+00  0.00000000E+00  0.00000000E+00
  0.00000000E+00  0.00000000E+00  0.00000000E+00
  0.00000000E+00  0.00000000E+00  0.00000000E+00
  0.00000000E+00  0.00000000E+00  0.00000000E+00
  0.00000000E+00  0.00000000E+00  0.00000000E+00
  0.00000000E+00  0.00000000E+00  0.00000000E+00
  0.00000000E+00  0.00000000E+00  0.00000000E+00
  0.00000000E+00  0.00000000E+00  0.00000000E+00
  0.00000000E+00  0.00000000E+00  0.00000000E+00
  0.00000000E+00  0.00000000E+00  0.00000000E+00
  0.00000000E+00  0.00000000E+00  0.00000000E+00
  0.00000000E+00  0.00000000E+00  0.00000000E+00
  0.00000000E+00  0.00000000E+00  0.00000000E+00
  0.00000000E+00  0.00000000E+00  0.00000000E+00
  0.00000000E+00  0.00000000E+00  0.00000000E+00
  0.00000000E+00  0.00000000E+00  0.00000000E+00
  0.00000000E+00  0.00000000E+00  0.00000000E+00
  0.00000000E+00  0.00000000E+00  0.00000000E+00
  0.00000000E+00  0.00000000E+00  0.00000000E+00
  0.00000000E+00  0.00000000E+00  0.00000000E+00
  0.00000000E+00  0.00000000E+00  0.00000000E+00
  0.00000000E+00  0.00000000E+00  0.00000000E+00
  0.00000000E+00  0.00000000E+00  0.00000000E+00
  0.00000000E+00  0.00000000E+00  0.00000000E+00
  0.00000000E+00  0.00000000E+00  0.00000000E+00
  0.00000000E+00  0.00000000E+00  0.00000000E+00
  0.00000000E+00  0.00000000E+00  0.00000000E+00
  0.00000000E+00  0.00000000E+00  0.00000000E+00
  0.00000000E+00  0.00000000E+00  0.00000000E+00
  0.00000000E+00  0.00000000E+00  0.00000000E+00
  0.00000000E+00  0.00000000E+00  0.00000000E+00
  0.00000000E+00  0.00000000E+00  0.00000000E+00
  0.00000000E+00  0.00000000E+00  0.00000000E+00
  0.00000000E+00  0.00000000E+00  0.00000000E+00
  0.00000000E+00  0.00000000E+00  0.00000000E+00
  0.00000000E+00  0.00000000E+00  0.00000000E+00
  0.00000000E+00  0.00000000E+00  0.00000000E+00
  0.00000000E+00  0.00000000E+00  0.00000000E+00
  0.00000000E+00  0.00000000E+00  0.00000000E+00
  0.00000000E+00  0.00000000E+00  0.00000000E+00
  0.00000000E+00  0.00000000E+00  0.00000000E+00
  0.00000000E+00  0.00000000E+00  0.00000000E+00
  0.00000000E+00  0.00000000E+00  0.00000000E+00
  0.00000000E+00  0.00000000E+00  0.00000000E+00
  0.00000000E+00  0.00000000E+00  0.00000000E+00
  0.00000000E+00  0.00000000E+00  0.00000000E+00
  0.00000000E+00  0.00000000E+00  0.00000000E+00
