Cu48 C6 F6                              
    1.000000000000000     
    10.2424769999999992    0.0000000000000000    0.0000000000000000
    -5.1212390000000001    8.8702459999999999    0.0000000000000000
     0.0000000000000000    0.0000000000000000   17.1814740000000015
   Cu   C    F 
    48     6     6
Selective dynamics
Direct
  0.0833330000000032  0.1666669999999968  0.3492129999999989   F   F   F
  0.0833330000000032  0.4166669999999968  0.3492129999999989   F   F   F
  0.0833330000000032  0.6666669999999968  0.3492129999999989   F   F   F
  0.0833330000000032  0.9166669999999968  0.3492129999999989   F   F   F
  0.3333330000000032  0.1666669999999968  0.3492129999999989   F   F   F
  0.3333330000000032  0.4166669999999968  0.3492129999999989   F   F   F
  0.3333330000000032  0.6666669999999968  0.3492129999999989   F   F   F
  0.3333330000000032  0.9166669999999968  0.3492129999999989   F   F   F
  0.5833330000000032  0.1666669999999968  0.3492129999999989   F   F   F
  0.5833330000000032  0.4166669999999968  0.3492129999999989   F   F   F
  0.5833330000000032  0.6666669999999968  0.3492129999999989   F   F   F
  0.5833330000000032  0.9166669999999968  0.3492129999999989   F   F   F
  0.8333330000000032  0.1666669999999968  0.3492129999999989   F   F   F
  0.8333330000000032  0.4166669999999968  0.3492129999999989   F   F   F
  0.8333330000000032  0.6666669999999968  0.3492129999999989   F   F   F
  0.8333330000000032  0.9166669999999968  0.3492129999999989   F   F   F
  0.9997731296181556  0.9998172707549315  0.5887309776775567   T   T   T
  0.9997222530914485  0.2499078107518713  0.5887327633104888   T   T   T
  0.0000864041496342  0.4999267889414227  0.5888472466226204   T   T   T
  0.0000519564916317  0.7499395643685602  0.5888042847809629   T   T   T
  0.2499201753031315  0.9998041206675694  0.5887427320364012   T   T   T
  0.2495863338659206  0.2496758586513437  0.5876738119600802   T   T   T
  0.2501129467938839  0.4998752109300852  0.5874613271964577   T   T   T
  0.2500621461032182  0.7499040934167596  0.5888549207931035   T   T   T
  0.4999250201244649  0.0001114830240354  0.5889026438326184   T   T   T
  0.4998319680172614  0.2501730399670734  0.5874802824309171   T   T   T
  0.5003272699292367  0.5004058695802911  0.5876628760465650   T   T   T
  0.5000947524615782  0.7502740723120240  0.5887442643642586   T   T   T
  0.7499220043918982  0.0000909258566395  0.5888143682852771   T   T   T
  0.7499004088237058  0.2500848696436293  0.5888950765024674   T   T   T
  0.7502043448307418  0.5000759866742541  0.5887408008238211   T   T   T
  0.7501908701704636  0.7502269640186014  0.5887350751361211   T   T   T
  0.1664850723416649  0.0829233375757639  0.4688362372118036   T   T   T
  0.1663905414505535  0.3331333452747671  0.4685967735260874   T   T   T
  0.1664715564412091  0.5835246036229620  0.4688164285229206   T   T   T
  0.1665835223240606  0.8332162939945533  0.4690426678374990   T   T   T
  0.4164485430596230  0.0829458211460476  0.4688488105385389   T   T   T
  0.4166202458485984  0.3333696232808450  0.4684146704935443   T   T   T
  0.4168631968068084  0.5836108276756065  0.4686013672623943   T   T   T
  0.4166350704817390  0.8332805469566296  0.4690997211774999   T   T   T
  0.6665936450060954  0.0834058455972055  0.4691656300488845   T   T   T
  0.6670552772528211  0.3335535798460256  0.4688444213314966   T   T   T
  0.6670845879418579  0.5835164675088222  0.4688364922715635   T   T   T
  0.6667031100877026  0.8333941637507749  0.4690666149679998   T   T   T
  0.9166071920858414  0.0832975039127746  0.4690564123076300   T   T   T
  0.9167216773474394  0.3333678440854300  0.4690842755712055   T   T   T
  0.9167837267032155  0.5834141427407218  0.4690383634523485   T   T   T
  0.9166811242287238  0.8333210792036425  0.4690087789752937   T   T   T
  0.2962263648169454  0.2174694587619541  0.7669911720161338   T   T   T
  0.2174980557823503  0.2962023011479857  0.7669840184442336   T   T   T
  0.2963618559851326  0.4536280803085546  0.7672919250635672   T   T   T
  0.4537864503863744  0.5325081353820593  0.7669866534659704   T   T   T
  0.5325256923412809  0.4537832602642595  0.7669949808031262   T   T   T
  0.4536582768149060  0.2963468215254323  0.7673089864567331   T   T   T
  0.2205484391108072  0.0654875133005817  0.7673246790341608   T   T   T
  0.0655063023493128  0.2205201088664737  0.7673307297434633   T   T   T
  0.2203268320846803  0.5296528935418294  0.7677327809346295   T   T   T
  0.5294548448726815  0.6844906627430234  0.7673272611488855   T   T   T
  0.6845115445673429  0.5294746798989394  0.7673257845642638   T   T   T
  0.5296911073339459  0.2203282148279868  0.7677615498279451   T   T   T
 
  0.00000000E+00  0.00000000E+00  0.00000000E+00
  0.00000000E+00  0.00000000E+00  0.00000000E+00
  0.00000000E+00  0.00000000E+00  0.00000000E+00
  0.00000000E+00  0.00000000E+00  0.00000000E+00
  0.00000000E+00  0.00000000E+00  0.00000000E+00
  0.00000000E+00  0.00000000E+00  0.00000000E+00
  0.00000000E+00  0.00000000E+00  0.00000000E+00
  0.00000000E+00  0.00000000E+00  0.00000000E+00
  0.00000000E+00  0.00000000E+00  0.00000000E+00
  0.00000000E+00  0.00000000E+00  0.00000000E+00
  0.00000000E+00  0.00000000E+00  0.00000000E+00
  0.00000000E+00  0.00000000E+00  0.00000000E+00
  0.00000000E+00  0.00000000E+00  0.00000000E+00
  0.00000000E+00  0.00000000E+00  0.00000000E+00
  0.00000000E+00  0.00000000E+00  0.00000000E+00
  0.00000000E+00  0.00000000E+00  0.00000000E+00
  0.00000000E+00  0.00000000E+00  0.00000000E+00
  0.00000000E+00  0.00000000E+00  0.00000000E+00
  0.00000000E+00  0.00000000E+00  0.00000000E+00
  0.00000000E+00  0.00000000E+00  0.00000000E+00
  0.00000000E+00  0.00000000E+00  0.00000000E+00
  0.00000000E+00  0.00000000E+00  0.00000000E+00
  0.00000000E+00  0.00000000E+00  0.00000000E+00
  0.00000000E+00  0.00000000E+00  0.00000000E+00
  0.00000000E+00  0.00000000E+00  0.00000000E+00
  0.00000000E+00  0.00000000E+00  0.00000000E+00
  0.00000000E+00  0.00000000E+00  0.00000000E+00
  0.00000000E+00  0.00000000E+00  0.00000000E+00
  0.00000000E+00  0.00000000E+00  0.00000000E+00
  0.00000000E+00  0.00000000E+00  0.00000000E+00
  0.00000000E+00  0.00000000E+00  0.00000000E+00
  0.00000000E+00  0.00000000E+00  0.00000000E+00
  0.00000000E+00  0.00000000E+00  0.00000000E+00
  0.00000000E+00  0.00000000E+00  0.00000000E+00
  0.00000000E+00  0.00000000E+00  0.00000000E+00
  0.00000000E+00  0.00000000E+00  0.00000000E+00
  0.00000000E+00  0.00000000E+00  0.00000000E+00
  0.00000000E+00  0.00000000E+00  0.00000000E+00
  0.00000000E+00  0.00000000E+00  0.00000000E+00
  0.00000000E+00  0.00000000E+00  0.00000000E+00
  0.00000000E+00  0.00000000E+00  0.00000000E+00
  0.00000000E+00  0.00000000E+00  0.00000000E+00
  0.00000000E+00  0.00000000E+00  0.00000000E+00
  0.00000000E+00  0.00000000E+00  0.00000000E+00
  0.00000000E+00  0.00000000E+00  0.00000000E+00
  0.00000000E+00  0.00000000E+00  0.00000000E+00
  0.00000000E+00  0.00000000E+00  0.00000000E+00
  0.00000000E+00  0.00000000E+00  0.00000000E+00
  0.00000000E+00  0.00000000E+00  0.00000000E+00
  0.00000000E+00  0.00000000E+00  0.00000000E+00
  0.00000000E+00  0.00000000E+00  0.00000000E+00
  0.00000000E+00  0.00000000E+00  0.00000000E+00
  0.00000000E+00  0.00000000E+00  0.00000000E+00
  0.00000000E+00  0.00000000E+00  0.00000000E+00
  0.00000000E+00  0.00000000E+00  0.00000000E+00
  0.00000000E+00  0.00000000E+00  0.00000000E+00
  0.00000000E+00  0.00000000E+00  0.00000000E+00
  0.00000000E+00  0.00000000E+00  0.00000000E+00
  0.00000000E+00  0.00000000E+00  0.00000000E+00
  0.00000000E+00  0.00000000E+00  0.00000000E+00
