Pt48 C6 F6                              
    1.000000000000000     
    11.2480069999999994    0.0000000000000000    0.0000000000000000
    -5.6240030000000001    9.7410599999999992    0.0000000000000000
     0.0000000000000000    0.0000000000000000   17.5919799999999995
   Pt   C    F 
    48     6     6
Selective dynamics
Direct
  0.0833330000000032  0.1666669999999968  0.3410650000000004   F   F   F
  0.0833330000000032  0.4166669999999968  0.3410650000000004   F   F   F
  0.0833330000000032  0.6666669999999968  0.3410650000000004   F   F   F
  0.0833330000000032  0.9166669999999968  0.3410650000000004   F   F   F
  0.3333330000000032  0.1666669999999968  0.3410650000000004   F   F   F
  0.3333330000000032  0.4166669999999968  0.3410650000000004   F   F   F
  0.3333330000000032  0.6666669999999968  0.3410650000000004   F   F   F
  0.3333330000000032  0.9166669999999968  0.3410650000000004   F   F   F
  0.5833330000000032  0.1666669999999968  0.3410650000000004   F   F   F
  0.5833330000000032  0.4166669999999968  0.3410650000000004   F   F   F
  0.5833330000000032  0.6666669999999968  0.3410650000000004   F   F   F
  0.5833330000000032  0.9166669999999968  0.3410650000000004   F   F   F
  0.8333330000000032  0.1666669999999968  0.3410650000000004   F   F   F
  0.8333330000000032  0.4166669999999968  0.3410650000000004   F   F   F
  0.8333330000000032  0.6666669999999968  0.3410650000000004   F   F   F
  0.8333330000000032  0.9166669999999968  0.3410650000000004   F   F   F
  0.2499052081121675  0.2500542675234740  0.6059970169376072   T   T   T
  0.2497296547040335  0.4999725790483751  0.6059116103721749   T   T   T
  0.2499097790581359  0.7500738976163603  0.6059821562508958   T   T   T
  0.2498404136600172  0.0001202496112995  0.6059997026468835   T   T   T
  0.5000111432386944  0.2499491140749441  0.6059064113851491   T   T   T
  0.4997387972793845  0.4999451043685355  0.6052319413746901   T   T   T
  0.4997901301200969  0.7501568360025814  0.6047069846998312   T   T   T
  0.4998786904378747  0.0000500911128682  0.6059920035700728   T   T   T
  0.7499102223395795  0.2500106326109517  0.6059853949910021   T   T   T
  0.7499103919886636  0.5000391795272634  0.6046095121174559   T   T   T
  0.7500141237432913  0.7502154315072431  0.6052359765708317   T   T   T
  0.7499881065510650  0.0002332325788643  0.6059196095315258   T   T   T
  0.9998634165998084  0.2501024412642963  0.6059547688342732   T   T   T
  0.9999527000311161  0.5000451603586171  0.6059855379059016   T   T   T
  0.0000125036873584  0.7499502700978127  0.6059096322354094   T   T   T
  0.9999093565359516  0.0000554816237823  0.6059920081535637   T   T   T
  0.1665812429886984  0.0833792277908145  0.4735726930628488   T   T   T
  0.1664889208379776  0.3331979853455778  0.4735548840564974   T   T   T
  0.1667312330073258  0.5833358315532848  0.4735390575072813   T   T   T
  0.1667379802844593  0.8334812683402220  0.4735646725476386   T   T   T
  0.4165128945175169  0.0832372112300988  0.4735717474382213   T   T   T
  0.4164243643485150  0.3329427129460214  0.4734436456868849   T   T   T
  0.4162193060431463  0.5830521591064297  0.4731753892805486   T   T   T
  0.4164425149401296  0.8335460194782129  0.4732886716327513   T   T   T
  0.6666208985869133  0.0832420934676819  0.4735379177345607   T   T   T
  0.6664005390685119  0.3329109270298147  0.4732780630760374   T   T   T
  0.6665215883335662  0.5834344967529859  0.4729918873529257   T   T   T
  0.6669255346079055  0.8337607549375008  0.4731654507833269   T   T   T
  0.9167855268114025  0.0834815959602011  0.4735473077125718   T   T   T
  0.9165806437762001  0.3334073586466744  0.4735553810538562   T   T   T
  0.9170623312251038  0.5835648209204507  0.4732710695728102   T   T   T
  0.9170539094884447  0.8335755137632574  0.4734309079216885   T   T   T
  0.6966989201872309  0.7686049100742025  0.7868846398480542   T   T   T
  0.7686134813358620  0.6966562456141503  0.7868876773170825   T   T   T
  0.6969407671710570  0.5532205973053763  0.7875547239179994   T   T   T
  0.5535109020340201  0.4815666495352104  0.7869039739922670   T   T   T
  0.4815882032539847  0.5534631143487800  0.7868994188029816   T   T   T
  0.5532481669755214  0.6968743929417442  0.7875410992070044   T   T   T
  0.7656867611078866  0.9066714287371624  0.7883719641350666   T   T   T
  0.9066981105269534  0.7656984073626276  0.7883681217632557   T   T   T
  0.7660118589105096  0.4841339187813389  0.7899365931164084   T   T   T
  0.4844895960495776  0.3434589148043301  0.7883957758405487   T   T   T
  0.3434855874904912  0.4844572608640476  0.7883928158433307   T   T   T
  0.4841283506785317  0.7659780261472022  0.7899105026316704   T   T   T
 
  0.00000000E+00  0.00000000E+00  0.00000000E+00
  0.00000000E+00  0.00000000E+00  0.00000000E+00
  0.00000000E+00  0.00000000E+00  0.00000000E+00
  0.00000000E+00  0.00000000E+00  0.00000000E+00
  0.00000000E+00  0.00000000E+00  0.00000000E+00
  0.00000000E+00  0.00000000E+00  0.00000000E+00
  0.00000000E+00  0.00000000E+00  0.00000000E+00
  0.00000000E+00  0.00000000E+00  0.00000000E+00
  0.00000000E+00  0.00000000E+00  0.00000000E+00
  0.00000000E+00  0.00000000E+00  0.00000000E+00
  0.00000000E+00  0.00000000E+00  0.00000000E+00
  0.00000000E+00  0.00000000E+00  0.00000000E+00
  0.00000000E+00  0.00000000E+00  0.00000000E+00
  0.00000000E+00  0.00000000E+00  0.00000000E+00
  0.00000000E+00  0.00000000E+00  0.00000000E+00
  0.00000000E+00  0.00000000E+00  0.00000000E+00
  0.00000000E+00  0.00000000E+00  0.00000000E+00
  0.00000000E+00  0.00000000E+00  0.00000000E+00
  0.00000000E+00  0.00000000E+00  0.00000000E+00
  0.00000000E+00  0.00000000E+00  0.00000000E+00
  0.00000000E+00  0.00000000E+00  0.00000000E+00
  0.00000000E+00  0.00000000E+00  0.00000000E+00
  0.00000000E+00  0.00000000E+00  0.00000000E+00
  0.00000000E+00  0.00000000E+00  0.00000000E+00
  0.00000000E+00  0.00000000E+00  0.00000000E+00
  0.00000000E+00  0.00000000E+00  0.00000000E+00
  0.00000000E+00  0.00000000E+00  0.00000000E+00
  0.00000000E+00  0.00000000E+00  0.00000000E+00
  0.00000000E+00  0.00000000E+00  0.00000000E+00
  0.00000000E+00  0.00000000E+00  0.00000000E+00
  0.00000000E+00  0.00000000E+00  0.00000000E+00
  0.00000000E+00  0.00000000E+00  0.00000000E+00
  0.00000000E+00  0.00000000E+00  0.00000000E+00
  0.00000000E+00  0.00000000E+00  0.00000000E+00
  0.00000000E+00  0.00000000E+00  0.00000000E+00
  0.00000000E+00  0.00000000E+00  0.00000000E+00
  0.00000000E+00  0.00000000E+00  0.00000000E+00
  0.00000000E+00  0.00000000E+00  0.00000000E+00
  0.00000000E+00  0.00000000E+00  0.00000000E+00
  0.00000000E+00  0.00000000E+00  0.00000000E+00
  0.00000000E+00  0.00000000E+00  0.00000000E+00
  0.00000000E+00  0.00000000E+00  0.00000000E+00
  0.00000000E+00  0.00000000E+00  0.00000000E+00
  0.00000000E+00  0.00000000E+00  0.00000000E+00
  0.00000000E+00  0.00000000E+00  0.00000000E+00
  0.00000000E+00  0.00000000E+00  0.00000000E+00
  0.00000000E+00  0.00000000E+00  0.00000000E+00
  0.00000000E+00  0.00000000E+00  0.00000000E+00
  0.00000000E+00  0.00000000E+00  0.00000000E+00
  0.00000000E+00  0.00000000E+00  0.00000000E+00
  0.00000000E+00  0.00000000E+00  0.00000000E+00
  0.00000000E+00  0.00000000E+00  0.00000000E+00
  0.00000000E+00  0.00000000E+00  0.00000000E+00
  0.00000000E+00  0.00000000E+00  0.00000000E+00
  0.00000000E+00  0.00000000E+00  0.00000000E+00
  0.00000000E+00  0.00000000E+00  0.00000000E+00
  0.00000000E+00  0.00000000E+00  0.00000000E+00
  0.00000000E+00  0.00000000E+00  0.00000000E+00
  0.00000000E+00  0.00000000E+00  0.00000000E+00
  0.00000000E+00  0.00000000E+00  0.00000000E+00
