Au48 C6 H2 F4                           
    1.000000000000000     
    11.7981856999999994    0.0000000000000000    0.0000000000000000
     0.0000000000000000   11.7981856999999994    0.0000000000000000
     0.0000000000000000    0.0000000000000000   17.1718797199999997
   Au   C    H    F 
    48     6     2     4
Selective dynamics
Direct
  0.2497264836948787  0.0001370136134469  0.4126268237280541   T   T   T
  0.2497687899626229  0.2497569162611910  0.4125433709707380   T   T   T
  0.2494414472985369  0.4997875312737321  0.4121864038570138   T   T   T
  0.2493961969561127  0.7506123117478936  0.4122786825224836   T   T   T
  0.5000081714049571  0.0000130260137681  0.4125506431988057   T   T   T
  0.4997774212571358  0.2494631013319335  0.4121995907007019   T   T   T
  0.5000035082827523  0.5000050807481671  0.4121434794130181   T   T   T
  0.5002149206494053  0.7505615414864977  0.4121933051596329   T   T   T
  0.7502630157545482  0.9998825060553500  0.4126196338352699   T   T   T
  0.7506058073988058  0.2494097345760053  0.4122807954979706   T   T   T
  0.7505476363933710  0.5002277068176681  0.4122027567214346   T   T   T
  0.7502417325911068  0.7502355207352451  0.4125460041276412   T   T   T
  0.0000032789456696  0.0000005853652567  0.4127606180651284   T   T   T
  0.0001288414684595  0.2497324555509692  0.4126200166400338   T   T   T
  0.9999984601535559  0.4999972287939585  0.4125461688741368   T   T   T
  0.9998601112226098  0.7502767899138476  0.4126212236277595   T   T   T
  0.1250744544521183  0.1250846639653744  0.5343425898574807   T   T   T
  0.1251040630417180  0.3749128904108048  0.5338931845761934   T   T   T
  0.1246777724202417  0.6250594954652087  0.5337736309902610   T   T   T
  0.1249100867103294  0.8750883707023007  0.5342231072822301   T   T   T
  0.3749232568465217  0.1251111761409334  0.5339000087911501   T   T   T
  0.3748001589725547  0.3748224481507094  0.5332263457240529   T   T   T
  0.3744456493574262  0.6255559246939413  0.5313681118011431   T   T   T
  0.3749425415901300  0.8753317255577286  0.5337753994831758   T   T   T
  0.6250534178159484  0.1247085910688028  0.5337907617370163   T   T   T
  0.6255543924953102  0.3744622454006006  0.5313997385913609   T   T   T
  0.6251873077284600  0.6252102644486470  0.5332415825818657   T   T   T
  0.6250867655677155  0.8749103324803755  0.5338952712427840   T   T   T
  0.8750913179154125  0.1249175604807817  0.5342129014303652   T   T   T
  0.8753193045089915  0.3749572803216736  0.5337912472353210   T   T   T
  0.8748980627062295  0.6250799551132999  0.5339010110438167   T   T   T
  0.8749199937106198  0.8749363380485207  0.5343330450116994   T   T   T
  0.1249999997881019  0.1250000006356942  0.2911737143241524   F   F   F
  0.1250000006356942  0.3750000010594832  0.2911737143241524   F   F   F
  0.1250000006356942  0.6250000006356942  0.2911737143241524   F   F   F
  0.1250000006356942  0.8750000019070754  0.2911737143241524   F   F   F
  0.3750000010594832  0.1250000006356942  0.2911737143241524   F   F   F
  0.3750000010594832  0.3750000010594832  0.2911737143241524   F   F   F
  0.3750000010594832  0.6250000006356942  0.2911737143241524   F   F   F
  0.3750000010594832  0.8750000019070754  0.2911737143241524   F   F   F
  0.6250000006356942  0.1250000006356942  0.2911737143241524   F   F   F
  0.6250000014832793  0.3750000010594832  0.2911737143241524   F   F   F
  0.6250000014832793  0.6250000006356942  0.2911737143241524   F   F   F
  0.6250000014832793  0.8750000019070754  0.2911737143241524   F   F   F
  0.8750000019070754  0.1250000006356942  0.2911737143241524   F   F   F
  0.8750000019070754  0.3750000010594832  0.2911737143241524   F   F   F
  0.8750000019070754  0.6250000006356942  0.2911737143241524   F   F   F
  0.8750000019070754  0.8750000019070754  0.2911737143241524   F   F   F
  0.4155791356649488  0.4155563245586862  0.7144584237409859   T   T   T
  0.3862746651251641  0.5299350969496075  0.7151744748583226   T   T   T
  0.4699983033398496  0.6136532926245408  0.7151791664998939   T   T   T
  0.5843766212491630  0.5843024851411585  0.7144620674136206   T   T   T
  0.6136826823816151  0.4699607894069970  0.7152776182788187   T   T   T
  0.5299483466365658  0.3862072592296641  0.7152690666881867   T   T   T
  0.3503279154416816  0.3503203728774125  0.7152006678714002   T   T   T
  0.6496719921967866  0.6496199108463117  0.7152365506323264   T   T   T
  0.2758268559603607  0.5603952286484741  0.7169584318940494   T   T   T
  0.4395791161809228  0.7241464979064460  0.7169897800354121   T   T   T
  0.7241950662706316  0.4395169877214471  0.7170030036375863   T   T   T
  0.5603845216444086  0.2757769364921785  0.7169776218891357   T   T   T
 
  0.00000000E+00  0.00000000E+00  0.00000000E+00
  0.00000000E+00  0.00000000E+00  0.00000000E+00
  0.00000000E+00  0.00000000E+00  0.00000000E+00
  0.00000000E+00  0.00000000E+00  0.00000000E+00
  0.00000000E+00  0.00000000E+00  0.00000000E+00
  0.00000000E+00  0.00000000E+00  0.00000000E+00
  0.00000000E+00  0.00000000E+00  0.00000000E+00
  0.00000000E+00  0.00000000E+00  0.00000000E+00
  0.00000000E+00  0.00000000E+00  0.00000000E+00
  0.00000000E+00  0.00000000E+00  0.00000000E+00
  0.00000000E+00  0.00000000E+00  0.00000000E+00
  0.00000000E+00  0.00000000E+00  0.00000000E+00
  0.00000000E+00  0.00000000E+00  0.00000000E+00
  0.00000000E+00  0.00000000E+00  0.00000000E+00
  0.00000000E+00  0.00000000E+00  0.00000000E+00
  0.00000000E+00  0.00000000E+00  0.00000000E+00
  0.00000000E+00  0.00000000E+00  0.00000000E+00
  0.00000000E+00  0.00000000E+00  0.00000000E+00
  0.00000000E+00  0.00000000E+00  0.00000000E+00
  0.00000000E+00  0.00000000E+00  0.00000000E+00
  0.00000000E+00  0.00000000E+00  0.00000000E+00
  0.00000000E+00  0.00000000E+00  0.00000000E+00
  0.00000000E+00  0.00000000E+00  0.00000000E+00
  0.00000000E+00  0.00000000E+00  0.00000000E+00
  0.00000000E+00  0.00000000E+00  0.00000000E+00
  0.00000000E+00  0.00000000E+00  0.00000000E+00
  0.00000000E+00  0.00000000E+00  0.00000000E+00
  0.00000000E+00  0.00000000E+00  0.00000000E+00
  0.00000000E+00  0.00000000E+00  0.00000000E+00
  0.00000000E+00  0.00000000E+00  0.00000000E+00
  0.00000000E+00  0.00000000E+00  0.00000000E+00
  0.00000000E+00  0.00000000E+00  0.00000000E+00
  0.00000000E+00  0.00000000E+00  0.00000000E+00
  0.00000000E+00  0.00000000E+00  0.00000000E+00
  0.00000000E+00  0.00000000E+00  0.00000000E+00
  0.00000000E+00  0.00000000E+00  0.00000000E+00
  0.00000000E+00  0.00000000E+00  0.00000000E+00
  0.00000000E+00  0.00000000E+00  0.00000000E+00
  0.00000000E+00  0.00000000E+00  0.00000000E+00
  0.00000000E+00  0.00000000E+00  0.00000000E+00
  0.00000000E+00  0.00000000E+00  0.00000000E+00
  0.00000000E+00  0.00000000E+00  0.00000000E+00
  0.00000000E+00  0.00000000E+00  0.00000000E+00
  0.00000000E+00  0.00000000E+00  0.00000000E+00
  0.00000000E+00  0.00000000E+00  0.00000000E+00
  0.00000000E+00  0.00000000E+00  0.00000000E+00
  0.00000000E+00  0.00000000E+00  0.00000000E+00
  0.00000000E+00  0.00000000E+00  0.00000000E+00
  0.00000000E+00  0.00000000E+00  0.00000000E+00
  0.00000000E+00  0.00000000E+00  0.00000000E+00
  0.00000000E+00  0.00000000E+00  0.00000000E+00
  0.00000000E+00  0.00000000E+00  0.00000000E+00
  0.00000000E+00  0.00000000E+00  0.00000000E+00
  0.00000000E+00  0.00000000E+00  0.00000000E+00
  0.00000000E+00  0.00000000E+00  0.00000000E+00
  0.00000000E+00  0.00000000E+00  0.00000000E+00
  0.00000000E+00  0.00000000E+00  0.00000000E+00
  0.00000000E+00  0.00000000E+00  0.00000000E+00
  0.00000000E+00  0.00000000E+00  0.00000000E+00
  0.00000000E+00  0.00000000E+00  0.00000000E+00
