Au48 C6 Br6                             
    1.000000000000000     
    11.7981856999999994    0.0000000000000000    0.0000000000000000
     0.0000000000000000   16.6851543000000007    0.0000000000000000
     0.0000000000000000    0.0000000000000000   15.8907178400000006
   Au   C    Br
    48     6     6
Selective dynamics
Direct
  0.9999931020763242  0.2497440626489507  0.4056437696507729   T   T   T
  0.0000005773929672  0.5000004455462346  0.4054041031655586   T   T   T
  0.0000062466027089  0.7502580988220870  0.4056426184603339   T   T   T
  0.9999987515007334  0.9999976142950544  0.4056611006133224   T   T   T
  0.2494113137681211  0.2499099412865178  0.4050743982052154   T   T   T
  0.2495319779236524  0.5000400450748899  0.4052265161055146   T   T   T
  0.2495794428869758  0.7501752693622379  0.4051008186857743   T   T   T
  0.2502622476285268  0.0000320813118861  0.4056842087242387   T   T   T
  0.4999613442123092  0.2498170847131149  0.4048807863722246   T   T   T
  0.5000003913087312  0.5000001340872302  0.4070206579662283   T   T   T
  0.5000391214420432  0.7501833703436915  0.4048814699107979   T   T   T
  0.5000001220721373  0.9999996566337401  0.4060067422200646   T   T   T
  0.7504206798563686  0.2498252884806291  0.4050991478512955   T   T   T
  0.7504682176851745  0.4999605265047364  0.4052245572407003   T   T   T
  0.7505899622431684  0.7500921234554170  0.4050722673715796   T   T   T
  0.7497390911653596  0.9999651532981062  0.4056814370733974   T   T   T
  0.1252213049046773  0.1248755258833398  0.4966291750882661   T   T   T
  0.1237689338728387  0.3751799654929897  0.4966934147728423   T   T   T
  0.1239177219910133  0.6252139960513361  0.4966518245718206   T   T   T
  0.1253335787747361  0.8751671425009846  0.4966224379614204   T   T   T
  0.3751342787500889  0.1257920088433693  0.4965549437021934   T   T   T
  0.3741753996369184  0.3750316614194560  0.4948722732265836   T   T   T
  0.3741497265876177  0.6249235348443491  0.4949295436777277   T   T   T
  0.3752204621383015  0.8743675188381772  0.4966028091252142   T   T   T
  0.6247802577522208  0.1256334131485843  0.4966033497003579   T   T   T
  0.6258525123191347  0.3750761172324246  0.4949273403725485   T   T   T
  0.6258278559885611  0.6249681131876130  0.4948723323293720   T   T   T
  0.6248636574219546  0.8742082964844897  0.4965547583929251   T   T   T
  0.8746687887282079  0.1248331070931670  0.4966236069437642   T   T   T
  0.8760816969133884  0.3747865403491346  0.4966503711357220   T   T   T
  0.8762305096243779  0.6248201496935408  0.4966937484714293   T   T   T
  0.8747782478649455  0.8751243030282367  0.4966296089661029   T   T   T
  0.1250000006356942  0.1249999995504965  0.3146490958019541   F   F   F
  0.1250000006356942  0.3749999992508322  0.3146490958019541   F   F   F
  0.1250000006356942  0.6249999983518251  0.3146490958019541   F   F   F
  0.1250000006356942  0.8749999974528251  0.3146490958019541   F   F   F
  0.3750000002118981  0.1249999995504965  0.3146490958019541   F   F   F
  0.3750000002118981  0.3749999992508322  0.3146490958019541   F   F   F
  0.3750000010594832  0.6249999983518251  0.3146490958019541   F   F   F
  0.3750000010594832  0.8749999974528251  0.3146490958019541   F   F   F
  0.6250000006356942  0.1249999995504965  0.3146490958019541   F   F   F
  0.6250000006356942  0.3749999992508322  0.3146490958019541   F   F   F
  0.6250000014832793  0.6249999983518251  0.3146490958019541   F   F   F
  0.6250000006356942  0.8749999974528251  0.3146490958019541   F   F   F
  0.8750000010594832  0.1249999995504965  0.3146490958019541   F   F   F
  0.8750000010594832  0.3749999992508322  0.3146490958019541   F   F   F
  0.8750000019070754  0.6249999983518251  0.3146490958019541   F   F   F
  0.8750000010594832  0.8749999974528251  0.3146490958019541   F   F   F
  0.3809800716088034  0.5074896983985440  0.6913780863764742   T   T   T
  0.4497265757360651  0.5762981606589221  0.6928866467772963   T   T   T
  0.5684166212984820  0.5687735962854603  0.6929731865667463   T   T   T
  0.6190299222320661  0.4925194881338300  0.6913783094052732   T   T   T
  0.5502719780960135  0.4237196448905038  0.6928826481734731   T   T   T
  0.4315941000100665  0.4312415618999310  0.6929784663721961   T   T   T
  0.2221311348443820  0.5173133584828093  0.6829385436032140   T   T   T
  0.3825165340921117  0.6791912623414973  0.6917157526518096   T   T   T
  0.6602616844739870  0.6617504289464264  0.6922954710039875   T   T   T
  0.7778512648239158  0.4826880134543785  0.6829226323088449   T   T   T
  0.6174912401550614  0.3207925909368399  0.6917272681623956   T   T   T
  0.3397147613705442  0.3382281302324799  0.6922884873310764   T   T   T
 
  0.00000000E+00  0.00000000E+00  0.00000000E+00
  0.00000000E+00  0.00000000E+00  0.00000000E+00
  0.00000000E+00  0.00000000E+00  0.00000000E+00
  0.00000000E+00  0.00000000E+00  0.00000000E+00
  0.00000000E+00  0.00000000E+00  0.00000000E+00
  0.00000000E+00  0.00000000E+00  0.00000000E+00
  0.00000000E+00  0.00000000E+00  0.00000000E+00
  0.00000000E+00  0.00000000E+00  0.00000000E+00
  0.00000000E+00  0.00000000E+00  0.00000000E+00
  0.00000000E+00  0.00000000E+00  0.00000000E+00
  0.00000000E+00  0.00000000E+00  0.00000000E+00
  0.00000000E+00  0.00000000E+00  0.00000000E+00
  0.00000000E+00  0.00000000E+00  0.00000000E+00
  0.00000000E+00  0.00000000E+00  0.00000000E+00
  0.00000000E+00  0.00000000E+00  0.00000000E+00
  0.00000000E+00  0.00000000E+00  0.00000000E+00
  0.00000000E+00  0.00000000E+00  0.00000000E+00
  0.00000000E+00  0.00000000E+00  0.00000000E+00
  0.00000000E+00  0.00000000E+00  0.00000000E+00
  0.00000000E+00  0.00000000E+00  0.00000000E+00
  0.00000000E+00  0.00000000E+00  0.00000000E+00
  0.00000000E+00  0.00000000E+00  0.00000000E+00
  0.00000000E+00  0.00000000E+00  0.00000000E+00
  0.00000000E+00  0.00000000E+00  0.00000000E+00
  0.00000000E+00  0.00000000E+00  0.00000000E+00
  0.00000000E+00  0.00000000E+00  0.00000000E+00
  0.00000000E+00  0.00000000E+00  0.00000000E+00
  0.00000000E+00  0.00000000E+00  0.00000000E+00
  0.00000000E+00  0.00000000E+00  0.00000000E+00
  0.00000000E+00  0.00000000E+00  0.00000000E+00
  0.00000000E+00  0.00000000E+00  0.00000000E+00
  0.00000000E+00  0.00000000E+00  0.00000000E+00
  0.00000000E+00  0.00000000E+00  0.00000000E+00
  0.00000000E+00  0.00000000E+00  0.00000000E+00
  0.00000000E+00  0.00000000E+00  0.00000000E+00
  0.00000000E+00  0.00000000E+00  0.00000000E+00
  0.00000000E+00  0.00000000E+00  0.00000000E+00
  0.00000000E+00  0.00000000E+00  0.00000000E+00
  0.00000000E+00  0.00000000E+00  0.00000000E+00
  0.00000000E+00  0.00000000E+00  0.00000000E+00
  0.00000000E+00  0.00000000E+00  0.00000000E+00
  0.00000000E+00  0.00000000E+00  0.00000000E+00
  0.00000000E+00  0.00000000E+00  0.00000000E+00
  0.00000000E+00  0.00000000E+00  0.00000000E+00
  0.00000000E+00  0.00000000E+00  0.00000000E+00
  0.00000000E+00  0.00000000E+00  0.00000000E+00
  0.00000000E+00  0.00000000E+00  0.00000000E+00
  0.00000000E+00  0.00000000E+00  0.00000000E+00
  0.00000000E+00  0.00000000E+00  0.00000000E+00
  0.00000000E+00  0.00000000E+00  0.00000000E+00
  0.00000000E+00  0.00000000E+00  0.00000000E+00
  0.00000000E+00  0.00000000E+00  0.00000000E+00
  0.00000000E+00  0.00000000E+00  0.00000000E+00
  0.00000000E+00  0.00000000E+00  0.00000000E+00
  0.00000000E+00  0.00000000E+00  0.00000000E+00
  0.00000000E+00  0.00000000E+00  0.00000000E+00
  0.00000000E+00  0.00000000E+00  0.00000000E+00
  0.00000000E+00  0.00000000E+00  0.00000000E+00
  0.00000000E+00  0.00000000E+00  0.00000000E+00
  0.00000000E+00  0.00000000E+00  0.00000000E+00
