Ir48 C4 N2 F4                           
    1.000000000000000     
    10.9622135000000007    0.0000000000000000    0.0000000000000000
     0.0000000000000000   10.9622135000000007    0.0000000000000000
     0.0000000000000000    0.0000000000000000   16.7325000400000015
   Ir   C    N    F 
    48     4     2     4
Selective dynamics
Direct
 -0.0008645050803500  0.2494522990498221  0.4094999602313800   T   T   T
  0.0000023810950243  0.4999995745437428  0.4094958363219411   T   T   T
  0.0008689166250219  0.7505479673760954  0.4094994595240572   T   T   T
  0.0000009702851250  0.0000005950993223  0.4095081208687289   T   T   T
  0.2505343500708053  0.2505370279898902  0.4102014539857745   T   T   T
  0.2507537044770534  0.4998550094320960  0.4102103748452032   T   T   T
  0.2526202789009488  0.7473779615908487  0.4119032024084252   T   T   T
  0.2494494041094583 -0.0008665131613523  0.4094967468641212   T   T   T
  0.4998571687155604  0.2507570605174543  0.4102091380463274   T   T   T
  0.5000023671223235  0.5000013739210478  0.4109534076544052   T   T   T
  0.5001464967646536  0.7492412123907027  0.4102127650390355   T   T   T
  0.5000008892544814  0.0000025380864235  0.4094925839531476   T   T   T
  0.7473769887738320  0.2526229233943452  0.4119024684594861   T   T   T
  0.7492434456560705  0.5001446002436850  0.4102108279090245   T   T   T
  0.7494647544387704  0.7494618344935359  0.4102028973275416   T   T   T
  0.7505502473926341  0.0008699476226383  0.4094990522556797   T   T   T
  0.1249547464466415  0.1249547878306980  0.5211628917711008   T   T   T
  0.1225992648006465  0.3745101430960153  0.5210324970823210   T   T   T
  0.1233009790294111  0.6246721857714691  0.5219657368521071   T   T   T
  0.1248352927627189  0.8751647317113382  0.5213264443827342   T   T   T
  0.3745098772731915  0.1225984124945421  0.5210333294981689   T   T   T
  0.3719601306467021  0.3719617138964439  0.5227029027213197   T   T   T
  0.3741621144005319  0.6258378252050956  0.5312702578886703   T   T   T
  0.3753259465177958  0.8767001634304568  0.5219654777127130   T   T   T
  0.6246737541414198  0.1233011785774175  0.5219643248248340   T   T   T
  0.6258349913529972  0.3741674167815519  0.5312733433619858   T   T   T
  0.6280361709796138  0.6280347784122658  0.5227043565634493   T   T   T
  0.6254908027836732  0.8774034000709006  0.5210350886224379   T   T   T
  0.8751659161678703  0.1248349401704701  0.5213249909569501   T   T   T
  0.8767023482353227  0.3753287253888273  0.5219642137877007   T   T   T
  0.8774038790895803  0.6254895795058604  0.5210332711801703   T   T   T
  0.8750490399625889  0.8750470052711874  0.5211654205013340   T   T   T
  0.1250000002280558  0.1250000002280558  0.2988196616194330   F   F   F
  0.1250000002280558  0.3749999997719442  0.2988196616194330   F   F   F
  0.1250000002280558  0.6249999993158326  0.2988196616194330   F   F   F
  0.1250000002280558  0.8749999988597210  0.2988196616194330   F   F   F
  0.3749999997719442  0.1250000002280558  0.2988196616194330   F   F   F
  0.3749999997719442  0.3749999997719442  0.2988196616194330   F   F   F
  0.3749999997719442  0.6249999993158326  0.2988196616194330   F   F   F
  0.3749999997719442  0.8749999988597210  0.2988196616194330   F   F   F
  0.6249999993158326  0.1250000002280558  0.2988196616194330   F   F   F
  0.6249999993158326  0.3749999997719442  0.2988196616194330   F   F   F
  0.6249999993158326  0.6249999993158326  0.2988196616194330   F   F   F
  0.6249999993158326  0.8749999988597210  0.2988196616194330   F   F   F
  0.8749999988597210  0.1250000002280558  0.2988196616194330   F   F   F
  0.8749999988597210  0.3749999997719442  0.2988196616194330   F   F   F
  0.8749999988597210  0.6249999993158326  0.2988196616194330   F   F   F
  0.8749999988597210  0.8749999988597210  0.2988196616194330   F   F   F
  0.5299386151062425  0.3765537781054057  0.6468762738053310   T   T   T
  0.6234420667272461  0.4700192758801131  0.6468732288278997   T   T   T
  0.4700513592836408  0.6234518263574396  0.6468771406055457   T   T   T
  0.3765478901479307  0.5299820529710779  0.6468754081915452   T   T   T
  0.5942104233556312  0.5941870142213654  0.6425671271708424   T   T   T
  0.4057853393051853  0.4058147069233824  0.6425688888132071   T   T   T
  0.2734104396568329  0.5521869915529926  0.6906336305464994   T   T   T
  0.4478743723156600  0.7265997154086902  0.6906294571087030   T   T   T
  0.5521160272666207  0.2733987678268747  0.6906241061817101   T   T   T
  0.7265779621526807  0.4478110413226087  0.6906365939153051   T   T   T
 
  0.00000000E+00  0.00000000E+00  0.00000000E+00
  0.00000000E+00  0.00000000E+00  0.00000000E+00
  0.00000000E+00  0.00000000E+00  0.00000000E+00
  0.00000000E+00  0.00000000E+00  0.00000000E+00
  0.00000000E+00  0.00000000E+00  0.00000000E+00
  0.00000000E+00  0.00000000E+00  0.00000000E+00
  0.00000000E+00  0.00000000E+00  0.00000000E+00
  0.00000000E+00  0.00000000E+00  0.00000000E+00
  0.00000000E+00  0.00000000E+00  0.00000000E+00
  0.00000000E+00  0.00000000E+00  0.00000000E+00
  0.00000000E+00  0.00000000E+00  0.00000000E+00
  0.00000000E+00  0.00000000E+00  0.00000000E+00
  0.00000000E+00  0.00000000E+00  0.00000000E+00
  0.00000000E+00  0.00000000E+00  0.00000000E+00
  0.00000000E+00  0.00000000E+00  0.00000000E+00
  0.00000000E+00  0.00000000E+00  0.00000000E+00
  0.00000000E+00  0.00000000E+00  0.00000000E+00
  0.00000000E+00  0.00000000E+00  0.00000000E+00
  0.00000000E+00  0.00000000E+00  0.00000000E+00
  0.00000000E+00  0.00000000E+00  0.00000000E+00
  0.00000000E+00  0.00000000E+00  0.00000000E+00
  0.00000000E+00  0.00000000E+00  0.00000000E+00
  0.00000000E+00  0.00000000E+00  0.00000000E+00
  0.00000000E+00  0.00000000E+00  0.00000000E+00
  0.00000000E+00  0.00000000E+00  0.00000000E+00
  0.00000000E+00  0.00000000E+00  0.00000000E+00
  0.00000000E+00  0.00000000E+00  0.00000000E+00
  0.00000000E+00  0.00000000E+00  0.00000000E+00
  0.00000000E+00  0.00000000E+00  0.00000000E+00
  0.00000000E+00  0.00000000E+00  0.00000000E+00
  0.00000000E+00  0.00000000E+00  0.00000000E+00
  0.00000000E+00  0.00000000E+00  0.00000000E+00
  0.00000000E+00  0.00000000E+00  0.00000000E+00
  0.00000000E+00  0.00000000E+00  0.00000000E+00
  0.00000000E+00  0.00000000E+00  0.00000000E+00
  0.00000000E+00  0.00000000E+00  0.00000000E+00
  0.00000000E+00  0.00000000E+00  0.00000000E+00
  0.00000000E+00  0.00000000E+00  0.00000000E+00
  0.00000000E+00  0.00000000E+00  0.00000000E+00
  0.00000000E+00  0.00000000E+00  0.00000000E+00
  0.00000000E+00  0.00000000E+00  0.00000000E+00
  0.00000000E+00  0.00000000E+00  0.00000000E+00
  0.00000000E+00  0.00000000E+00  0.00000000E+00
  0.00000000E+00  0.00000000E+00  0.00000000E+00
  0.00000000E+00  0.00000000E+00  0.00000000E+00
  0.00000000E+00  0.00000000E+00  0.00000000E+00
  0.00000000E+00  0.00000000E+00  0.00000000E+00
  0.00000000E+00  0.00000000E+00  0.00000000E+00
  0.00000000E+00  0.00000000E+00  0.00000000E+00
  0.00000000E+00  0.00000000E+00  0.00000000E+00
  0.00000000E+00  0.00000000E+00  0.00000000E+00
  0.00000000E+00  0.00000000E+00  0.00000000E+00
  0.00000000E+00  0.00000000E+00  0.00000000E+00
  0.00000000E+00  0.00000000E+00  0.00000000E+00
  0.00000000E+00  0.00000000E+00  0.00000000E+00
  0.00000000E+00  0.00000000E+00  0.00000000E+00
  0.00000000E+00  0.00000000E+00  0.00000000E+00
  0.00000000E+00  0.00000000E+00  0.00000000E+00
