Pd  C  H Br                             
    1.000000000000000     
    11.1817229999999999    0.0000000000000000    0.0000000000000000
     0.0000000000000000   15.8133443000000007    0.0000000000000000
     0.0000000000000000    0.0000000000000000   22.1931461100000007
   Pd   C    H    Br
    64     6     2     4
Selective dynamics
Direct
  0.2499999991056825  0.0000000000000000  0.3379421720033022   F   F   F
  0.9999999964227371  0.4999999987352481  0.3379421720033022   F   F   F
  0.2499999991056825  0.2499999996838085  0.3379421720033022   F   F   F
  0.2499999991056825  0.4999999987352481  0.3379421720033022   F   F   F
  0.2499999991056825  0.7499999984190566  0.3379421720033022   F   F   F
  0.4999999982113650  0.0000000000000000  0.3379421720033022   F   F   F
  0.4999999982113650  0.2499999996838085  0.3379421720033022   F   F   F
  0.9999999964227371  0.7499999984190566  0.3379421720033022   F   F   F
  0.4999999982113650  0.4999999987352481  0.3379421720033022   F   F   F
  0.4999999982113650  0.7499999984190566  0.3379421720033022   F   F   F
  0.7499999973170475  0.0000000000000000  0.3379421720033022   F   F   F
  0.7499999973170475  0.2499999996838085  0.3379421720033022   F   F   F
  0.7499999973170475  0.4999999987352481  0.3379421720033022   F   F   F
  0.7499999973170475  0.7499999984190566  0.3379421720033022   F   F   F
  0.0000000000000000  0.0000000000000000  0.3379421720033022   F   F   F
  0.9999999964227371  0.2499999996838085  0.3379421720033022   F   F   F
  0.2496112729383621  0.0000660018954028  0.4656286824007042   T   T   T
  0.2470923416584073  0.2511801551098152  0.4653000391013577   T   T   T
  0.2467029178567516  0.4992810247614869  0.4624214541021336   T   T   T
  0.2531294372224883  0.7479013087278590  0.4654069867616031   T   T   T
  0.5000141241657206 -0.0000062808611474  0.4657355774537553   T   T   T
  0.4990970016352286  0.2508067266256836  0.4648433774381392   T   T   T
  0.5000316850706414  0.5000099951937763  0.4585361094540144   T   T   T
  0.5008981799116373  0.7491608145347189  0.4648616315630233   T   T   T
  0.7503996619249457  0.9999249433667082  0.4656262628836015   T   T   T
  0.7468571623314090  0.2521023948472088  0.4654132844029875   T   T   T
  0.7533614157112229  0.5007635871060999  0.4623911136260162   T   T   T
  0.7529317654198677  0.7487731761196578  0.4652927475033813   T   T   T
 -0.0000046789748441 -0.0000158277818956  0.4656124745437611   T   T   T
  0.9961073510648052  0.2528267402263537  0.4663020598891645   T   T   T
  0.0000325639877546  0.4999985095017748  0.4649360432695168   T   T   T
  0.0038941505921806  0.7471444824735628  0.4662815750647952   T   T   T
  0.1218427715061565  0.1268438249032896  0.5231826391972161   T   T   T
  0.1194836875615018  0.3751549786338368  0.5251579421091875   T   T   T
  0.1354672021478127  0.6230621129141812  0.5281482903160452   T   T   T
  0.1281704541765314  0.8736555412106711  0.5236134955328350   T   T   T
  0.3730499480763960  0.1262691145772715  0.5234636757086435   T   T   T
  0.3672335605197837  0.3777429980219666  0.5234103459574088   T   T   T
  0.3882292713328600  0.6146083606864852  0.5268248787532052   T   T   T
  0.3770148401180380  0.8741602625364674  0.5241597246782881   T   T   T
  0.6229818678223780  0.1258575832647961  0.5241539045219119   T   T   T
  0.6118213071606353  0.3854418904081611  0.5268255991339393   T   T   T
  0.6328128349715031  0.6222108392519244  0.5234245994790589   T   T   T
  0.6269523492372683  0.8737043192185480  0.5234575552661310   T   T   T
  0.8717705931797629  0.1263359051491726  0.5235990235413134   T   T   T
  0.8645497754178475  0.3769717615381480  0.5281561601499173   T   T   T
  0.8805925527888046  0.6248249379235524  0.5251918449002237   T   T   T
  0.8781109860126942  0.8731738033669334  0.5231726913949947   T   T   T
  0.1249999995528412  0.1249999995257198  0.4009217677339905   F   F   F
  0.1249999995528412  0.3749999992095283  0.4009217677339905   F   F   F
  0.1249999995528412  0.6249999982609609  0.4009217677339905   F   F   F
  0.1249999995528412  0.8749999979447765  0.4009217677339905   F   F   F
  0.3749999986585237  0.1249999995257198  0.4009217677339905   F   F   F
  0.3749999986585237  0.3749999992095283  0.4009217677339905   F   F   F
  0.3749999986585237  0.6249999982609609  0.4009217677339905   F   F   F
  0.3749999986585237  0.8749999979447765  0.4009217677339905   F   F   F
  0.6249999977642062  0.1249999995257198  0.4009217677339905   F   F   F
  0.6249999977642062  0.3749999992095283  0.4009217677339905   F   F   F
  0.6249999977642062  0.6249999982609609  0.4009217677339905   F   F   F
  0.6249999977642062  0.8749999979447765  0.4009217677339905   F   F   F
  0.8749999968698887  0.1249999995257198  0.4009217677339905   F   F   F
  0.8749999968698887  0.3749999992095283  0.4009217677339905   F   F   F
  0.8749999968698887  0.6249999982609609  0.4009217677339905   F   F   F
  0.8749999968698887  0.8749999979447765  0.4009217677339905   F   F   F
  0.5995412958511931  0.5607056183058405  0.6048502736135982   T   T   T
  0.6215518959741482  0.4687127600047747  0.6036671777502217   T   T   T
  0.5247095437461559  0.4094541886231509  0.6109179502616651   T   T   T
  0.4004211272162691  0.4392540706071941  0.6048367722081891   T   T   T
  0.3783697611142361  0.5312343978535730  0.6036541165151017   T   T   T
  0.4752344748193232  0.5904586868456385  0.6109230755038947   T   T   T
  0.6652483529944320  0.5960524220974063  0.6315683491597773   T   T   T
  0.3346501253458652  0.4038907447629336  0.6315463910621029   T   T   T
  0.7869030175801628  0.4397310560907552  0.6275269912783189   T   T   T
  0.5444922543888827  0.3064053275798913  0.6568459078679592   T   T   T
  0.2127366667880210  0.5601616700910798  0.6274015484220929   T   T   T
  0.4556053842052292  0.6934834197221978  0.6568335386559525   T   T   T
 
  0.00000000E+00  0.00000000E+00  0.00000000E+00
  0.00000000E+00  0.00000000E+00  0.00000000E+00
  0.00000000E+00  0.00000000E+00  0.00000000E+00
  0.00000000E+00  0.00000000E+00  0.00000000E+00
  0.00000000E+00  0.00000000E+00  0.00000000E+00
  0.00000000E+00  0.00000000E+00  0.00000000E+00
  0.00000000E+00  0.00000000E+00  0.00000000E+00
  0.00000000E+00  0.00000000E+00  0.00000000E+00
  0.00000000E+00  0.00000000E+00  0.00000000E+00
  0.00000000E+00  0.00000000E+00  0.00000000E+00
  0.00000000E+00  0.00000000E+00  0.00000000E+00
  0.00000000E+00  0.00000000E+00  0.00000000E+00
  0.00000000E+00  0.00000000E+00  0.00000000E+00
  0.00000000E+00  0.00000000E+00  0.00000000E+00
  0.00000000E+00  0.00000000E+00  0.00000000E+00
  0.00000000E+00  0.00000000E+00  0.00000000E+00
  0.00000000E+00  0.00000000E+00  0.00000000E+00
  0.00000000E+00  0.00000000E+00  0.00000000E+00
  0.00000000E+00  0.00000000E+00  0.00000000E+00
  0.00000000E+00  0.00000000E+00  0.00000000E+00
  0.00000000E+00  0.00000000E+00  0.00000000E+00
  0.00000000E+00  0.00000000E+00  0.00000000E+00
  0.00000000E+00  0.00000000E+00  0.00000000E+00
  0.00000000E+00  0.00000000E+00  0.00000000E+00
  0.00000000E+00  0.00000000E+00  0.00000000E+00
  0.00000000E+00  0.00000000E+00  0.00000000E+00
  0.00000000E+00  0.00000000E+00  0.00000000E+00
  0.00000000E+00  0.00000000E+00  0.00000000E+00
  0.00000000E+00  0.00000000E+00  0.00000000E+00
  0.00000000E+00  0.00000000E+00  0.00000000E+00
  0.00000000E+00  0.00000000E+00  0.00000000E+00
  0.00000000E+00  0.00000000E+00  0.00000000E+00
  0.00000000E+00  0.00000000E+00  0.00000000E+00
  0.00000000E+00  0.00000000E+00  0.00000000E+00
  0.00000000E+00  0.00000000E+00  0.00000000E+00
  0.00000000E+00  0.00000000E+00  0.00000000E+00
  0.00000000E+00  0.00000000E+00  0.00000000E+00
  0.00000000E+00  0.00000000E+00  0.00000000E+00
  0.00000000E+00  0.00000000E+00  0.00000000E+00
  0.00000000E+00  0.00000000E+00  0.00000000E+00
  0.00000000E+00  0.00000000E+00  0.00000000E+00
  0.00000000E+00  0.00000000E+00  0.00000000E+00
  0.00000000E+00  0.00000000E+00  0.00000000E+00
  0.00000000E+00  0.00000000E+00  0.00000000E+00
  0.00000000E+00  0.00000000E+00  0.00000000E+00
  0.00000000E+00  0.00000000E+00  0.00000000E+00
  0.00000000E+00  0.00000000E+00  0.00000000E+00
  0.00000000E+00  0.00000000E+00  0.00000000E+00
  0.00000000E+00  0.00000000E+00  0.00000000E+00
  0.00000000E+00  0.00000000E+00  0.00000000E+00
  0.00000000E+00  0.00000000E+00  0.00000000E+00
  0.00000000E+00  0.00000000E+00  0.00000000E+00
  0.00000000E+00  0.00000000E+00  0.00000000E+00
  0.00000000E+00  0.00000000E+00  0.00000000E+00
  0.00000000E+00  0.00000000E+00  0.00000000E+00
  0.00000000E+00  0.00000000E+00  0.00000000E+00
  0.00000000E+00  0.00000000E+00  0.00000000E+00
  0.00000000E+00  0.00000000E+00  0.00000000E+00
  0.00000000E+00  0.00000000E+00  0.00000000E+00
  0.00000000E+00  0.00000000E+00  0.00000000E+00
  0.00000000E+00  0.00000000E+00  0.00000000E+00
  0.00000000E+00  0.00000000E+00  0.00000000E+00
  0.00000000E+00  0.00000000E+00  0.00000000E+00
  0.00000000E+00  0.00000000E+00  0.00000000E+00
  0.00000000E+00  0.00000000E+00  0.00000000E+00
  0.00000000E+00  0.00000000E+00  0.00000000E+00
  0.00000000E+00  0.00000000E+00  0.00000000E+00
  0.00000000E+00  0.00000000E+00  0.00000000E+00
  0.00000000E+00  0.00000000E+00  0.00000000E+00
  0.00000000E+00  0.00000000E+00  0.00000000E+00
  0.00000000E+00  0.00000000E+00  0.00000000E+00
  0.00000000E+00  0.00000000E+00  0.00000000E+00
  0.00000000E+00  0.00000000E+00  0.00000000E+00
  0.00000000E+00  0.00000000E+00  0.00000000E+00
  0.00000000E+00  0.00000000E+00  0.00000000E+00
  0.00000000E+00  0.00000000E+00  0.00000000E+00
