Rh  C  F                                
    1.000000000000000     
    10.8856652999999994    0.0000000000000000    0.0000000000000000
     0.0000000000000000   10.8856652999999994    0.0000000000000000
     0.0000000000000000    0.0000000000000000   23.7729958199999984
   Rh   C    F 
    64     6     6
Selective dynamics
Direct
  0.0000000000000000  0.0000000000000000  0.3154840078544225   F   F   F
  0.7500000013779555  0.5000000009186394  0.3154840078544225   F   F   F
  0.0000000018372788  0.2500000004593161  0.3154840078544225   F   F   F
  0.0000000018372788  0.5000000009186394  0.3154840078544225   F   F   F
  0.0000000000000000  0.7500000013779555  0.3154840078544225   F   F   F
  0.2500000004593161  0.0000000000000000  0.3154840078544225   F   F   F
  0.2500000004593161  0.2500000004593161  0.3154840078544225   F   F   F
  0.7500000013779555  0.7500000013779555  0.3154840078544225   F   F   F
  0.2500000004593161  0.5000000009186394  0.3154840078544225   F   F   F
  0.2500000004593161  0.7500000013779555  0.3154840078544225   F   F   F
  0.5000000009186394  0.0000000000000000  0.3154840078544225   F   F   F
  0.5000000009186394  0.2500000004593161  0.3154840078544225   F   F   F
  0.5000000009186394  0.5000000009186394  0.3154840078544225   F   F   F
  0.5000000009186394  0.7500000013779555  0.3154840078544225   F   F   F
  0.7500000013779555  0.0000000000000000  0.3154840078544225   F   F   F
  0.7500000013779555  0.2500000004593161  0.3154840078544225   F   F   F
 -0.0000000000000000  0.0000000000000000  0.4737592849314846   T   T   T
  0.9999466576256513  0.2499225239116953  0.4738201360405848   T   T   T
  0.0000000018372788  0.5000000009186394  0.4737469377076793   T   T   T
  0.0000533442116275  0.7500774779255762  0.4738201360405848   T   T   T
  0.2499227993729220  0.9999465846710081  0.4738200946901409   T   T   T
  0.2500303509619763  0.2500312417024601  0.4737809848963587   T   T   T
  0.2499447886163865  0.4999588223186978  0.4737519737033611   T   T   T
  0.2499997703900713  0.7499991402505696  0.4737307368185040   T   T   T
  0.5000000009186394  0.0000000000000000  0.4737473699015826   T   T   T
  0.4999582217416639  0.2499441855579931  0.4737521801850212   T   T   T
  0.5000000009186394  0.5000000009186394  0.4737256929981213   T   T   T
  0.5000417800956150  0.7500558162792784  0.4737521801850212   T   T   T
  0.7500772024643497  0.0000534153289921  0.4738200946901409   T   T   T
  0.7500002314472003  0.2500008615867023  0.4737307368185040   T   T   T
  0.7500552132208851  0.5000411795185808  0.4737519737033611   T   T   T
  0.7499696508752951  0.7499687601348115  0.4737809848963587   T   T   T
  0.1251406500639663  0.1251408768752632  0.5490595931672028   T   T   T
  0.1249011904571972  0.3748346687360133  0.5490433532392751   T   T   T
  0.1249071086709110  0.6251765501491940  0.5491031108232710   T   T   T
  0.1250931111602372  0.8749057182852911  0.5490745851672731   T   T   T
  0.3748303501691052  0.1248947361303084  0.5490417741423721   T   T   T
  0.3745854113696317  0.3745857633160134  0.5491143833075792   T   T   T
  0.3743778705173695  0.6256210832074436  0.5489214816102395   T   T   T
  0.3748233963266968  0.8750925020662891  0.5491030650778478   T   T   T
  0.6251766055105822  0.1249074988523502  0.5491030650778478   T   T   T
  0.6256221313199091  0.3743789177111957  0.5489214816102395   T   T   T
  0.6254145913862865  0.6254142376026259  0.5491143833075792   T   T   T
  0.6251696525868128  0.8751052647883312  0.5490417741423721   T   T   T
  0.8749068906770416  0.1250942826333482  0.5490745851672731   T   T   T
  0.8750928931663677  0.3748234507694452  0.5491031108232710   T   T   T
  0.8750988113800818  0.6251653321826260  0.5490433532392751   T   T   T
  0.8748593517733126  0.8748591240433762  0.5490595931672028   T   T   T
  0.1249999997703384  0.1249999997703384  0.3964301349042145   F   F   F
  0.1250000006889778  0.3750000002296616  0.3964301349042145   F   F   F
  0.1250000006889778  0.6250000006889778  0.3964301349042145   F   F   F
  0.1250000006889778  0.8750000011483010  0.3964301349042145   F   F   F
  0.3750000011483010  0.1249999997703384  0.3964301349042145   F   F   F
  0.3750000011483010  0.3750000002296616  0.3964301349042145   F   F   F
  0.3750000011483010  0.6250000006889778  0.3964301349042145   F   F   F
  0.3750000011483010  0.8750000011483010  0.3964301349042145   F   F   F
  0.6250000006889778  0.1249999997703384  0.3964301349042145   F   F   F
  0.6250000006889778  0.3750000002296616  0.3964301349042145   F   F   F
  0.6250000016076172  0.6250000006889778  0.3964301349042145   F   F   F
  0.6250000016076172  0.8750000011483010  0.3964301349042145   F   F   F
  0.8750000011483010  0.1249999997703384  0.3964301349042145   F   F   F
  0.8750000011483010  0.3750000002296616  0.3964301349042145   F   F   F
  0.8750000011483010  0.6250000006889778  0.3964301349042145   F   F   F
  0.8750000020669404  0.8750000011483010  0.3964301349042145   F   F   F
  0.6243202853362949  0.4666303401913376  0.6698326145872299   T   T   T
  0.5333723225227347  0.3756866956244718  0.6698329898931817   T   T   T
  0.4088896675932794  0.4088906732697871  0.6695359492189856   T   T   T
  0.3756797468160838  0.5333696745068854  0.6698326145872299   T   T   T
  0.4666276508367228  0.6243132915145772  0.6698329898931817   T   T   T
  0.5911103351626387  0.5911093276488524  0.6695359492189856   T   T   T
  0.7433184409985382  0.4351197730822247  0.6750455073016679   T   T   T
  0.5648838674389399  0.2566821184438822  0.6750458371768975   T   T   T
  0.3218155997299456  0.3218126608988235  0.6761398855087488   T   T   T
  0.2566815617573801  0.5648802278364149  0.6750455073016679   T   T   T
  0.4351160636631130  0.7433178650206085  0.6750458371768975   T   T   T
  0.6781843736295122  0.6781873262402249  0.6761398855087488   T   T   T
 
  0.00000000E+00  0.00000000E+00  0.00000000E+00
  0.00000000E+00  0.00000000E+00  0.00000000E+00
  0.00000000E+00  0.00000000E+00  0.00000000E+00
  0.00000000E+00  0.00000000E+00  0.00000000E+00
  0.00000000E+00  0.00000000E+00  0.00000000E+00
  0.00000000E+00  0.00000000E+00  0.00000000E+00
  0.00000000E+00  0.00000000E+00  0.00000000E+00
  0.00000000E+00  0.00000000E+00  0.00000000E+00
  0.00000000E+00  0.00000000E+00  0.00000000E+00
  0.00000000E+00  0.00000000E+00  0.00000000E+00
  0.00000000E+00  0.00000000E+00  0.00000000E+00
  0.00000000E+00  0.00000000E+00  0.00000000E+00
  0.00000000E+00  0.00000000E+00  0.00000000E+00
  0.00000000E+00  0.00000000E+00  0.00000000E+00
  0.00000000E+00  0.00000000E+00  0.00000000E+00
  0.00000000E+00  0.00000000E+00  0.00000000E+00
  0.00000000E+00  0.00000000E+00  0.00000000E+00
  0.00000000E+00  0.00000000E+00  0.00000000E+00
  0.00000000E+00  0.00000000E+00  0.00000000E+00
  0.00000000E+00  0.00000000E+00  0.00000000E+00
  0.00000000E+00  0.00000000E+00  0.00000000E+00
  0.00000000E+00  0.00000000E+00  0.00000000E+00
  0.00000000E+00  0.00000000E+00  0.00000000E+00
  0.00000000E+00  0.00000000E+00  0.00000000E+00
  0.00000000E+00  0.00000000E+00  0.00000000E+00
  0.00000000E+00  0.00000000E+00  0.00000000E+00
  0.00000000E+00  0.00000000E+00  0.00000000E+00
  0.00000000E+00  0.00000000E+00  0.00000000E+00
  0.00000000E+00  0.00000000E+00  0.00000000E+00
  0.00000000E+00  0.00000000E+00  0.00000000E+00
  0.00000000E+00  0.00000000E+00  0.00000000E+00
  0.00000000E+00  0.00000000E+00  0.00000000E+00
  0.00000000E+00  0.00000000E+00  0.00000000E+00
  0.00000000E+00  0.00000000E+00  0.00000000E+00
  0.00000000E+00  0.00000000E+00  0.00000000E+00
  0.00000000E+00  0.00000000E+00  0.00000000E+00
  0.00000000E+00  0.00000000E+00  0.00000000E+00
  0.00000000E+00  0.00000000E+00  0.00000000E+00
  0.00000000E+00  0.00000000E+00  0.00000000E+00
  0.00000000E+00  0.00000000E+00  0.00000000E+00
  0.00000000E+00  0.00000000E+00  0.00000000E+00
  0.00000000E+00  0.00000000E+00  0.00000000E+00
  0.00000000E+00  0.00000000E+00  0.00000000E+00
  0.00000000E+00  0.00000000E+00  0.00000000E+00
  0.00000000E+00  0.00000000E+00  0.00000000E+00
  0.00000000E+00  0.00000000E+00  0.00000000E+00
  0.00000000E+00  0.00000000E+00  0.00000000E+00
  0.00000000E+00  0.00000000E+00  0.00000000E+00
  0.00000000E+00  0.00000000E+00  0.00000000E+00
  0.00000000E+00  0.00000000E+00  0.00000000E+00
  0.00000000E+00  0.00000000E+00  0.00000000E+00
  0.00000000E+00  0.00000000E+00  0.00000000E+00
  0.00000000E+00  0.00000000E+00  0.00000000E+00
  0.00000000E+00  0.00000000E+00  0.00000000E+00
  0.00000000E+00  0.00000000E+00  0.00000000E+00
  0.00000000E+00  0.00000000E+00  0.00000000E+00
  0.00000000E+00  0.00000000E+00  0.00000000E+00
  0.00000000E+00  0.00000000E+00  0.00000000E+00
  0.00000000E+00  0.00000000E+00  0.00000000E+00
  0.00000000E+00  0.00000000E+00  0.00000000E+00
  0.00000000E+00  0.00000000E+00  0.00000000E+00
  0.00000000E+00  0.00000000E+00  0.00000000E+00
  0.00000000E+00  0.00000000E+00  0.00000000E+00
  0.00000000E+00  0.00000000E+00  0.00000000E+00
  0.00000000E+00  0.00000000E+00  0.00000000E+00
  0.00000000E+00  0.00000000E+00  0.00000000E+00
  0.00000000E+00  0.00000000E+00  0.00000000E+00
  0.00000000E+00  0.00000000E+00  0.00000000E+00
  0.00000000E+00  0.00000000E+00  0.00000000E+00
  0.00000000E+00  0.00000000E+00  0.00000000E+00
  0.00000000E+00  0.00000000E+00  0.00000000E+00
  0.00000000E+00  0.00000000E+00  0.00000000E+00
  0.00000000E+00  0.00000000E+00  0.00000000E+00
  0.00000000E+00  0.00000000E+00  0.00000000E+00
  0.00000000E+00  0.00000000E+00  0.00000000E+00
  0.00000000E+00  0.00000000E+00  0.00000000E+00
