Pt48 C6 H2 Cl4                          
    1.000000000000000     
    11.2480068000000006    0.0000000000000000    0.0000000000000000
     0.0000000000000000   15.9070838000000006    0.0000000000000000
     0.0000000000000000    0.0000000000000000   15.6765409899999995
   Pt   C    H    Cl
    48     6     2     4
Selective dynamics
Direct
  0.2474582260304743  0.2513453214105539  0.4009474514898344   T   T   T
  0.2460043875760078  0.4988966673518078  0.3948831191631541   T   T   T
  0.2537367786140692  0.7468833591190531  0.4032583106861196   T   T   T
  0.2505414125771566  0.0000045233936845  0.4049745993712079   T   T   T
  0.4986004212992299  0.2519520266519777  0.4044575605384324   T   T   T
  0.5000203734713580  0.4999925376509111  0.3800407151068654   T   T   T
  0.5014607435453300  0.7481030727264084  0.4044453208660244   T   T   T
  0.5000135674543884  0.9999791325369500  0.4038269967302455   T   T   T
  0.7462531970882011  0.2531577884100784  0.4033216726196969   T   T   T
  0.7540214300958112  0.5010753435742501  0.3949214009240691   T   T   T
  0.7525397427102334  0.7486818748909201  0.4010021808569988   T   T   T
  0.7494607834982929  0.9999314890490751  0.4050059817442602   T   T   T
  0.9952487315234393  0.2536392555343880  0.4070879314680411   T   T   T
  0.0000175787449734  0.4999695123582484  0.4024425175902024   T   T   T
  0.0047681826132333  0.7463795344127888  0.4071985640492315   T   T   T
  0.0000078432858146  0.9999664913211248  0.4004527789096315   T   T   T
  0.1218162643096363  0.1268515297961486  0.4878016643345617   T   T   T
  0.1175859074590662  0.3755365429851807  0.4913407293049588   T   T   T
  0.1394695187330441  0.6194149111760510  0.4951607765775705   T   T   T
  0.1275617838022711  0.8739940676607958  0.4885405122723583   T   T   T
  0.3728936601597255  0.1272561660267471  0.4883479064207421   T   T   T
  0.3643808047315034  0.3808549882258063  0.4880975936393739   T   T   T
  0.3929275124159517  0.6087123708336506  0.4904021793856401   T   T   T
  0.3765686741175713  0.8730888727485038  0.4888974398367623   T   T   T
  0.6234621642494247  0.1268996546047987  0.4888642846240998   T   T   T
  0.6071255045257118  0.3913484893061963  0.4905255123483343   T   T   T
  0.6355965357454423  0.6191358169419843  0.4881127121456288   T   T   T
  0.6271048574898828  0.8727508542892153  0.4883884433401207   T   T   T
  0.8724762057006004  0.1260006545647840  0.4884525073689971   T   T   T
  0.8606548234870388  0.3805731897225826  0.4951360640893228   T   T   T
  0.8824428379400047  0.6244371394231578  0.4913129054475363   T   T   T
  0.8782097881232929  0.8731154728001300  0.4878569102497110   T   T   T
  0.1250000000000000  0.1250000003143228  0.3189479109702518   F   F   F
  0.1250000000000000  0.3750000003143228  0.3189479109702518   F   F   F
  0.1250000008890453  0.6250000009429755  0.3189479109702518   F   F   F
  0.1250000008890453  0.8750000009429755  0.3189479109702518   F   F   F
  0.3750000008890453  0.1250000003143228  0.3189479109702518   F   F   F
  0.3750000008890453  0.3750000003143228  0.3189479109702518   F   F   F
  0.3750000008890453  0.6250000009429755  0.3189479109702518   F   F   F
  0.3750000008890453  0.8750000009429755  0.3189479109702518   F   F   F
  0.6250000017780906  0.1250000003143228  0.3189479109702518   F   F   F
  0.6250000017780906  0.3750000003143228  0.3189479109702518   F   F   F
  0.6250000017780906  0.6250000009429755  0.3189479109702518   F   F   F
  0.6250000026671358  0.8750000009429755  0.3189479109702518   F   F   F
  0.8750000026671358  0.1250000003143228  0.3189479109702518   F   F   F
  0.8750000026671358  0.3750000003143228  0.3189479109702518   F   F   F
  0.8750000035561882  0.6250000009429755  0.3189479109702518   F   F   F
  0.8750000026671358  0.8750000009429755  0.3189479109702518   F   F   F
  0.4005029415018129  0.4368604095737965  0.6038026849676470   T   T   T
  0.3759184457893667  0.5302842189799151  0.5994654607553898   T   T   T
  0.4710063154306994  0.5907815086782477  0.6135738101893935   T   T   T
  0.5993168797635136  0.5632466303426327  0.6038143008643573   T   T   T
  0.6238367004456578  0.4698215536463195  0.5996193982125320   T   T   T
  0.5288019287125394  0.4092983076825263  0.6136314700861547   T   T   T
  0.3443374909893961  0.4077143549774789  0.6529543657426871   T   T   T
  0.6554196286811873  0.5924454349755450  0.6530128441173275   T   T   T
  0.2249945276182146  0.5550239461643400  0.6321255644531689   T   T   T
  0.4515645804680304  0.6770004146913422  0.6811469806791379   T   T   T
  0.7746062458695846  0.4451196180634440  0.6325651966848511   T   T   T
  0.5480762543305460  0.3231831977841466  0.6812455572158100   T   T   T
 
  0.00000000E+00  0.00000000E+00  0.00000000E+00
  0.00000000E+00  0.00000000E+00  0.00000000E+00
  0.00000000E+00  0.00000000E+00  0.00000000E+00
  0.00000000E+00  0.00000000E+00  0.00000000E+00
  0.00000000E+00  0.00000000E+00  0.00000000E+00
  0.00000000E+00  0.00000000E+00  0.00000000E+00
  0.00000000E+00  0.00000000E+00  0.00000000E+00
  0.00000000E+00  0.00000000E+00  0.00000000E+00
  0.00000000E+00  0.00000000E+00  0.00000000E+00
  0.00000000E+00  0.00000000E+00  0.00000000E+00
  0.00000000E+00  0.00000000E+00  0.00000000E+00
  0.00000000E+00  0.00000000E+00  0.00000000E+00
  0.00000000E+00  0.00000000E+00  0.00000000E+00
  0.00000000E+00  0.00000000E+00  0.00000000E+00
  0.00000000E+00  0.00000000E+00  0.00000000E+00
  0.00000000E+00  0.00000000E+00  0.00000000E+00
  0.00000000E+00  0.00000000E+00  0.00000000E+00
  0.00000000E+00  0.00000000E+00  0.00000000E+00
  0.00000000E+00  0.00000000E+00  0.00000000E+00
  0.00000000E+00  0.00000000E+00  0.00000000E+00
  0.00000000E+00  0.00000000E+00  0.00000000E+00
  0.00000000E+00  0.00000000E+00  0.00000000E+00
  0.00000000E+00  0.00000000E+00  0.00000000E+00
  0.00000000E+00  0.00000000E+00  0.00000000E+00
  0.00000000E+00  0.00000000E+00  0.00000000E+00
  0.00000000E+00  0.00000000E+00  0.00000000E+00
  0.00000000E+00  0.00000000E+00  0.00000000E+00
  0.00000000E+00  0.00000000E+00  0.00000000E+00
  0.00000000E+00  0.00000000E+00  0.00000000E+00
  0.00000000E+00  0.00000000E+00  0.00000000E+00
  0.00000000E+00  0.00000000E+00  0.00000000E+00
  0.00000000E+00  0.00000000E+00  0.00000000E+00
  0.00000000E+00  0.00000000E+00  0.00000000E+00
  0.00000000E+00  0.00000000E+00  0.00000000E+00
  0.00000000E+00  0.00000000E+00  0.00000000E+00
  0.00000000E+00  0.00000000E+00  0.00000000E+00
  0.00000000E+00  0.00000000E+00  0.00000000E+00
  0.00000000E+00  0.00000000E+00  0.00000000E+00
  0.00000000E+00  0.00000000E+00  0.00000000E+00
  0.00000000E+00  0.00000000E+00  0.00000000E+00
  0.00000000E+00  0.00000000E+00  0.00000000E+00
  0.00000000E+00  0.00000000E+00  0.00000000E+00
  0.00000000E+00  0.00000000E+00  0.00000000E+00
  0.00000000E+00  0.00000000E+00  0.00000000E+00
  0.00000000E+00  0.00000000E+00  0.00000000E+00
  0.00000000E+00  0.00000000E+00  0.00000000E+00
  0.00000000E+00  0.00000000E+00  0.00000000E+00
  0.00000000E+00  0.00000000E+00  0.00000000E+00
  0.00000000E+00  0.00000000E+00  0.00000000E+00
  0.00000000E+00  0.00000000E+00  0.00000000E+00
  0.00000000E+00  0.00000000E+00  0.00000000E+00
  0.00000000E+00  0.00000000E+00  0.00000000E+00
  0.00000000E+00  0.00000000E+00  0.00000000E+00
  0.00000000E+00  0.00000000E+00  0.00000000E+00
  0.00000000E+00  0.00000000E+00  0.00000000E+00
  0.00000000E+00  0.00000000E+00  0.00000000E+00
  0.00000000E+00  0.00000000E+00  0.00000000E+00
  0.00000000E+00  0.00000000E+00  0.00000000E+00
  0.00000000E+00  0.00000000E+00  0.00000000E+00
  0.00000000E+00  0.00000000E+00  0.00000000E+00
