Cu48 C6 Br6                             
    1.000000000000000     
    10.2424774999999997    0.0000000000000000    0.0000000000000000
     0.0000000000000000   10.2424774999999997    0.0000000000000000
     0.0000000000000000    0.0000000000000000   16.5498655300000017
   Cu   C    Br
    48     6     6
Selective dynamics
Direct
  0.2499110655839232  0.9998487290470166  0.4093847127163386   T   T   T
  0.2498800906432592  0.2498801967629731  0.4091430982712012   T   T   T
  0.2493617437794384  0.4999852857972442  0.4090792645792547   T   T   T
  0.2499205630731325  0.7500788801970728  0.4093445985837789   T   T   T
  0.4999967327411312  0.0000014291579262  0.4094071023436214   T   T   T
  0.4999849929863771  0.2493644494399589  0.4090802343202071   T   T   T
  0.4999954082624285  0.4999939694173179  0.4084056682582542   T   T   T
  0.5000088053470648  0.7506404901007215  0.4090799775667406   T   T   T
  0.7500890338191581  0.0001526550609725  0.4093880600002677   T   T   T
  0.7500784012628827  0.2499240412567332  0.4093459597805449   T   T   T
  0.7506408503521484  0.5000081170286848  0.4090795361416184   T   T   T
  0.7501229253308779  0.7501222278064361  0.4091458306161826   T   T   T
  0.0000029776443355  0.0000005255992193  0.4089803130183114   T   T   T
  0.9998499130789895  0.2499129021120510  0.4093853917144372   T   T   T
  0.0000020977477462  0.4999979662549023  0.4094063580333867   T   T   T
  0.0001545096242808  0.7500884198675308  0.4093864505965570   T   T   T
  0.1246843081075184  0.1246852128974325  0.5165327284527521   T   T   T
  0.1248936271990431  0.3745421076379287  0.5165245642175691   T   T   T
  0.1250760409605149  0.6251628163827618  0.5169463151679778   T   T   T
  0.1247437789562511  0.8752593078445443  0.5166677400920037   T   T   T
  0.3745382062517848  0.1248964028769279  0.5165264263328737   T   T   T
  0.3754660104184993  0.3754683136554533  0.5149302889976610   T   T   T
  0.3755378593617138  0.6244521515717878  0.5149387440915802   T   T   T
  0.3748285420981361  0.8749271729327219  0.5169469565953690   T   T   T
  0.6251640438231050  0.1250797892300568  0.5169481936022322   T   T   T
  0.6244564413975269  0.3755428001547045  0.5149386809459386   T   T   T
  0.6245275838126929  0.6245232632794995  0.5149256587426976   T   T   T
  0.6254537641091105  0.8751092149135573  0.5165246032331652   T   T   T
  0.8752631864091569  0.1247470617817257  0.5166691737023896   T   T   T
  0.8749288256396284  0.3748332053556211  0.5169455546965267   T   T   T
  0.8751127582207729  0.6254505099831178  0.5165261649487576   T   T   T
  0.8753232837151685  0.8753188527166742  0.5165346531369863   T   T   T
  0.1250000002440785  0.1249999992677573  0.3021172583509184   F   F   F
  0.1250000002440785  0.3749999997559215  0.3021172583509184   F   F   F
  0.1250000002440785  0.6249999982914289  0.3021172583509184   F   F   F
  0.1250000002440785  0.8749999987795931  0.3021172583509184   F   F   F
  0.3749999997559215  0.1249999992677573  0.3021172583509184   F   F   F
  0.3749999997559215  0.3749999997559215  0.3021172583509184   F   F   F
  0.3749999997559215  0.6249999982914289  0.3021172583509184   F   F   F
  0.3749999997559215  0.8749999987795931  0.3021172583509184   F   F   F
  0.6249999982914289  0.1249999992677573  0.3021172583509184   F   F   F
  0.6249999982914289  0.3749999997559215  0.3021172583509184   F   F   F
  0.6249999992677573  0.6249999982914289  0.3021172583509184   F   F   F
  0.6249999992677573  0.8749999987795931  0.3021172583509184   F   F   F
  0.8749999987795931  0.1249999992677573  0.3021172583509184   F   F   F
  0.8749999978032648  0.3749999997559215  0.3021172583509184   F   F   F
  0.8749999987795931  0.6249999982914289  0.3021172583509184   F   F   F
  0.8749999987795931  0.8749999987795931  0.3021172583509184   F   F   F
  0.3672617293427365  0.5356993529849490  0.6980825929413470   T   T   T
  0.4643390093834014  0.6327568412626974  0.6980816236109746   T   T   T
  0.5971224000401847  0.5970960553593514  0.6978116784558210   T   T   T
  0.6327404508606875  0.4643021885550382  0.6980869391211684   T   T   T
  0.5356588872350514  0.3672501038437446  0.6980790663437872   T   T   T
  0.4028843867129055  0.4029131933288781  0.6978091041477370   T   T   T
  0.1880664722967396  0.5835654009222466  0.6977650558141804   T   T   T
  0.4165182814627784  0.8119472910312169  0.6977578384979068   T   T   T
  0.7281838337624151  0.7281288079894708  0.6974855435492913   T   T   T
  0.8119323385548896  0.4164427142223417  0.6977942284400385   T   T   T
  0.5834847128863956  0.1880516655222664  0.6977342168394856   T   T   T
  0.2718098212387829  0.2718699602825865  0.6975042313848476   T   T   T
 
  0.00000000E+00  0.00000000E+00  0.00000000E+00
  0.00000000E+00  0.00000000E+00  0.00000000E+00
  0.00000000E+00  0.00000000E+00  0.00000000E+00
  0.00000000E+00  0.00000000E+00  0.00000000E+00
  0.00000000E+00  0.00000000E+00  0.00000000E+00
  0.00000000E+00  0.00000000E+00  0.00000000E+00
  0.00000000E+00  0.00000000E+00  0.00000000E+00
  0.00000000E+00  0.00000000E+00  0.00000000E+00
  0.00000000E+00  0.00000000E+00  0.00000000E+00
  0.00000000E+00  0.00000000E+00  0.00000000E+00
  0.00000000E+00  0.00000000E+00  0.00000000E+00
  0.00000000E+00  0.00000000E+00  0.00000000E+00
  0.00000000E+00  0.00000000E+00  0.00000000E+00
  0.00000000E+00  0.00000000E+00  0.00000000E+00
  0.00000000E+00  0.00000000E+00  0.00000000E+00
  0.00000000E+00  0.00000000E+00  0.00000000E+00
  0.00000000E+00  0.00000000E+00  0.00000000E+00
  0.00000000E+00  0.00000000E+00  0.00000000E+00
  0.00000000E+00  0.00000000E+00  0.00000000E+00
  0.00000000E+00  0.00000000E+00  0.00000000E+00
  0.00000000E+00  0.00000000E+00  0.00000000E+00
  0.00000000E+00  0.00000000E+00  0.00000000E+00
  0.00000000E+00  0.00000000E+00  0.00000000E+00
  0.00000000E+00  0.00000000E+00  0.00000000E+00
  0.00000000E+00  0.00000000E+00  0.00000000E+00
  0.00000000E+00  0.00000000E+00  0.00000000E+00
  0.00000000E+00  0.00000000E+00  0.00000000E+00
  0.00000000E+00  0.00000000E+00  0.00000000E+00
  0.00000000E+00  0.00000000E+00  0.00000000E+00
  0.00000000E+00  0.00000000E+00  0.00000000E+00
  0.00000000E+00  0.00000000E+00  0.00000000E+00
  0.00000000E+00  0.00000000E+00  0.00000000E+00
  0.00000000E+00  0.00000000E+00  0.00000000E+00
  0.00000000E+00  0.00000000E+00  0.00000000E+00
  0.00000000E+00  0.00000000E+00  0.00000000E+00
  0.00000000E+00  0.00000000E+00  0.00000000E+00
  0.00000000E+00  0.00000000E+00  0.00000000E+00
  0.00000000E+00  0.00000000E+00  0.00000000E+00
  0.00000000E+00  0.00000000E+00  0.00000000E+00
  0.00000000E+00  0.00000000E+00  0.00000000E+00
  0.00000000E+00  0.00000000E+00  0.00000000E+00
  0.00000000E+00  0.00000000E+00  0.00000000E+00
  0.00000000E+00  0.00000000E+00  0.00000000E+00
  0.00000000E+00  0.00000000E+00  0.00000000E+00
  0.00000000E+00  0.00000000E+00  0.00000000E+00
  0.00000000E+00  0.00000000E+00  0.00000000E+00
  0.00000000E+00  0.00000000E+00  0.00000000E+00
  0.00000000E+00  0.00000000E+00  0.00000000E+00
  0.00000000E+00  0.00000000E+00  0.00000000E+00
  0.00000000E+00  0.00000000E+00  0.00000000E+00
  0.00000000E+00  0.00000000E+00  0.00000000E+00
  0.00000000E+00  0.00000000E+00  0.00000000E+00
  0.00000000E+00  0.00000000E+00  0.00000000E+00
  0.00000000E+00  0.00000000E+00  0.00000000E+00
  0.00000000E+00  0.00000000E+00  0.00000000E+00
  0.00000000E+00  0.00000000E+00  0.00000000E+00
  0.00000000E+00  0.00000000E+00  0.00000000E+00
  0.00000000E+00  0.00000000E+00  0.00000000E+00
  0.00000000E+00  0.00000000E+00  0.00000000E+00
  0.00000000E+00  0.00000000E+00  0.00000000E+00
