Cu  C Br                                
   1.00000000000000     
    10.2425003052000001    0.0000000000000000    0.0000000000000000
    -5.1212501526000000    8.8702654626000008    0.0000000000000000
     0.0000000000000000    0.0000000000000000   24.2721996307000012
   Cu   C    Br
    64     6     6
Selective dynamics
Direct
  0.7500000000097629  0.0000000000000000  0.3089900016937079   F   F   F
  0.0000000000343761  0.2500000000394564  0.3089900016937079   F   F   F
  0.0000000000123777  0.4999999999661782  0.3089900016937079   F   F   F
  0.0000000000467537  0.7500000000056346  0.3089900016937079   F   F   F
  0.0000000000000000  0.0000000000000000  0.3089900016937079   F   F   F
  0.2500000000050875  0.2500000000394564  0.3089900016937079   F   F   F
  0.2499999999830891  0.4999999999661782  0.3089900016937079   F   F   F
  0.2500000000174651  0.7500000000056346  0.3089900016937079   F   F   F
  0.4999999999757918  0.2500000000394564  0.3089900016937079   F   F   F
  0.4999999999538005  0.4999999999661782  0.3089900016937079   F   F   F
  0.4999999999881766  0.7500000000056346  0.3089900016937079   F   F   F
  0.5000000000390514  0.0000000000000000  0.3089900016937079   F   F   F
  0.7500000000441389  0.2500000000394564  0.3089900016937079   F   F   F
  0.7500000000221405  0.4999999999661782  0.3089900016937079   F   F   F
  0.7499999999588809  0.7500000000056346  0.3089900016937079   F   F   F
  0.2499999999707114  0.0000000000000000  0.3089900016937079   F   F   F
  0.0833299979487307  0.1666699946279451  0.3951300084426421   F   F   F
  0.0833299979267395  0.4166699945546668  0.3951300084426421   F   F   F
  0.0833299979045279  0.6666700243564847  0.3951300084426421   F   F   F
  0.0833299979389039  0.9166700243959411  0.3951300084426421   F   F   F
  0.3333300054371406  0.1666699946279451  0.3951300084426421   F   F   F
  0.3333300054151422  0.4166699945546668  0.3951300084426421   F   F   F
  0.3333300053929378  0.6666700243564847  0.3951300084426421   F   F   F
  0.3333300054273138  0.9166700243959411  0.3951300084426421   F   F   F
  0.5833299756299652  0.1666699946279451  0.3951300084426421   F   F   F
  0.5833299756079668  0.4166699945546668  0.3951300084426421   F   F   F
  0.5833299755857624  0.6666700243564847  0.3951300084426421   F   F   F
  0.5833299756201384  0.9166700243959411  0.3951300084426421   F   F   F
  0.8333299756006767  0.1666699946279451  0.3951300084426421   F   F   F
  0.8333299755786783  0.4166699945546668  0.3951300084426421   F   F   F
  0.8333299755564738  0.6666700243564847  0.3951300084426421   F   F   F
  0.8333299755908428  0.9166700243959411  0.3951300084426421   F   F   F
  0.9984812528565381  0.0006176221297852  0.5650407288043925   T   T   T
  0.9984071790613253  0.2502850195241839  0.5649806480900083   T   T   T
  0.9991214568421850  0.5010764982335808  0.5644966578246146   T   T   T
  0.9991278417771177  0.7511688200973288  0.5647138896488328   T   T   T
  0.2489048705885102  0.0009868882140709  0.5648209419784718   T   T   T
  0.2484871519464456  0.2509714293298009  0.5645707329953726   T   T   T
  0.2483342689657040  0.5011455274305227  0.5644720958298405   T   T   T
  0.2489409218205694  0.7515523310905795  0.5649044284640772   T   T   T
  0.4988206262309198  0.0009739511833122  0.5646663418417175   T   T   T
  0.4991218778664508  0.2513011437365738  0.5633876423368254   T   T   T
  0.4990942684341294  0.5007430486017550  0.5633223999663474   T   T   T
  0.4986292618260164  0.7511676027346905  0.5646889003875305   T   T   T
  0.7487393859634290  0.0006855573675660  0.5649128504909398   T   T   T
  0.7491299311736151  0.2508129835894485  0.5644947766199118   T   T   T
  0.7487038523646175  0.5009502255359339  0.5634353977245870   T   T   T
  0.7483772898272139  0.7499123755292536  0.5635365795103567   T   T   T
  0.1658137170858442  0.0838773422001570  0.4800883710817352   T   T   T
  0.1657941569503162  0.3341534446620426  0.4798966611368868   T   T   T
  0.1661502454599229  0.5845002429518391  0.4798907683356631   T   T   T
  0.1660397439851118  0.8341751833869828  0.4799310938979420   T   T   T
  0.4156569592466353  0.0834963217059152  0.4796485854662481   T   T   T
  0.4152523938321936  0.3335044266702771  0.4795915777310829   T   T   T
  0.4157515681313324  0.5843355975480239  0.4797842688781901   T   T   T
  0.4158414013922911  0.8339905031269325  0.4799276835813417   T   T   T
  0.6660896807878273  0.0839626258729672  0.4799982222876560   T   T   T
  0.6664017156515070  0.3337922784088588  0.4796004127883964   T   T   T
  0.6661161516213325  0.5840849586214794  0.4791845626867862   T   T   T
  0.6657654908361232  0.8341283112374205  0.4798699016937236   T   T   T
  0.9159591368779592  0.0838897766617344  0.4800318455704037   T   T   T
  0.9163269904226908  0.3341940362596609  0.4798604312258531   T   T   T
  0.9165433678577771  0.5844919807036456  0.4797715779335655   T   T   T
  0.9163537739032638  0.8342681963979910  0.4798771058897508   T   T   T
  0.7094693004446576  0.6675401058085229  0.6907093537814940   T   T   T
  0.7885056793776888  0.5881604671398885  0.6905585127597557   T   T   T
  0.7093495500194937  0.4297946140540524  0.6903106470535316   T   T   T
  0.5510395821160370  0.3506624079005900  0.6905824871674379   T   T   T
  0.4719184097466088  0.4299495135051994  0.6905835307049301   T   T   T
  0.5510944331082094  0.5882515881370138  0.6905987814087237   T   T   T
  0.8165401592170135  0.8819360239448003  0.6892128965191820   T   T   T
  0.0025156691989666  0.6947950461816046  0.6888466190008238   T   T   T
  0.8164903784582409  0.3228276844419165  0.6873607230500114   T   T   T
  0.4441994297407040  0.1364727745132411  0.6896794313063003   T   T   T
  0.2578710562113964  0.3229579797764721  0.6884799286548329   T   T   T
  0.4439031011956835  0.6952170492837749  0.6879007674959969   T   T   T
 
  0.00000000E+00  0.00000000E+00  0.00000000E+00
  0.00000000E+00  0.00000000E+00  0.00000000E+00
  0.00000000E+00  0.00000000E+00  0.00000000E+00
  0.00000000E+00  0.00000000E+00  0.00000000E+00
  0.00000000E+00  0.00000000E+00  0.00000000E+00
  0.00000000E+00  0.00000000E+00  0.00000000E+00
  0.00000000E+00  0.00000000E+00  0.00000000E+00
  0.00000000E+00  0.00000000E+00  0.00000000E+00
  0.00000000E+00  0.00000000E+00  0.00000000E+00
  0.00000000E+00  0.00000000E+00  0.00000000E+00
  0.00000000E+00  0.00000000E+00  0.00000000E+00
  0.00000000E+00  0.00000000E+00  0.00000000E+00
  0.00000000E+00  0.00000000E+00  0.00000000E+00
  0.00000000E+00  0.00000000E+00  0.00000000E+00
  0.00000000E+00  0.00000000E+00  0.00000000E+00
  0.00000000E+00  0.00000000E+00  0.00000000E+00
  0.00000000E+00  0.00000000E+00  0.00000000E+00
  0.00000000E+00  0.00000000E+00  0.00000000E+00
  0.00000000E+00  0.00000000E+00  0.00000000E+00
  0.00000000E+00  0.00000000E+00  0.00000000E+00
  0.00000000E+00  0.00000000E+00  0.00000000E+00
  0.00000000E+00  0.00000000E+00  0.00000000E+00
  0.00000000E+00  0.00000000E+00  0.00000000E+00
  0.00000000E+00  0.00000000E+00  0.00000000E+00
  0.00000000E+00  0.00000000E+00  0.00000000E+00
  0.00000000E+00  0.00000000E+00  0.00000000E+00
  0.00000000E+00  0.00000000E+00  0.00000000E+00
  0.00000000E+00  0.00000000E+00  0.00000000E+00
  0.00000000E+00  0.00000000E+00  0.00000000E+00
  0.00000000E+00  0.00000000E+00  0.00000000E+00
  0.00000000E+00  0.00000000E+00  0.00000000E+00
  0.00000000E+00  0.00000000E+00  0.00000000E+00
  0.00000000E+00  0.00000000E+00  0.00000000E+00
  0.00000000E+00  0.00000000E+00  0.00000000E+00
  0.00000000E+00  0.00000000E+00  0.00000000E+00
  0.00000000E+00  0.00000000E+00  0.00000000E+00
  0.00000000E+00  0.00000000E+00  0.00000000E+00
  0.00000000E+00  0.00000000E+00  0.00000000E+00
  0.00000000E+00  0.00000000E+00  0.00000000E+00
  0.00000000E+00  0.00000000E+00  0.00000000E+00
  0.00000000E+00  0.00000000E+00  0.00000000E+00
  0.00000000E+00  0.00000000E+00  0.00000000E+00
  0.00000000E+00  0.00000000E+00  0.00000000E+00
  0.00000000E+00  0.00000000E+00  0.00000000E+00
  0.00000000E+00  0.00000000E+00  0.00000000E+00
  0.00000000E+00  0.00000000E+00  0.00000000E+00
  0.00000000E+00  0.00000000E+00  0.00000000E+00
  0.00000000E+00  0.00000000E+00  0.00000000E+00
  0.00000000E+00  0.00000000E+00  0.00000000E+00
  0.00000000E+00  0.00000000E+00  0.00000000E+00
  0.00000000E+00  0.00000000E+00  0.00000000E+00
  0.00000000E+00  0.00000000E+00  0.00000000E+00
  0.00000000E+00  0.00000000E+00  0.00000000E+00
  0.00000000E+00  0.00000000E+00  0.00000000E+00
  0.00000000E+00  0.00000000E+00  0.00000000E+00
  0.00000000E+00  0.00000000E+00  0.00000000E+00
  0.00000000E+00  0.00000000E+00  0.00000000E+00
  0.00000000E+00  0.00000000E+00  0.00000000E+00
  0.00000000E+00  0.00000000E+00  0.00000000E+00
  0.00000000E+00  0.00000000E+00  0.00000000E+00
  0.00000000E+00  0.00000000E+00  0.00000000E+00
  0.00000000E+00  0.00000000E+00  0.00000000E+00
  0.00000000E+00  0.00000000E+00  0.00000000E+00
  0.00000000E+00  0.00000000E+00  0.00000000E+00
  0.00000000E+00  0.00000000E+00  0.00000000E+00
  0.00000000E+00  0.00000000E+00  0.00000000E+00
  0.00000000E+00  0.00000000E+00  0.00000000E+00
  0.00000000E+00  0.00000000E+00  0.00000000E+00
  0.00000000E+00  0.00000000E+00  0.00000000E+00
  0.00000000E+00  0.00000000E+00  0.00000000E+00
  0.00000000E+00  0.00000000E+00  0.00000000E+00
  0.00000000E+00  0.00000000E+00  0.00000000E+00
  0.00000000E+00  0.00000000E+00  0.00000000E+00
  0.00000000E+00  0.00000000E+00  0.00000000E+00
  0.00000000E+00  0.00000000E+00  0.00000000E+00
  0.00000000E+00  0.00000000E+00  0.00000000E+00
