Pt  C  N Br                             
    1.000000000000000     
    11.2480068000000006    0.0000000000000000    0.0000000000000000
     0.0000000000000000   11.2480068000000006    0.0000000000000000
     0.0000000000000000    0.0000000000000000   23.9651564400000012
   Pt   C    N    Br
    64     4     2     4
Selective dynamics
Direct
  0.2500000008890453  0.0000000000000000  0.3129543518222917   F   F   F
  0.0000000000000000  0.5000000017780906  0.3129543518222917   F   F   F
  0.2500000008890453  0.2500000008890453  0.3129543518222917   F   F   F
  0.2500000008890453  0.5000000017780906  0.3129543518222917   F   F   F
  0.2500000008890453  0.7500000026671358  0.3129543518222917   F   F   F
  0.5000000017780906  0.0000000000000000  0.3129543518222917   F   F   F
  0.5000000017780906  0.2500000008890453  0.3129543518222917   F   F   F
  0.0000000000000000  0.7500000026671358  0.3129543518222917   F   F   F
  0.5000000017780906  0.5000000017780906  0.3129543518222917   F   F   F
  0.5000000017780906  0.7500000026671358  0.3129543518222917   F   F   F
  0.7500000026671358  0.0000000000000000  0.3129543518222917   F   F   F
  0.7500000026671358  0.2500000008890453  0.3129543518222917   F   F   F
  0.7500000026671358  0.5000000017780906  0.3129543518222917   F   F   F
  0.7500000026671358  0.7500000026671358  0.3129543518222917   F   F   F
  0.0000000000000000  0.0000000000000000  0.3129543518222917   F   F   F
  0.0000000000000000  0.2500000008890453  0.3129543518222917   F   F   F
  0.2503250754539387  0.9994817999188774  0.4783810825080374   T   T   T
  0.2494308708165244  0.2494205138647490  0.4781780971419712   T   T   T
  0.2488055606279024  0.4995865528346286  0.4779877397388267   T   T   T
  0.2497899603209509  0.7502137137615670  0.4781744703131024   T   T   T
  0.4999946262095935 -0.0000026775250198  0.4785961783316714   T   T   T
  0.4995913592794516  0.2488012145396328  0.4779817748090086   T   T   T
  0.5000003549847518  0.4999828152817110  0.4775983856798282   T   T   T
  0.5003972456546928  0.7511936526444745  0.4779788435199364   T   T   T
  0.7496789813121324  0.0005215722097221  0.4783696407470907   T   T   T
  0.7502199232077579  0.2497873049880899  0.4781683035286372   T   T   T
  0.7511976859066972  0.5004009985350976  0.4779752453259832   T   T   T
  0.7505932922624333  0.7505890649270346  0.4781659741492874   T   T   T
  0.0000064264120442  0.0000014935120869  0.4781061411044719   T   T   T
  0.9994923832128404  0.2503243598921925  0.4783782608177347   T   T   T
  0.0000160665110073  0.4999966771295805  0.4785937564670592   T   T   T
  0.0005340754226060  0.7496761146664220  0.4783773256017780   T   T   T
  0.1246196408114285  0.1246105387058438  0.5601560432708306   T   T   T
  0.1249542232608736  0.3743595658137300  0.5602415104865864   T   T   T
  0.1251179890360491  0.6251582950735036  0.5610298560791240   T   T   T
  0.1249123234708591  0.8750892241733387  0.5601918753205706   T   T   T
  0.3743718633364457  0.1249400761004632  0.5602391130911939   T   T   T
  0.3745934983624347  0.3745605718931457  0.5596629643160641   T   T   T
  0.3757216826396709  0.6242757707695754  0.5584023238874346   T   T   T
  0.3748557673696315  0.8748942909096485  0.5610292393067665   T   T   T
  0.6251502813459132  0.1250911950774143  0.5610180205157631   T   T   T
  0.6243001862774706  0.3757080792333165  0.5583938435920448   T   T   T
  0.6254347934209020  0.6254279626295430  0.5596337086747524   T   T   T
  0.6256387892019385  0.8750484036731285  0.5602133733369444   T   T   T
  0.8750910206288095  0.1249071759368866  0.5601877756561376   T   T   T
  0.8748931184779145  0.3748410645159123  0.5610305984778355   T   T   T
  0.8750555463187125  0.6256384151179163  0.5602293376943983   T   T   T
  0.8753918126738107  0.8753903084488514  0.5601432871435008   T   T   T
  0.1250000008890453  0.1250000000000000  0.3959242036977884   F   F   F
  0.1250000008890453  0.3750000008890453  0.3959242036977884   F   F   F
  0.1250000008890453  0.6250000026671358  0.3959242036977884   F   F   F
  0.1250000008890453  0.8750000026671358  0.3959242036977884   F   F   F
  0.3750000017780906  0.1250000000000000  0.3959242036977884   F   F   F
  0.3750000017780906  0.3750000008890453  0.3959242036977884   F   F   F
  0.3750000017780906  0.6250000026671358  0.3959242036977884   F   F   F
  0.3750000017780906  0.8750000026671358  0.3959242036977884   F   F   F
  0.6250000026671358  0.1250000000000000  0.3959242036977884   F   F   F
  0.6250000026671358  0.3750000008890453  0.3959242036977884   F   F   F
  0.6250000026671358  0.6250000026671358  0.3959242036977884   F   F   F
  0.6250000026671358  0.8750000026671358  0.3959242036977884   F   F   F
  0.8750000035561882  0.1250000000000000  0.3959242036977884   F   F   F
  0.8750000026671358  0.3750000008890453  0.3959242036977884   F   F   F
  0.8750000035561882  0.6250000026671358  0.3959242036977884   F   F   F
  0.8750000035561882  0.8750000026671358  0.3959242036977884   F   F   F
  0.4723445696013271  0.6164926530184274  0.6876745956313707   T   T   T
  0.3834641602671139  0.5276534645800700  0.6876765959123758   T   T   T
  0.5276219168745490  0.3835146438681060  0.6876881841832290   T   T   T
  0.6164708087176805  0.4723609820843145  0.6876960632944258   T   T   T
  0.4137682008029362  0.4137755232965486  0.6873452628686806   T   T   T
  0.5861962392831003  0.5862405946605881  0.6873481825051655   T   T   T
  0.7814377858817049  0.4355778656007345  0.6894951034873559   T   T   T
  0.5643685179916048  0.2185665816266246  0.6894514541538608   T   T   T
  0.4354454902426439  0.7815381473770791  0.6893912986089694   T   T   T
  0.2184650591483700  0.5644072213288671  0.6894350346451465   T   T   T
 
  0.00000000E+00  0.00000000E+00  0.00000000E+00
  0.00000000E+00  0.00000000E+00  0.00000000E+00
  0.00000000E+00  0.00000000E+00  0.00000000E+00
  0.00000000E+00  0.00000000E+00  0.00000000E+00
  0.00000000E+00  0.00000000E+00  0.00000000E+00
  0.00000000E+00  0.00000000E+00  0.00000000E+00
  0.00000000E+00  0.00000000E+00  0.00000000E+00
  0.00000000E+00  0.00000000E+00  0.00000000E+00
  0.00000000E+00  0.00000000E+00  0.00000000E+00
  0.00000000E+00  0.00000000E+00  0.00000000E+00
  0.00000000E+00  0.00000000E+00  0.00000000E+00
  0.00000000E+00  0.00000000E+00  0.00000000E+00
  0.00000000E+00  0.00000000E+00  0.00000000E+00
  0.00000000E+00  0.00000000E+00  0.00000000E+00
  0.00000000E+00  0.00000000E+00  0.00000000E+00
  0.00000000E+00  0.00000000E+00  0.00000000E+00
  0.00000000E+00  0.00000000E+00  0.00000000E+00
  0.00000000E+00  0.00000000E+00  0.00000000E+00
  0.00000000E+00  0.00000000E+00  0.00000000E+00
  0.00000000E+00  0.00000000E+00  0.00000000E+00
  0.00000000E+00  0.00000000E+00  0.00000000E+00
  0.00000000E+00  0.00000000E+00  0.00000000E+00
  0.00000000E+00  0.00000000E+00  0.00000000E+00
  0.00000000E+00  0.00000000E+00  0.00000000E+00
  0.00000000E+00  0.00000000E+00  0.00000000E+00
  0.00000000E+00  0.00000000E+00  0.00000000E+00
  0.00000000E+00  0.00000000E+00  0.00000000E+00
  0.00000000E+00  0.00000000E+00  0.00000000E+00
  0.00000000E+00  0.00000000E+00  0.00000000E+00
  0.00000000E+00  0.00000000E+00  0.00000000E+00
  0.00000000E+00  0.00000000E+00  0.00000000E+00
  0.00000000E+00  0.00000000E+00  0.00000000E+00
  0.00000000E+00  0.00000000E+00  0.00000000E+00
  0.00000000E+00  0.00000000E+00  0.00000000E+00
  0.00000000E+00  0.00000000E+00  0.00000000E+00
  0.00000000E+00  0.00000000E+00  0.00000000E+00
  0.00000000E+00  0.00000000E+00  0.00000000E+00
  0.00000000E+00  0.00000000E+00  0.00000000E+00
  0.00000000E+00  0.00000000E+00  0.00000000E+00
  0.00000000E+00  0.00000000E+00  0.00000000E+00
  0.00000000E+00  0.00000000E+00  0.00000000E+00
  0.00000000E+00  0.00000000E+00  0.00000000E+00
  0.00000000E+00  0.00000000E+00  0.00000000E+00
  0.00000000E+00  0.00000000E+00  0.00000000E+00
  0.00000000E+00  0.00000000E+00  0.00000000E+00
  0.00000000E+00  0.00000000E+00  0.00000000E+00
  0.00000000E+00  0.00000000E+00  0.00000000E+00
  0.00000000E+00  0.00000000E+00  0.00000000E+00
  0.00000000E+00  0.00000000E+00  0.00000000E+00
  0.00000000E+00  0.00000000E+00  0.00000000E+00
  0.00000000E+00  0.00000000E+00  0.00000000E+00
  0.00000000E+00  0.00000000E+00  0.00000000E+00
  0.00000000E+00  0.00000000E+00  0.00000000E+00
  0.00000000E+00  0.00000000E+00  0.00000000E+00
  0.00000000E+00  0.00000000E+00  0.00000000E+00
  0.00000000E+00  0.00000000E+00  0.00000000E+00
  0.00000000E+00  0.00000000E+00  0.00000000E+00
  0.00000000E+00  0.00000000E+00  0.00000000E+00
  0.00000000E+00  0.00000000E+00  0.00000000E+00
  0.00000000E+00  0.00000000E+00  0.00000000E+00
  0.00000000E+00  0.00000000E+00  0.00000000E+00
  0.00000000E+00  0.00000000E+00  0.00000000E+00
  0.00000000E+00  0.00000000E+00  0.00000000E+00
  0.00000000E+00  0.00000000E+00  0.00000000E+00
  0.00000000E+00  0.00000000E+00  0.00000000E+00
  0.00000000E+00  0.00000000E+00  0.00000000E+00
  0.00000000E+00  0.00000000E+00  0.00000000E+00
  0.00000000E+00  0.00000000E+00  0.00000000E+00
  0.00000000E+00  0.00000000E+00  0.00000000E+00
  0.00000000E+00  0.00000000E+00  0.00000000E+00
  0.00000000E+00  0.00000000E+00  0.00000000E+00
  0.00000000E+00  0.00000000E+00  0.00000000E+00
  0.00000000E+00  0.00000000E+00  0.00000000E+00
  0.00000000E+00  0.00000000E+00  0.00000000E+00
