Ir  C  N  F                             
    1.000000000000000     
    10.9622135000000007    0.0000000000000000    0.0000000000000000
     0.0000000000000000   10.9622135000000007    0.0000000000000000
     0.0000000000000000    0.0000000000000000   23.8135916099999996
   Ir   C    N    F 
    64     4     2     4
Selective dynamics
Direct
  0.0000000000000000  0.2499999995438884  0.3149461921926360   F   F   F
  0.7499999986316652  0.7499999986316652  0.3149461921926360   F   F   F
  0.0000000000000000  0.4999999990877768  0.3149461921926360   F   F   F
  0.0000000000000000  0.7499999986316652  0.3149461921926360   F   F   F
  0.0000000000000000  0.0000000000000000  0.3149461921926360   F   F   F
  0.2499999995438884  0.2499999995438884  0.3149461921926360   F   F   F
  0.2499999995438884  0.4999999990877768  0.3149461921926360   F   F   F
  0.7499999986316652  0.0000000000000000  0.3149461921926360   F   F   F
  0.2499999995438884  0.7499999986316652  0.3149461921926360   F   F   F
  0.2499999995438884  0.0000000000000000  0.3149461921926360   F   F   F
  0.4999999990877768  0.2499999995438884  0.3149461921926360   F   F   F
  0.4999999990877768  0.4999999990877768  0.3149461921926360   F   F   F
  0.4999999990877768  0.7499999986316652  0.3149461921926360   F   F   F
  0.4999999990877768  0.0000000000000000  0.3149461921926360   F   F   F
  0.7499999986316652  0.2499999995438884  0.3149461921926360   F   F   F
  0.7499999986316652  0.4999999990877768  0.3149461921926360   F   F   F
  0.9986424932084590  0.2493688744834630  0.4778695522778013   T   T   T
 -0.0000053369288854  0.5000095380121889  0.4776386797636616   T   T   T
  0.0013558512930583  0.7506203268833007  0.4778842516208293   T   T   T
 -0.0000014744294373 -0.0000083920828646  0.4783737576799585   T   T   T
  0.2502485457943912  0.2502426989388125  0.4782852751203575   T   T   T
  0.2506415417660302  0.4991396338138913  0.4785142621171936   T   T   T
  0.2525788877102556  0.7474149657084811  0.4792256400578175   T   T   T
  0.2493864611712765  0.9986263024839873  0.4778780849330757   T   T   T
  0.4991306104461478  0.2506342306865178  0.4785187706417565   T   T   T
  0.5000204994167992  0.5000018180280135  0.4791251575767075   T   T   T
  0.5008767680289972  0.7493661541399316  0.4785200806061578   T   T   T
  0.4999904093475903 -0.0000049172904603  0.4776466074337052   T   T   T
  0.7474540799228773  0.2525594553867162  0.4792236984753801   T   T   T
  0.7493611415045263  0.5008836774065224  0.4785169295431859   T   T   T
  0.7497345252231764  0.7497465018763378  0.4782839540754993   T   T   T
  0.7506176228588800  0.0013637083124359  0.4778811621397295   T   T   T
  0.1251503068808429  0.1251420307923503  0.5561927819400280   T   T   T
  0.1219909272149686  0.3742145029920395  0.5560116927052074   T   T   T
  0.1238103673968691  0.6241269446535814  0.5565815572001348   T   T   T
  0.1253064496039118  0.8746820892418968  0.5563642931475866   T   T   T
  0.3742093119209736  0.1219828061803097  0.5560062392302352   T   T   T
  0.3711219825471065  0.3711021681195704  0.5578362783847198   T   T   T
  0.3737252340441141  0.6262763374121031  0.5647298241988239   T   T   T
  0.3758925307284116  0.8761786478227123  0.5565798846129477   T   T   T
  0.6241117458633536  0.1238125513676895  0.5565804320638399   T   T   T
  0.6262701317661985  0.3737302195991123  0.5647332030437632   T   T   T
  0.6288701268808744  0.6288512245141407  0.5578175499705209   T   T   T
  0.6257830807052971  0.8780233016282426  0.5559963732007114   T   T   T
  0.8746637782198349  0.1253244376129403  0.5563575814804358   T   T   T
  0.8761770186157570  0.3758856157798545  0.5565870115858208   T   T   T
  0.8780058767290886  0.6257807030534406  0.5560041226995636   T   T   T
  0.8748253353511879  0.8748570960203510  0.5561835642316634   T   T   T
  0.1250000002280558  0.1250000002280558  0.3963225717718615   F   F   F
  0.1250000002280558  0.3749999997719442  0.3963225717718615   F   F   F
  0.1250000002280558  0.6249999993158326  0.3963225717718615   F   F   F
  0.1250000002280558  0.8749999988597210  0.3963225717718615   F   F   F
  0.3749999997719442  0.1250000002280558  0.3963225717718615   F   F   F
  0.3749999997719442  0.3749999997719442  0.3963225717718615   F   F   F
  0.3749999997719442  0.6249999993158326  0.3963225717718615   F   F   F
  0.3749999997719442  0.8749999988597210  0.3963225717718615   F   F   F
  0.6249999993158326  0.1250000002280558  0.3963225717718615   F   F   F
  0.6249999993158326  0.3749999997719442  0.3963225717718615   F   F   F
  0.6249999993158326  0.6249999993158326  0.3963225717718615   F   F   F
  0.6249999993158326  0.8749999988597210  0.3963225717718615   F   F   F
  0.8749999988597210  0.1250000002280558  0.3963225717718615   F   F   F
  0.8749999988597210  0.3749999997719442  0.3963225717718615   F   F   F
  0.8749999988597210  0.6249999993158326  0.3963225717718615   F   F   F
  0.8749999988597210  0.8749999988597210  0.3963225717718615   F   F   F
  0.5304768994435024  0.3759675052384902  0.6449485991249916   T   T   T
  0.6240488718369758  0.4695332965934195  0.6449557579007090   T   T   T
  0.4695382852155277  0.6240112983465780  0.6449357333735485   T   T   T
  0.3759874449794504  0.5304850498354032  0.6449427269975426   T   T   T
  0.5932128079179469  0.5931531135652622  0.6409651193001983   T   T   T
  0.4068379486536929  0.4068339150769842  0.6409741963593266   T   T   T
  0.2732130045511680  0.5501904728149817  0.6761615395539126   T   T   T
  0.4498510080027540  0.7268151356669714  0.6761573954640991   T   T   T
  0.5501659672803517  0.2731974686124117  0.6761626227756097   T   T   T
  0.7267953248599393  0.4498216895916395  0.6761642787350778   T   T   T
 
  0.00000000E+00  0.00000000E+00  0.00000000E+00
  0.00000000E+00  0.00000000E+00  0.00000000E+00
  0.00000000E+00  0.00000000E+00  0.00000000E+00
  0.00000000E+00  0.00000000E+00  0.00000000E+00
  0.00000000E+00  0.00000000E+00  0.00000000E+00
  0.00000000E+00  0.00000000E+00  0.00000000E+00
  0.00000000E+00  0.00000000E+00  0.00000000E+00
  0.00000000E+00  0.00000000E+00  0.00000000E+00
  0.00000000E+00  0.00000000E+00  0.00000000E+00
  0.00000000E+00  0.00000000E+00  0.00000000E+00
  0.00000000E+00  0.00000000E+00  0.00000000E+00
  0.00000000E+00  0.00000000E+00  0.00000000E+00
  0.00000000E+00  0.00000000E+00  0.00000000E+00
  0.00000000E+00  0.00000000E+00  0.00000000E+00
  0.00000000E+00  0.00000000E+00  0.00000000E+00
  0.00000000E+00  0.00000000E+00  0.00000000E+00
  0.00000000E+00  0.00000000E+00  0.00000000E+00
  0.00000000E+00  0.00000000E+00  0.00000000E+00
  0.00000000E+00  0.00000000E+00  0.00000000E+00
  0.00000000E+00  0.00000000E+00  0.00000000E+00
  0.00000000E+00  0.00000000E+00  0.00000000E+00
  0.00000000E+00  0.00000000E+00  0.00000000E+00
  0.00000000E+00  0.00000000E+00  0.00000000E+00
  0.00000000E+00  0.00000000E+00  0.00000000E+00
  0.00000000E+00  0.00000000E+00  0.00000000E+00
  0.00000000E+00  0.00000000E+00  0.00000000E+00
  0.00000000E+00  0.00000000E+00  0.00000000E+00
  0.00000000E+00  0.00000000E+00  0.00000000E+00
  0.00000000E+00  0.00000000E+00  0.00000000E+00
  0.00000000E+00  0.00000000E+00  0.00000000E+00
  0.00000000E+00  0.00000000E+00  0.00000000E+00
  0.00000000E+00  0.00000000E+00  0.00000000E+00
  0.00000000E+00  0.00000000E+00  0.00000000E+00
  0.00000000E+00  0.00000000E+00  0.00000000E+00
  0.00000000E+00  0.00000000E+00  0.00000000E+00
  0.00000000E+00  0.00000000E+00  0.00000000E+00
  0.00000000E+00  0.00000000E+00  0.00000000E+00
  0.00000000E+00  0.00000000E+00  0.00000000E+00
  0.00000000E+00  0.00000000E+00  0.00000000E+00
  0.00000000E+00  0.00000000E+00  0.00000000E+00
  0.00000000E+00  0.00000000E+00  0.00000000E+00
  0.00000000E+00  0.00000000E+00  0.00000000E+00
  0.00000000E+00  0.00000000E+00  0.00000000E+00
  0.00000000E+00  0.00000000E+00  0.00000000E+00
  0.00000000E+00  0.00000000E+00  0.00000000E+00
  0.00000000E+00  0.00000000E+00  0.00000000E+00
  0.00000000E+00  0.00000000E+00  0.00000000E+00
  0.00000000E+00  0.00000000E+00  0.00000000E+00
  0.00000000E+00  0.00000000E+00  0.00000000E+00
  0.00000000E+00  0.00000000E+00  0.00000000E+00
  0.00000000E+00  0.00000000E+00  0.00000000E+00
  0.00000000E+00  0.00000000E+00  0.00000000E+00
  0.00000000E+00  0.00000000E+00  0.00000000E+00
  0.00000000E+00  0.00000000E+00  0.00000000E+00
  0.00000000E+00  0.00000000E+00  0.00000000E+00
  0.00000000E+00  0.00000000E+00  0.00000000E+00
  0.00000000E+00  0.00000000E+00  0.00000000E+00
  0.00000000E+00  0.00000000E+00  0.00000000E+00
  0.00000000E+00  0.00000000E+00  0.00000000E+00
  0.00000000E+00  0.00000000E+00  0.00000000E+00
  0.00000000E+00  0.00000000E+00  0.00000000E+00
  0.00000000E+00  0.00000000E+00  0.00000000E+00
  0.00000000E+00  0.00000000E+00  0.00000000E+00
  0.00000000E+00  0.00000000E+00  0.00000000E+00
  0.00000000E+00  0.00000000E+00  0.00000000E+00
  0.00000000E+00  0.00000000E+00  0.00000000E+00
  0.00000000E+00  0.00000000E+00  0.00000000E+00
  0.00000000E+00  0.00000000E+00  0.00000000E+00
  0.00000000E+00  0.00000000E+00  0.00000000E+00
  0.00000000E+00  0.00000000E+00  0.00000000E+00
  0.00000000E+00  0.00000000E+00  0.00000000E+00
  0.00000000E+00  0.00000000E+00  0.00000000E+00
  0.00000000E+00  0.00000000E+00  0.00000000E+00
  0.00000000E+00  0.00000000E+00  0.00000000E+00
