Rh  C  H Cl                             
    1.000000000000000     
    10.8856652999999994    0.0000000000000000    0.0000000000000000
     0.0000000000000000   15.3946555000000007    0.0000000000000000
     0.0000000000000000    0.0000000000000000   22.0821244799999974
   Rh   C    H    Cl
    64     6     2     4
Selective dynamics
Direct
  0.2500000004593161  0.2500000003247891  0.3396412336499992   F   F   F
  0.0000000018372788  0.7500000016239383  0.3396412336499992   F   F   F
  0.2500000004593161  0.5000000012991492  0.3396412336499992   F   F   F
  0.2500000004593161  0.7500000016239383  0.3396412336499992   F   F   F
  0.2500000004593161  0.0000000019487274  0.3396412336499992   F   F   F
  0.5000000009186394  0.2500000003247891  0.3396412336499992   F   F   F
  0.5000000009186394  0.5000000012991492  0.3396412336499992   F   F   F
  0.0000000018372788  0.0000000019487274  0.3396412336499992   F   F   F
  0.5000000009186394  0.7500000016239383  0.3396412336499992   F   F   F
  0.5000000009186394  0.0000000019487274  0.3396412336499992   F   F   F
  0.7500000013779555  0.2500000003247891  0.3396412336499992   F   F   F
  0.7500000013779555  0.5000000012991492  0.3396412336499992   F   F   F
  0.7500000013779555  0.7500000016239383  0.3396412336499992   F   F   F
  0.7500000013779555  0.0000000019487274  0.3396412336499992   F   F   F
  0.0000000018372788  0.2500000003247891  0.3396412336499992   F   F   F
  0.0000000018372788  0.5000000012991492  0.3396412336499992   F   F   F
  0.2494280532159737  0.2503021834755847  0.4587820847155542   T   T   T
  0.2499267974585675  0.4994426061997038  0.4569053163811915   T   T   T
  0.2512537200380670  0.7487562098880927  0.4589792703980676   T   T   T
  0.2501945876193428  0.0001916413804038  0.4591417402565876   T   T   T
  0.4993926006655680  0.2511532632097587  0.4586438050998505   T   T   T
  0.4999896095893792  0.5000112239197353  0.4549820649397046   T   T   T
  0.5006064742217823  0.7488395760343231  0.4586570655663501   T   T   T
  0.4999928047057195 -0.0000112125837876  0.4592056500097738   T   T   T
  0.7487523191666864  0.2512428151532169  0.4589601234368669   T   T   T
  0.7500799050509225  0.5005481009752503  0.4569122931808094   T   T   T
  0.7505634075357519  0.7496938400511067  0.4587845629311729   T   T   T
  0.7498302305107459  0.9998415560633905  0.4591418983442286   T   T   T
  0.9980087279573604  0.2507576523985106  0.4593620828209727   T   T   T
 -0.0000084530890567  0.4999903165611175  0.4588149191083796   T   T   T
  0.0020020205378134  0.7492478060636706  0.4593410201407175   T   T   T
  0.0000279276700638 -0.0000223935164804  0.4591645636588186   T   T   T
  0.1243421192131353  0.1254801063826988  0.5150627578987802   T   T   T
  0.1202459987361402  0.3745583142446937  0.5150717690204576   T   T   T
  0.1327423994981927  0.6216797244784132  0.5172266565379358   T   T   T
  0.1257830415464784  0.8747410904756335  0.5150945248859338   T   T   T
  0.3751654595792693  0.1255883585703488  0.5151359680522835   T   T   T
  0.3653878154735112  0.3752525368176524  0.5162014536335927   T   T   T
  0.3869762514325389  0.6136909473647579  0.5195623118020484   T   T   T
  0.3748844041023210  0.8744020977753463  0.5150258705397196   T   T   T
  0.6251016110227536  0.1255954585996256  0.5149968372589611   T   T   T
  0.6130011333813524  0.3863083008461352  0.5195571721862233   T   T   T
  0.6346309429270133  0.6247267257643665  0.5161900964192863   T   T   T
  0.6248154093711109  0.8744118177148752  0.5151189858059453   T   T   T
  0.8742333282871513  0.1252518644452725  0.5150621250509649   T   T   T
  0.8672533096638814  0.3783298186048611  0.5172438619060786   T   T   T
  0.8797844999099111  0.6254385980832970  0.5150088905955497   T   T   T
  0.8756119464209046  0.8745272189031981  0.5150714083577270   T   T   T
  0.1249999997703384  0.1250000001623945  0.4012615800633341   F   F   F
  0.1249999997703384  0.3750000004871836  0.4012615800633341   F   F   F
  0.1250000006889778  0.6250000014615438  0.4012615800633341   F   F   F
  0.1250000006889778  0.8750000017863329  0.4012615800633341   F   F   F
  0.3750000002296616  0.1250000001623945  0.4012615800633341   F   F   F
  0.3750000002296616  0.3750000004871836  0.4012615800633341   F   F   F
  0.3750000011483010  0.6250000014615438  0.4012615800633341   F   F   F
  0.3750000011483010  0.8750000017863329  0.4012615800633341   F   F   F
  0.6250000006889778  0.1250000001623945  0.4012615800633341   F   F   F
  0.6250000006889778  0.3750000004871836  0.4012615800633341   F   F   F
  0.6250000006889778  0.6250000014615438  0.4012615800633341   F   F   F
  0.6250000006889778  0.8750000017863329  0.4012615800633341   F   F   F
  0.8750000011483010  0.1250000001623945  0.4012615800633341   F   F   F
  0.8750000011483010  0.3750000004871836  0.4012615800633341   F   F   F
  0.8750000020669404  0.6250000014615438  0.4012615800633341   F   F   F
  0.8750000011483010  0.8750000017863329  0.4012615800633341   F   F   F
  0.3977655696994626  0.4369369202630572  0.5987067356324557   T   T   T
  0.3726437247480044  0.5324788456244399  0.5956912867108951   T   T   T
  0.4727248192662936  0.5933640275221199  0.6051514564229307   T   T   T
  0.6023461337330843  0.5630303295723195  0.5986818407300896   T   T   T
  0.6274228136404506  0.4674536020240060  0.5956747643414293   T   T   T
  0.5273458310463830  0.4065596649470661  0.6051633230946861   T   T   T
  0.3351093941314419  0.4036916030809399  0.6300992842212371   T   T   T
  0.6649481945392718  0.5962451435676868  0.6301062432771344   T   T   T
  0.2185230221940373  0.5584456213614686  0.6207886816423953   T   T   T
  0.4535883926452807  0.6837428958305209  0.6529485693578018   T   T   T
  0.7816786227352127  0.4413117613271588  0.6206666464568197   T   T   T
  0.5464127235322732  0.3161881817545799  0.6529425173331701   T   T   T
 
  0.00000000E+00  0.00000000E+00  0.00000000E+00
  0.00000000E+00  0.00000000E+00  0.00000000E+00
  0.00000000E+00  0.00000000E+00  0.00000000E+00
  0.00000000E+00  0.00000000E+00  0.00000000E+00
  0.00000000E+00  0.00000000E+00  0.00000000E+00
  0.00000000E+00  0.00000000E+00  0.00000000E+00
  0.00000000E+00  0.00000000E+00  0.00000000E+00
  0.00000000E+00  0.00000000E+00  0.00000000E+00
  0.00000000E+00  0.00000000E+00  0.00000000E+00
  0.00000000E+00  0.00000000E+00  0.00000000E+00
  0.00000000E+00  0.00000000E+00  0.00000000E+00
  0.00000000E+00  0.00000000E+00  0.00000000E+00
  0.00000000E+00  0.00000000E+00  0.00000000E+00
  0.00000000E+00  0.00000000E+00  0.00000000E+00
  0.00000000E+00  0.00000000E+00  0.00000000E+00
  0.00000000E+00  0.00000000E+00  0.00000000E+00
  0.00000000E+00  0.00000000E+00  0.00000000E+00
  0.00000000E+00  0.00000000E+00  0.00000000E+00
  0.00000000E+00  0.00000000E+00  0.00000000E+00
  0.00000000E+00  0.00000000E+00  0.00000000E+00
  0.00000000E+00  0.00000000E+00  0.00000000E+00
  0.00000000E+00  0.00000000E+00  0.00000000E+00
  0.00000000E+00  0.00000000E+00  0.00000000E+00
  0.00000000E+00  0.00000000E+00  0.00000000E+00
  0.00000000E+00  0.00000000E+00  0.00000000E+00
  0.00000000E+00  0.00000000E+00  0.00000000E+00
  0.00000000E+00  0.00000000E+00  0.00000000E+00
  0.00000000E+00  0.00000000E+00  0.00000000E+00
  0.00000000E+00  0.00000000E+00  0.00000000E+00
  0.00000000E+00  0.00000000E+00  0.00000000E+00
  0.00000000E+00  0.00000000E+00  0.00000000E+00
  0.00000000E+00  0.00000000E+00  0.00000000E+00
  0.00000000E+00  0.00000000E+00  0.00000000E+00
  0.00000000E+00  0.00000000E+00  0.00000000E+00
  0.00000000E+00  0.00000000E+00  0.00000000E+00
  0.00000000E+00  0.00000000E+00  0.00000000E+00
  0.00000000E+00  0.00000000E+00  0.00000000E+00
  0.00000000E+00  0.00000000E+00  0.00000000E+00
  0.00000000E+00  0.00000000E+00  0.00000000E+00
  0.00000000E+00  0.00000000E+00  0.00000000E+00
  0.00000000E+00  0.00000000E+00  0.00000000E+00
  0.00000000E+00  0.00000000E+00  0.00000000E+00
  0.00000000E+00  0.00000000E+00  0.00000000E+00
  0.00000000E+00  0.00000000E+00  0.00000000E+00
  0.00000000E+00  0.00000000E+00  0.00000000E+00
  0.00000000E+00  0.00000000E+00  0.00000000E+00
  0.00000000E+00  0.00000000E+00  0.00000000E+00
  0.00000000E+00  0.00000000E+00  0.00000000E+00
  0.00000000E+00  0.00000000E+00  0.00000000E+00
  0.00000000E+00  0.00000000E+00  0.00000000E+00
  0.00000000E+00  0.00000000E+00  0.00000000E+00
  0.00000000E+00  0.00000000E+00  0.00000000E+00
  0.00000000E+00  0.00000000E+00  0.00000000E+00
  0.00000000E+00  0.00000000E+00  0.00000000E+00
  0.00000000E+00  0.00000000E+00  0.00000000E+00
  0.00000000E+00  0.00000000E+00  0.00000000E+00
  0.00000000E+00  0.00000000E+00  0.00000000E+00
  0.00000000E+00  0.00000000E+00  0.00000000E+00
  0.00000000E+00  0.00000000E+00  0.00000000E+00
  0.00000000E+00  0.00000000E+00  0.00000000E+00
  0.00000000E+00  0.00000000E+00  0.00000000E+00
  0.00000000E+00  0.00000000E+00  0.00000000E+00
  0.00000000E+00  0.00000000E+00  0.00000000E+00
  0.00000000E+00  0.00000000E+00  0.00000000E+00
  0.00000000E+00  0.00000000E+00  0.00000000E+00
  0.00000000E+00  0.00000000E+00  0.00000000E+00
  0.00000000E+00  0.00000000E+00  0.00000000E+00
  0.00000000E+00  0.00000000E+00  0.00000000E+00
  0.00000000E+00  0.00000000E+00  0.00000000E+00
  0.00000000E+00  0.00000000E+00  0.00000000E+00
  0.00000000E+00  0.00000000E+00  0.00000000E+00
  0.00000000E+00  0.00000000E+00  0.00000000E+00
  0.00000000E+00  0.00000000E+00  0.00000000E+00
  0.00000000E+00  0.00000000E+00  0.00000000E+00
  0.00000000E+00  0.00000000E+00  0.00000000E+00
  0.00000000E+00  0.00000000E+00  0.00000000E+00
