Pd  C  N  F                             
    1.000000000000000     
    11.1817229999999999    0.0000000000000000    0.0000000000000000
     0.0000000000000000   15.8133443000000007    0.0000000000000000
     0.0000000000000000    0.0000000000000000   22.1931461100000007
   Pd   C    N    F 
    64     4     2     4
Selective dynamics
Direct
  0.2499999991056825  0.0000000000000000  0.3379421720033022   F   F   F
  0.9999999964227371  0.4999999987352481  0.3379421720033022   F   F   F
  0.2499999991056825  0.2499999996838085  0.3379421720033022   F   F   F
  0.2499999991056825  0.4999999987352481  0.3379421720033022   F   F   F
  0.2499999991056825  0.7499999984190566  0.3379421720033022   F   F   F
  0.4999999982113650  0.0000000000000000  0.3379421720033022   F   F   F
  0.4999999982113650  0.2499999996838085  0.3379421720033022   F   F   F
  0.9999999964227371  0.7499999984190566  0.3379421720033022   F   F   F
  0.4999999982113650  0.4999999987352481  0.3379421720033022   F   F   F
  0.4999999982113650  0.7499999984190566  0.3379421720033022   F   F   F
  0.7499999973170475  0.0000000000000000  0.3379421720033022   F   F   F
  0.7499999973170475  0.2499999996838085  0.3379421720033022   F   F   F
  0.7499999973170475  0.4999999987352481  0.3379421720033022   F   F   F
  0.7499999973170475  0.7499999984190566  0.3379421720033022   F   F   F
  0.0000000000000000  0.0000000000000000  0.3379421720033022   F   F   F
  0.9999999964227371  0.2499999996838085  0.3379421720033022   F   F   F
  0.2495420084107610  0.0003956611406726  0.4652824053450911   T   T   T
  0.2489438506028422  0.2496997641749370  0.4646363561126299   T   T   T
  0.2496649114741135  0.4993154965950398  0.4645442602410466   T   T   T
  0.2514123505926000  0.7480374620903715  0.4660223344545510   T   T   T
  0.4999985754366443  0.0000481312003846  0.4652656752677861   T   T   T
  0.5001597647604786  0.2494748349520073  0.4642502095606784   T   T   T
  0.4999335702572231  0.4999978242923820  0.4612336720707869   T   T   T
  0.4998446049846737  0.7505125648276012  0.4642522320966714   T   T   T
  0.7504549296996963  0.9996243506683158  0.4652732557617412   T   T   T
  0.7485688244929272  0.2519750911175337  0.4660177898768577   T   T   T
  0.7503759819921911  0.5006856619298651  0.4645208078171801   T   T   T
  0.7510310383795027  0.7502893267789661  0.4646353978788009   T   T   T
 -0.0000128470792093 -0.0000205117482503  0.4654952606825320   T   T   T
  0.9986179244009022  0.2502919826708396  0.4649281123001772   T   T   T
  0.0000225621117388  0.4999391022356190  0.4651354016025152   T   T   T
  0.0013755714216801  0.7497194394973156  0.4649341715396804   T   T   T
  0.1238493018588656  0.1258352747376063  0.5239801886586166   T   T   T
  0.1218733957971524  0.3743775504474710  0.5241220705809314   T   T   T
  0.1284446254840176  0.6247453315916163  0.5241036326085160   T   T   T
  0.1267908849980260  0.8740722757439564  0.5236681111539603   T   T   T
  0.3746410065415150  0.1250690255109672  0.5240156904945862   T   T   T
  0.3692950067799752  0.3693199985193246  0.5260499617789265   T   T   T
  0.3843349030553387  0.6198873904944291  0.5257462012691071   T   T   T
  0.3754817354439507  0.8751758446455481  0.5239266365182911   T   T   T
  0.6245890199145887  0.1248223734700387  0.5239501372392940   T   T   T
  0.6156607447043717  0.3801120725596986  0.5257382340197492   T   T   T
  0.6307031389312153  0.6306680965307856  0.5260437513943464   T   T   T
  0.6254105478027778  0.8749298970001786  0.5239980252395658   T   T   T
  0.8732527073191523  0.1259483395819977  0.5236789819119186   T   T   T
  0.8715538005201918  0.3752756766380956  0.5241251010856433   T   T   T
  0.8781664600564199  0.6255719156477640  0.5241088278761750   T   T   T
  0.8761522863360911  0.8741174608029773  0.5239779838157650   T   T   T
  0.1249999995528412  0.1249999995257198  0.4009217677339905   F   F   F
  0.1249999995528412  0.3749999992095283  0.4009217677339905   F   F   F
  0.1249999995528412  0.6249999982609609  0.4009217677339905   F   F   F
  0.1249999995528412  0.8749999979447765  0.4009217677339905   F   F   F
  0.3749999986585237  0.1249999995257198  0.4009217677339905   F   F   F
  0.3749999986585237  0.3749999992095283  0.4009217677339905   F   F   F
  0.3749999986585237  0.6249999982609609  0.4009217677339905   F   F   F
  0.3749999986585237  0.8749999979447765  0.4009217677339905   F   F   F
  0.6249999977642062  0.1249999995257198  0.4009217677339905   F   F   F
  0.6249999977642062  0.3749999992095283  0.4009217677339905   F   F   F
  0.6249999977642062  0.6249999982609609  0.4009217677339905   F   F   F
  0.6249999977642062  0.8749999979447765  0.4009217677339905   F   F   F
  0.8749999968698887  0.1249999995257198  0.4009217677339905   F   F   F
  0.8749999968698887  0.3749999992095283  0.4009217677339905   F   F   F
  0.8749999968698887  0.6249999982609609  0.4009217677339905   F   F   F
  0.8749999968698887  0.8749999979447765  0.4009217677339905   F   F   F
  0.5481903441054040  0.4177152548921274  0.6087352294166047   T   T   T
  0.6195384883302486  0.4939560984602172  0.6119251327020583   T   T   T
  0.4517892360301292  0.5823116776444337  0.6087435263985043   T   T   T
  0.3804356010521375  0.5060589620368148  0.6119094877327763   T   T   T
  0.5766251657215898  0.5709364729371396  0.6055034780847381   T   T   T
  0.4233400657644323  0.4290711510796817  0.6054824916361198   T   T   T
  0.2632614130405968  0.5130004481358937  0.6255966432167569   T   T   T
  0.4218202439957746  0.6460709810717630  0.6489645591994830   T   T   T
  0.5781223887970498  0.3539461693634773  0.6489453932800866   T   T   T
  0.7367258561712752  0.4870020637674093  0.6256079135396571   T   T   T
 
  0.00000000E+00  0.00000000E+00  0.00000000E+00
  0.00000000E+00  0.00000000E+00  0.00000000E+00
  0.00000000E+00  0.00000000E+00  0.00000000E+00
  0.00000000E+00  0.00000000E+00  0.00000000E+00
  0.00000000E+00  0.00000000E+00  0.00000000E+00
  0.00000000E+00  0.00000000E+00  0.00000000E+00
  0.00000000E+00  0.00000000E+00  0.00000000E+00
  0.00000000E+00  0.00000000E+00  0.00000000E+00
  0.00000000E+00  0.00000000E+00  0.00000000E+00
  0.00000000E+00  0.00000000E+00  0.00000000E+00
  0.00000000E+00  0.00000000E+00  0.00000000E+00
  0.00000000E+00  0.00000000E+00  0.00000000E+00
  0.00000000E+00  0.00000000E+00  0.00000000E+00
  0.00000000E+00  0.00000000E+00  0.00000000E+00
  0.00000000E+00  0.00000000E+00  0.00000000E+00
  0.00000000E+00  0.00000000E+00  0.00000000E+00
  0.00000000E+00  0.00000000E+00  0.00000000E+00
  0.00000000E+00  0.00000000E+00  0.00000000E+00
  0.00000000E+00  0.00000000E+00  0.00000000E+00
  0.00000000E+00  0.00000000E+00  0.00000000E+00
  0.00000000E+00  0.00000000E+00  0.00000000E+00
  0.00000000E+00  0.00000000E+00  0.00000000E+00
  0.00000000E+00  0.00000000E+00  0.00000000E+00
  0.00000000E+00  0.00000000E+00  0.00000000E+00
  0.00000000E+00  0.00000000E+00  0.00000000E+00
  0.00000000E+00  0.00000000E+00  0.00000000E+00
  0.00000000E+00  0.00000000E+00  0.00000000E+00
  0.00000000E+00  0.00000000E+00  0.00000000E+00
  0.00000000E+00  0.00000000E+00  0.00000000E+00
  0.00000000E+00  0.00000000E+00  0.00000000E+00
  0.00000000E+00  0.00000000E+00  0.00000000E+00
  0.00000000E+00  0.00000000E+00  0.00000000E+00
  0.00000000E+00  0.00000000E+00  0.00000000E+00
  0.00000000E+00  0.00000000E+00  0.00000000E+00
  0.00000000E+00  0.00000000E+00  0.00000000E+00
  0.00000000E+00  0.00000000E+00  0.00000000E+00
  0.00000000E+00  0.00000000E+00  0.00000000E+00
  0.00000000E+00  0.00000000E+00  0.00000000E+00
  0.00000000E+00  0.00000000E+00  0.00000000E+00
  0.00000000E+00  0.00000000E+00  0.00000000E+00
  0.00000000E+00  0.00000000E+00  0.00000000E+00
  0.00000000E+00  0.00000000E+00  0.00000000E+00
  0.00000000E+00  0.00000000E+00  0.00000000E+00
  0.00000000E+00  0.00000000E+00  0.00000000E+00
  0.00000000E+00  0.00000000E+00  0.00000000E+00
  0.00000000E+00  0.00000000E+00  0.00000000E+00
  0.00000000E+00  0.00000000E+00  0.00000000E+00
  0.00000000E+00  0.00000000E+00  0.00000000E+00
  0.00000000E+00  0.00000000E+00  0.00000000E+00
  0.00000000E+00  0.00000000E+00  0.00000000E+00
  0.00000000E+00  0.00000000E+00  0.00000000E+00
  0.00000000E+00  0.00000000E+00  0.00000000E+00
  0.00000000E+00  0.00000000E+00  0.00000000E+00
  0.00000000E+00  0.00000000E+00  0.00000000E+00
  0.00000000E+00  0.00000000E+00  0.00000000E+00
  0.00000000E+00  0.00000000E+00  0.00000000E+00
  0.00000000E+00  0.00000000E+00  0.00000000E+00
  0.00000000E+00  0.00000000E+00  0.00000000E+00
  0.00000000E+00  0.00000000E+00  0.00000000E+00
  0.00000000E+00  0.00000000E+00  0.00000000E+00
  0.00000000E+00  0.00000000E+00  0.00000000E+00
  0.00000000E+00  0.00000000E+00  0.00000000E+00
  0.00000000E+00  0.00000000E+00  0.00000000E+00
  0.00000000E+00  0.00000000E+00  0.00000000E+00
  0.00000000E+00  0.00000000E+00  0.00000000E+00
  0.00000000E+00  0.00000000E+00  0.00000000E+00
  0.00000000E+00  0.00000000E+00  0.00000000E+00
  0.00000000E+00  0.00000000E+00  0.00000000E+00
  0.00000000E+00  0.00000000E+00  0.00000000E+00
  0.00000000E+00  0.00000000E+00  0.00000000E+00
  0.00000000E+00  0.00000000E+00  0.00000000E+00
  0.00000000E+00  0.00000000E+00  0.00000000E+00
  0.00000000E+00  0.00000000E+00  0.00000000E+00
  0.00000000E+00  0.00000000E+00  0.00000000E+00
