Au  C  H Cl                             
    1.000000000000000     
    11.7981856999999994    0.0000000000000000    0.0000000000000000
     0.0000000000000000   16.6851543000000007    0.0000000000000000
     0.0000000000000000    0.0000000000000000   22.4243196299999994
   Au   C    H    Cl
    64     6     4     2
Selective dynamics
Direct
  0.0000000016951773  0.2499999991010000  0.3344583079330619   F   F   F
  0.7500000012713812  0.7499999979023286  0.3344583079330619   F   F   F
  0.0000000016951773  0.4999999988013286  0.3344583079330619   F   F   F
  0.0000000016951773  0.7499999979023286  0.3344583079330619   F   F   F
  0.0000000016951773  0.0000000000000000  0.3344583079330619   F   F   F
  0.2500000004237961  0.2499999991010000  0.3344583079330619   F   F   F
  0.2500000004237961  0.4999999988013286  0.3344583079330619   F   F   F
  0.7500000012713812  0.0000000000000000  0.3344583079330619   F   F   F
  0.2500000004237961  0.7499999979023286  0.3344583079330619   F   F   F
  0.2500000004237961  0.0000000000000000  0.3344583079330619   F   F   F
  0.5000000008475851  0.2499999991010000  0.3344583079330619   F   F   F
  0.5000000008475851  0.4999999988013286  0.3344583079330619   F   F   F
  0.5000000008475851  0.7499999979023286  0.3344583079330619   F   F   F
  0.5000000008475851  0.0000000000000000  0.3344583079330619   F   F   F
  0.7500000012713812  0.2499999991010000  0.3344583079330619   F   F   F
  0.7500000012713812  0.4999999988013286  0.3344583079330619   F   F   F
 -0.0002397511356381  0.2499723976631858  0.4700016443926210   T   T   T
  0.0007299309736854  0.5000115949117476  0.4702467884836143   T   T   T
  0.0001322415654415  0.7500162650921287  0.4699915260966950   T   T   T
  0.0000011312666717 -0.0000000437305109  0.4700128167682184   T   T   T
  0.2490423503148254  0.2499167224379154  0.4702031563743000   T   T   T
  0.2492273477532138  0.5000968015442936  0.4702019081938620   T   T   T
  0.2507884243349130  0.7500882745239240  0.4702047513777644   T   T   T
  0.2499034111884669  0.0000306540864856  0.4700006751345840   T   T   T
  0.4998912091683558  0.2499413959682160  0.4699927528787703   T   T   T
  0.5000084146170687  0.5000043860216581  0.4699866769530959   T   T   T
  0.4999937506508081  0.7500540666095598  0.4699931760192819   T   T   T
  0.4999970309157702  0.0000035144779133  0.4699983429499950   T   T   T
  0.7491696004000727  0.2499309657997055  0.4702029194330943   T   T   T
  0.7508791694662559  0.4999141979317238  0.4702056834635269   T   T   T
  0.7508316466102356  0.7500947510896595  0.4701404009245189   T   T   T
  0.7501148064617402 -0.0000580807450592  0.4700088808158200   T   T   T
  0.1250885453800023  0.1249612287247419  0.5286884590170172   T   T   T
  0.1232796459391088  0.3752992271531471  0.5288234351530309   T   T   T
  0.1259067214922640  0.6257679467612361  0.5288930204293237   T   T   T
  0.1250080700319389  0.8749679296472954  0.5287056521539923   T   T   T
  0.3754786233300014  0.1249197818247594  0.5286186668756847   T   T   T
  0.3739275379977670  0.3750717646573607  0.5275967287734611   T   T   T
  0.3749861998783627  0.6249279367859480  0.5287227756923574   T   T   T
  0.3742465474848919  0.8753557915147155  0.5287172685165921   T   T   T
  0.6257510416903184  0.1246460754077953  0.5287125793207955   T   T   T
  0.6250176860462272  0.3750630334623857  0.5287170715620743   T   T   T
  0.6260497589855637  0.6251606388249800  0.5275924028310388   T   T   T
  0.6243682402079721  0.8751864466469323  0.5286214321841208   T   T   T
  0.8750293742323386  0.1249975238345799  0.5287099109055405   T   T   T
  0.8740977459758263  0.3742944878026592  0.5288907821263646   T   T   T
  0.8765984099368576  0.6249841908647610  0.5287167573490101   T   T   T
  0.8756333648816376  0.8747441823387730  0.5286669845473460   T   T   T
  0.1250000006356942  0.1249999995504965  0.4002249949199452   F   F   F
  0.1250000006356942  0.3749999992508322  0.4002249949199452   F   F   F
  0.1250000006356942  0.6249999983518251  0.4002249949199452   F   F   F
  0.1250000006356942  0.8749999974528251  0.4002249949199452   F   F   F
  0.3750000002118981  0.1249999995504965  0.4002249949199452   F   F   F
  0.3750000002118981  0.3749999992508322  0.4002249949199452   F   F   F
  0.3750000010594832  0.6249999983518251  0.4002249949199452   F   F   F
  0.3750000010594832  0.8749999974528251  0.4002249949199452   F   F   F
  0.6250000006356942  0.1249999995504965  0.4002249949199452   F   F   F
  0.6250000006356942  0.3749999992508322  0.4002249949199452   F   F   F
  0.6250000014832793  0.6249999983518251  0.4002249949199452   F   F   F
  0.6250000006356942  0.8749999974528251  0.4002249949199452   F   F   F
  0.8750000010594832  0.1249999995504965  0.4002249949199452   F   F   F
  0.8750000010594832  0.3749999992508322  0.4002249949199452   F   F   F
  0.8750000019070754  0.6249999983518251  0.4002249949199452   F   F   F
  0.8750000010594832  0.8749999974528251  0.4002249949199452   F   F   F
  0.5680789245960194  0.5674793579799414  0.6637258724520683   T   T   T
  0.6183379108059357  0.4918649166131461  0.6629809187482379   T   T   T
  0.5497700023585401  0.4236055121983046  0.6629235758640244   T   T   T
  0.4318799193245017  0.4324922881597632  0.6637376079512377   T   T   T
  0.3816212141618361  0.5081098942091119  0.6629855936811884   T   T   T
  0.4501902332053077  0.5763681977820229  0.6629161967915448   T   T   T
  0.7103337472015125  0.4860950990962329  0.6622997429089138   T   T   T
  0.5878227361213841  0.3640263205799620  0.6634821970007979   T   T   T
  0.2896315095995597  0.5138874741962205  0.6623099066113107   T   T   T
  0.4121436442020649  0.6359527032342370  0.6634725877024304   T   T   T
  0.6536973131142747  0.6520835100746368  0.6645016348002408   T   T   T
  0.3462331850304711  0.3478903598032946  0.6645120992738892   T   T   T
 
  0.00000000E+00  0.00000000E+00  0.00000000E+00
  0.00000000E+00  0.00000000E+00  0.00000000E+00
  0.00000000E+00  0.00000000E+00  0.00000000E+00
  0.00000000E+00  0.00000000E+00  0.00000000E+00
  0.00000000E+00  0.00000000E+00  0.00000000E+00
  0.00000000E+00  0.00000000E+00  0.00000000E+00
  0.00000000E+00  0.00000000E+00  0.00000000E+00
  0.00000000E+00  0.00000000E+00  0.00000000E+00
  0.00000000E+00  0.00000000E+00  0.00000000E+00
  0.00000000E+00  0.00000000E+00  0.00000000E+00
  0.00000000E+00  0.00000000E+00  0.00000000E+00
  0.00000000E+00  0.00000000E+00  0.00000000E+00
  0.00000000E+00  0.00000000E+00  0.00000000E+00
  0.00000000E+00  0.00000000E+00  0.00000000E+00
  0.00000000E+00  0.00000000E+00  0.00000000E+00
  0.00000000E+00  0.00000000E+00  0.00000000E+00
  0.00000000E+00  0.00000000E+00  0.00000000E+00
  0.00000000E+00  0.00000000E+00  0.00000000E+00
  0.00000000E+00  0.00000000E+00  0.00000000E+00
  0.00000000E+00  0.00000000E+00  0.00000000E+00
  0.00000000E+00  0.00000000E+00  0.00000000E+00
  0.00000000E+00  0.00000000E+00  0.00000000E+00
  0.00000000E+00  0.00000000E+00  0.00000000E+00
  0.00000000E+00  0.00000000E+00  0.00000000E+00
  0.00000000E+00  0.00000000E+00  0.00000000E+00
  0.00000000E+00  0.00000000E+00  0.00000000E+00
  0.00000000E+00  0.00000000E+00  0.00000000E+00
  0.00000000E+00  0.00000000E+00  0.00000000E+00
  0.00000000E+00  0.00000000E+00  0.00000000E+00
  0.00000000E+00  0.00000000E+00  0.00000000E+00
  0.00000000E+00  0.00000000E+00  0.00000000E+00
  0.00000000E+00  0.00000000E+00  0.00000000E+00
  0.00000000E+00  0.00000000E+00  0.00000000E+00
  0.00000000E+00  0.00000000E+00  0.00000000E+00
  0.00000000E+00  0.00000000E+00  0.00000000E+00
  0.00000000E+00  0.00000000E+00  0.00000000E+00
  0.00000000E+00  0.00000000E+00  0.00000000E+00
  0.00000000E+00  0.00000000E+00  0.00000000E+00
  0.00000000E+00  0.00000000E+00  0.00000000E+00
  0.00000000E+00  0.00000000E+00  0.00000000E+00
  0.00000000E+00  0.00000000E+00  0.00000000E+00
  0.00000000E+00  0.00000000E+00  0.00000000E+00
  0.00000000E+00  0.00000000E+00  0.00000000E+00
  0.00000000E+00  0.00000000E+00  0.00000000E+00
  0.00000000E+00  0.00000000E+00  0.00000000E+00
  0.00000000E+00  0.00000000E+00  0.00000000E+00
  0.00000000E+00  0.00000000E+00  0.00000000E+00
  0.00000000E+00  0.00000000E+00  0.00000000E+00
  0.00000000E+00  0.00000000E+00  0.00000000E+00
  0.00000000E+00  0.00000000E+00  0.00000000E+00
  0.00000000E+00  0.00000000E+00  0.00000000E+00
  0.00000000E+00  0.00000000E+00  0.00000000E+00
  0.00000000E+00  0.00000000E+00  0.00000000E+00
  0.00000000E+00  0.00000000E+00  0.00000000E+00
  0.00000000E+00  0.00000000E+00  0.00000000E+00
  0.00000000E+00  0.00000000E+00  0.00000000E+00
  0.00000000E+00  0.00000000E+00  0.00000000E+00
  0.00000000E+00  0.00000000E+00  0.00000000E+00
  0.00000000E+00  0.00000000E+00  0.00000000E+00
  0.00000000E+00  0.00000000E+00  0.00000000E+00
  0.00000000E+00  0.00000000E+00  0.00000000E+00
  0.00000000E+00  0.00000000E+00  0.00000000E+00
  0.00000000E+00  0.00000000E+00  0.00000000E+00
  0.00000000E+00  0.00000000E+00  0.00000000E+00
  0.00000000E+00  0.00000000E+00  0.00000000E+00
  0.00000000E+00  0.00000000E+00  0.00000000E+00
  0.00000000E+00  0.00000000E+00  0.00000000E+00
  0.00000000E+00  0.00000000E+00  0.00000000E+00
  0.00000000E+00  0.00000000E+00  0.00000000E+00
  0.00000000E+00  0.00000000E+00  0.00000000E+00
  0.00000000E+00  0.00000000E+00  0.00000000E+00
  0.00000000E+00  0.00000000E+00  0.00000000E+00
  0.00000000E+00  0.00000000E+00  0.00000000E+00
  0.00000000E+00  0.00000000E+00  0.00000000E+00
  0.00000000E+00  0.00000000E+00  0.00000000E+00
  0.00000000E+00  0.00000000E+00  0.00000000E+00
