Au  C  N  F                             
    1.000000000000000     
    11.7981856999999994    0.0000000000000000    0.0000000000000000
     0.0000000000000000   11.7981856999999994    0.0000000000000000
     0.0000000000000000    0.0000000000000000   24.2569328400000011
   Au   C    N    F 
    64     4     2     4
Selective dynamics
Direct
  0.2500000004237961  0.0000000000000000  0.3091899561032889   F   F   F
  0.0000000000000000  0.5000000008475851  0.3091899561032889   F   F   F
  0.2500000004237961  0.2500000004237961  0.3091899561032889   F   F   F
  0.2500000004237961  0.5000000008475851  0.3091899561032889   F   F   F
  0.2500000004237961  0.7500000012713812  0.3091899561032889   F   F   F
  0.5000000008475851  0.0000000000000000  0.3091899561032889   F   F   F
  0.5000000008475851  0.2500000004237961  0.3091899561032889   F   F   F
  0.0000000000000000  0.7500000012713812  0.3091899561032889   F   F   F
  0.5000000008475851  0.5000000008475851  0.3091899561032889   F   F   F
  0.5000000008475851  0.7500000012713812  0.3091899561032889   F   F   F
  0.7500000012713812  0.0000000000000000  0.3091899561032889   F   F   F
  0.7500000012713812  0.2500000004237961  0.3091899561032889   F   F   F
  0.7500000012713812  0.5000000008475851  0.3091899561032889   F   F   F
  0.7500000012713812  0.7500000012713812  0.3091899561032889   F   F   F
  0.0000000000000000  0.0000000000000000  0.3091899561032889   F   F   F
  0.0000000000000000  0.2500000004237961  0.3091899561032889   F   F   F
  0.2489980179170550  0.0001113186229448  0.4806263698051967   T   T   T
  0.2496295203268742  0.2490342776496126  0.4806303904461968   T   T   T
  0.2489995580499380  0.4997631323403246  0.4805236637408324   T   T   T
  0.2493973747952890  0.7506026561867447  0.4805507046455833   T   T   T
  0.4999652547640654 -0.0000078969968118  0.4811569623861891   T   T   T
  0.5001837353910691  0.2490217511714827  0.4805208423344164   T   T   T
  0.5000185605665622  0.4999813750981169  0.4803041620680811   T   T   T
  0.5002364364025969  0.7510001057597554  0.4805236490440599   T   T   T
  0.7501782170666876  0.0008234843407013  0.4805805425597368   T   T   T
  0.7505602280185927  0.2492988368717282  0.4805818339625301   T   T   T
  0.7509787598567798  0.4998096842988822  0.4805207428139343   T   T   T
  0.7509658134593726  0.7503706160890814  0.4806304296960509   T   T   T
 -0.0006493892918314  0.0007484845685948  0.4806500901935235   T   T   T
 -0.0008304683364074  0.2498244792511493  0.4805803564589211   T   T   T
  0.0000072439744563  0.5000336606673625  0.4811568981165684   T   T   T
 -0.0001116402644348  0.7510039342750794  0.4806263767288940   T   T   T
  0.1246528212731844  0.1246872496366520  0.5666633064463613   T   T   T
  0.1247563085041742  0.3746434273361964  0.5666679579617744   T   T   T
  0.1253189653735072  0.6252859887281172  0.5667076392226377   T   T   T
  0.1252315947637683  0.8747679720024165  0.5666600800603865   T   T   T
  0.3746763994857803  0.1247407169718952  0.5666731267946439   T   T   T
  0.3759366020299379  0.3758996946409143  0.5653374686827277   T   T   T
  0.3749482427283978  0.6250510555510678  0.5653320787627242   T   T   T
  0.3747135693179209  0.8746807283760973  0.5667076933053355   T   T   T
  0.6252734013627607  0.1253058992440736  0.5667344046251299   T   T   T
  0.6253612571769713  0.3746386752802176  0.5654706125645659   T   T   T
  0.6241005340712747  0.6240633179904099  0.5653367920997268   T   T   T
  0.6253561155065909  0.8752436965007883  0.5666683865254311   T   T   T
  0.8747028749130611  0.1252977041978809  0.5667197285020741   T   T   T
  0.8746912971688298  0.3747237238416039  0.5667320848959705   T   T   T
  0.8752591362949921  0.6253230844482893  0.5666730711138478   T   T   T
  0.8753139443274900  0.8753477688953456  0.5666627224061807   T   T   T
  0.1249999997881019  0.1250000006356942  0.3951713245539921   F   F   F
  0.1250000006356942  0.3750000010594832  0.3951713245539921   F   F   F
  0.1250000006356942  0.6250000006356942  0.3951713245539921   F   F   F
  0.1250000006356942  0.8750000019070754  0.3951713245539921   F   F   F
  0.3750000010594832  0.1250000006356942  0.3951713245539921   F   F   F
  0.3750000010594832  0.3750000010594832  0.3951713245539921   F   F   F
  0.3750000010594832  0.6250000006356942  0.3951713245539921   F   F   F
  0.3750000010594832  0.8750000019070754  0.3951713245539921   F   F   F
  0.6250000006356942  0.1250000006356942  0.3951713245539921   F   F   F
  0.6250000014832793  0.3750000010594832  0.3951713245539921   F   F   F
  0.6250000014832793  0.6250000006356942  0.3951713245539921   F   F   F
  0.6250000014832793  0.8750000019070754  0.3951713245539921   F   F   F
  0.8750000019070754  0.1250000006356942  0.3951713245539921   F   F   F
  0.8750000019070754  0.3750000010594832  0.3951713245539921   F   F   F
  0.8750000019070754  0.6250000006356942  0.3951713245539921   F   F   F
  0.8750000019070754  0.8750000019070754  0.3951713245539921   F   F   F
  0.4744847789093634  0.6094836630746738  0.7000088396723952   T   T   T
  0.3904936178457544  0.5255140002124914  0.7000183528714122   T   T   T
  0.5255547221051473  0.3904240787431532  0.7000380454082855   T   T   T
  0.6095792282849161  0.4744235336441391  0.7000192460687957   T   T   T
  0.4171507179279247  0.4170918817234609  0.7002620206512863   T   T   T
  0.5829243864347612  0.5828190291637599  0.7002381263882738   T   T   T
  0.7197647672916293  0.4464070127462629  0.7004467090305834   T   T   T
  0.5535553110386379  0.2801939583162311  0.7004834700628019   T   T   T
  0.4465048649865587  0.7197257876698347  0.7004157857846672   T   T   T
  0.2802930625355257  0.5535124780806352  0.7004501873750003   T   T   T
 
  0.00000000E+00  0.00000000E+00  0.00000000E+00
  0.00000000E+00  0.00000000E+00  0.00000000E+00
  0.00000000E+00  0.00000000E+00  0.00000000E+00
  0.00000000E+00  0.00000000E+00  0.00000000E+00
  0.00000000E+00  0.00000000E+00  0.00000000E+00
  0.00000000E+00  0.00000000E+00  0.00000000E+00
  0.00000000E+00  0.00000000E+00  0.00000000E+00
  0.00000000E+00  0.00000000E+00  0.00000000E+00
  0.00000000E+00  0.00000000E+00  0.00000000E+00
  0.00000000E+00  0.00000000E+00  0.00000000E+00
  0.00000000E+00  0.00000000E+00  0.00000000E+00
  0.00000000E+00  0.00000000E+00  0.00000000E+00
  0.00000000E+00  0.00000000E+00  0.00000000E+00
  0.00000000E+00  0.00000000E+00  0.00000000E+00
  0.00000000E+00  0.00000000E+00  0.00000000E+00
  0.00000000E+00  0.00000000E+00  0.00000000E+00
  0.00000000E+00  0.00000000E+00  0.00000000E+00
  0.00000000E+00  0.00000000E+00  0.00000000E+00
  0.00000000E+00  0.00000000E+00  0.00000000E+00
  0.00000000E+00  0.00000000E+00  0.00000000E+00
  0.00000000E+00  0.00000000E+00  0.00000000E+00
  0.00000000E+00  0.00000000E+00  0.00000000E+00
  0.00000000E+00  0.00000000E+00  0.00000000E+00
  0.00000000E+00  0.00000000E+00  0.00000000E+00
  0.00000000E+00  0.00000000E+00  0.00000000E+00
  0.00000000E+00  0.00000000E+00  0.00000000E+00
  0.00000000E+00  0.00000000E+00  0.00000000E+00
  0.00000000E+00  0.00000000E+00  0.00000000E+00
  0.00000000E+00  0.00000000E+00  0.00000000E+00
  0.00000000E+00  0.00000000E+00  0.00000000E+00
  0.00000000E+00  0.00000000E+00  0.00000000E+00
  0.00000000E+00  0.00000000E+00  0.00000000E+00
  0.00000000E+00  0.00000000E+00  0.00000000E+00
  0.00000000E+00  0.00000000E+00  0.00000000E+00
  0.00000000E+00  0.00000000E+00  0.00000000E+00
  0.00000000E+00  0.00000000E+00  0.00000000E+00
  0.00000000E+00  0.00000000E+00  0.00000000E+00
  0.00000000E+00  0.00000000E+00  0.00000000E+00
  0.00000000E+00  0.00000000E+00  0.00000000E+00
  0.00000000E+00  0.00000000E+00  0.00000000E+00
  0.00000000E+00  0.00000000E+00  0.00000000E+00
  0.00000000E+00  0.00000000E+00  0.00000000E+00
  0.00000000E+00  0.00000000E+00  0.00000000E+00
  0.00000000E+00  0.00000000E+00  0.00000000E+00
  0.00000000E+00  0.00000000E+00  0.00000000E+00
  0.00000000E+00  0.00000000E+00  0.00000000E+00
  0.00000000E+00  0.00000000E+00  0.00000000E+00
  0.00000000E+00  0.00000000E+00  0.00000000E+00
  0.00000000E+00  0.00000000E+00  0.00000000E+00
  0.00000000E+00  0.00000000E+00  0.00000000E+00
  0.00000000E+00  0.00000000E+00  0.00000000E+00
  0.00000000E+00  0.00000000E+00  0.00000000E+00
  0.00000000E+00  0.00000000E+00  0.00000000E+00
  0.00000000E+00  0.00000000E+00  0.00000000E+00
  0.00000000E+00  0.00000000E+00  0.00000000E+00
  0.00000000E+00  0.00000000E+00  0.00000000E+00
  0.00000000E+00  0.00000000E+00  0.00000000E+00
  0.00000000E+00  0.00000000E+00  0.00000000E+00
  0.00000000E+00  0.00000000E+00  0.00000000E+00
  0.00000000E+00  0.00000000E+00  0.00000000E+00
  0.00000000E+00  0.00000000E+00  0.00000000E+00
  0.00000000E+00  0.00000000E+00  0.00000000E+00
  0.00000000E+00  0.00000000E+00  0.00000000E+00
  0.00000000E+00  0.00000000E+00  0.00000000E+00
  0.00000000E+00  0.00000000E+00  0.00000000E+00
  0.00000000E+00  0.00000000E+00  0.00000000E+00
  0.00000000E+00  0.00000000E+00  0.00000000E+00
  0.00000000E+00  0.00000000E+00  0.00000000E+00
  0.00000000E+00  0.00000000E+00  0.00000000E+00
  0.00000000E+00  0.00000000E+00  0.00000000E+00
  0.00000000E+00  0.00000000E+00  0.00000000E+00
  0.00000000E+00  0.00000000E+00  0.00000000E+00
  0.00000000E+00  0.00000000E+00  0.00000000E+00
  0.00000000E+00  0.00000000E+00  0.00000000E+00
