H4 Rh48 C6 Cl2                          
    1.000000000000000     
    10.8721879999999995    0.0000000000000000    0.0000000000000000
    -5.4360939999999998    9.4155909999999992    0.0000000000000000
     0.0000000000000000    0.0000000000000000   16.4403460000000017
   H    Rh   C    Cl
     4    48     6     2
Selective dynamics
Direct
  0.5083949141766482  0.6343509783073813  0.7785610769672218   T   T   T
  0.6358689781849804  0.5072820035062051  0.7778887300223474   T   T   T
  0.2425829716811876  0.1139524121223658  0.7778749126949975   T   T   T
  0.1154625333503034  0.2413919899792276  0.7785466669117440   T   T   T
  0.0833330000000032  0.1666669999999968  0.3649559999999994   F   F   F
  0.0833330000000032  0.4166669999999968  0.3649559999999994   F   F   F
  0.0833330000000032  0.6666669999999968  0.3649559999999994   F   F   F
  0.0833330000000032  0.9166669999999968  0.3649559999999994   F   F   F
  0.3333330000000032  0.1666669999999968  0.3649559999999994   F   F   F
  0.3333330000000032  0.4166669999999968  0.3649559999999994   F   F   F
  0.3333330000000032  0.6666669999999968  0.3649559999999994   F   F   F
  0.3333330000000032  0.9166669999999968  0.3649559999999994   F   F   F
  0.5833330000000032  0.1666669999999968  0.3649559999999994   F   F   F
  0.5833330000000032  0.4166669999999968  0.3649559999999994   F   F   F
  0.5833330000000032  0.6666669999999968  0.3649559999999994   F   F   F
  0.5833330000000032  0.9166669999999968  0.3649559999999994   F   F   F
  0.8333330000000032  0.1666669999999968  0.3649559999999994   F   F   F
  0.8333330000000032  0.4166669999999968  0.3649559999999994   F   F   F
  0.8333330000000032  0.6666669999999968  0.3649559999999994   F   F   F
  0.8333330000000032  0.9166669999999968  0.3649559999999994   F   F   F
  0.9967336888602460  0.9960925873377207  0.6232121412398115   T   T   T
  0.9943789839571693  0.2479369372278768  0.6231966677345113   T   T   T
  0.0005548600142760  0.4993466769571810  0.6243221024391445   T   T   T
  0.0010314837021994  0.7489635436836366  0.6238060007274200   T   T   T
  0.2468374375261178  0.9941043467833737  0.6230927558464927   T   T   T
  0.2414666644471524  0.2412450686909935  0.6313531176018259   T   T   T
  0.2522783083245130  0.4977210727383010  0.6323863623687487   T   T   T
  0.2506640887860954  0.7494427540891522  0.6243473895223630   T   T   T
  0.4997557955234839  0.0008803073769670  0.6243136829142202   T   T   T
  0.4979973030537224  0.2519946332173717  0.6326971023434425   T   T   T
  0.5087502245366053  0.5085341650761563  0.6313557512984147   T   T   T
  0.5020577248131417  0.7556254553871966  0.6231738727998319   T   T   T
  0.7500219457099178  0.9999907511201727  0.6233861721017533   T   T   T
  0.7491138006756159  0.2502432704162487  0.6243018398444988   T   T   T
  0.7558753023998790  0.5031371792901567  0.6230800164617349   T   T   T
  0.7539268183885639  0.7533015282170297  0.6231873354613100   T   T   T
  0.1682626269935668  0.0864133989326419  0.4946241195640582   T   T   T
  0.1692782585024020  0.3344323548741528  0.4955899500272949   T   T   T
  0.1692932320112277  0.5807059301470900  0.4962332966048209   T   T   T
  0.1679783895730296  0.8330414328190443  0.4940952285272431   T   T   T
  0.4178799059810174  0.0873504681843471  0.4958048868036968   T   T   T
  0.4157567629733308  0.3342355086764215  0.4965932178448185   T   T   T
  0.4155436318272336  0.5807007664826145  0.4955920351804863   T   T   T
  0.4168266566191363  0.8337831311550161  0.4944135270176417   T   T   T
  0.6660826019073767  0.0839149912127510  0.4948095369791048   T   T   T
  0.6626573185126574  0.3321296355680303  0.4957879447953246   T   T   T
  0.6635959198838677  0.5817372448361198  0.4946168442077123   T   T   T
  0.6661063848992512  0.8326520459391133  0.4940119317942333   T   T   T
  0.9173678659662059  0.0839051284408256  0.4940180050646461   T   T   T
  0.9162168304136458  0.3331590376443216  0.4944013207131235   T   T   T
  0.9169721583885320  0.5820290780410247  0.4940900246313475   T   T   T
  0.9173332354072485  0.8327032945498516  0.4936566545958172   T   T   T
  0.2953139671755736  0.4545010679560164  0.7528286821471184   T   T   T
  0.4512422843910429  0.5259094468890169  0.7553688675868528   T   T   T
  0.5271414379619870  0.4498404603433954  0.7549437319617667   T   T   T
  0.4560580145396500  0.2938207532299302  0.7527895011298043   T   T   T
  0.3000088621758934  0.2226800520756171  0.7549469016134651   T   T   T
  0.2239182714351458  0.2985734222051377  0.7553694294416431   T   T   T
  0.2214131627442484  0.5284596908569981  0.8212470036285850   T   T   T
  0.5290498846874385  0.2209018901140851  0.8224338869213597   T   T   T
 
  0.00000000E+00  0.00000000E+00  0.00000000E+00
  0.00000000E+00  0.00000000E+00  0.00000000E+00
  0.00000000E+00  0.00000000E+00  0.00000000E+00
  0.00000000E+00  0.00000000E+00  0.00000000E+00
  0.00000000E+00  0.00000000E+00  0.00000000E+00
  0.00000000E+00  0.00000000E+00  0.00000000E+00
  0.00000000E+00  0.00000000E+00  0.00000000E+00
  0.00000000E+00  0.00000000E+00  0.00000000E+00
  0.00000000E+00  0.00000000E+00  0.00000000E+00
  0.00000000E+00  0.00000000E+00  0.00000000E+00
  0.00000000E+00  0.00000000E+00  0.00000000E+00
  0.00000000E+00  0.00000000E+00  0.00000000E+00
  0.00000000E+00  0.00000000E+00  0.00000000E+00
  0.00000000E+00  0.00000000E+00  0.00000000E+00
  0.00000000E+00  0.00000000E+00  0.00000000E+00
  0.00000000E+00  0.00000000E+00  0.00000000E+00
  0.00000000E+00  0.00000000E+00  0.00000000E+00
  0.00000000E+00  0.00000000E+00  0.00000000E+00
  0.00000000E+00  0.00000000E+00  0.00000000E+00
  0.00000000E+00  0.00000000E+00  0.00000000E+00
  0.00000000E+00  0.00000000E+00  0.00000000E+00
  0.00000000E+00  0.00000000E+00  0.00000000E+00
  0.00000000E+00  0.00000000E+00  0.00000000E+00
  0.00000000E+00  0.00000000E+00  0.00000000E+00
  0.00000000E+00  0.00000000E+00  0.00000000E+00
  0.00000000E+00  0.00000000E+00  0.00000000E+00
  0.00000000E+00  0.00000000E+00  0.00000000E+00
  0.00000000E+00  0.00000000E+00  0.00000000E+00
  0.00000000E+00  0.00000000E+00  0.00000000E+00
  0.00000000E+00  0.00000000E+00  0.00000000E+00
  0.00000000E+00  0.00000000E+00  0.00000000E+00
  0.00000000E+00  0.00000000E+00  0.00000000E+00
  0.00000000E+00  0.00000000E+00  0.00000000E+00
  0.00000000E+00  0.00000000E+00  0.00000000E+00
  0.00000000E+00  0.00000000E+00  0.00000000E+00
  0.00000000E+00  0.00000000E+00  0.00000000E+00
  0.00000000E+00  0.00000000E+00  0.00000000E+00
  0.00000000E+00  0.00000000E+00  0.00000000E+00
  0.00000000E+00  0.00000000E+00  0.00000000E+00
  0.00000000E+00  0.00000000E+00  0.00000000E+00
  0.00000000E+00  0.00000000E+00  0.00000000E+00
  0.00000000E+00  0.00000000E+00  0.00000000E+00
  0.00000000E+00  0.00000000E+00  0.00000000E+00
  0.00000000E+00  0.00000000E+00  0.00000000E+00
  0.00000000E+00  0.00000000E+00  0.00000000E+00
  0.00000000E+00  0.00000000E+00  0.00000000E+00
  0.00000000E+00  0.00000000E+00  0.00000000E+00
  0.00000000E+00  0.00000000E+00  0.00000000E+00
  0.00000000E+00  0.00000000E+00  0.00000000E+00
  0.00000000E+00  0.00000000E+00  0.00000000E+00
  0.00000000E+00  0.00000000E+00  0.00000000E+00
  0.00000000E+00  0.00000000E+00  0.00000000E+00
  0.00000000E+00  0.00000000E+00  0.00000000E+00
  0.00000000E+00  0.00000000E+00  0.00000000E+00
  0.00000000E+00  0.00000000E+00  0.00000000E+00
  0.00000000E+00  0.00000000E+00  0.00000000E+00
  0.00000000E+00  0.00000000E+00  0.00000000E+00
  0.00000000E+00  0.00000000E+00  0.00000000E+00
  0.00000000E+00  0.00000000E+00  0.00000000E+00
  0.00000000E+00  0.00000000E+00  0.00000000E+00
