Pt48 C6 Br6                             
    1.000000000000000     
    11.2480068000000006    0.0000000000000000    0.0000000000000000
     0.0000000000000000   11.2480068000000006    0.0000000000000000
     0.0000000000000000    0.0000000000000000   16.9150790899999990
   Pt   C    Br
    48     6     6
Selective dynamics
Direct
  0.2501690647107537  0.9955482870007089  0.4120036968255860   T   T   T
  0.2466061489292883  0.2479764110709723  0.4113456254494920   T   T   T
  0.2470407119442299  0.4981417389234579  0.4116211498298483   T   T   T
  0.2517570367147428  0.7452120501453052  0.4134372855888202   T   T   T
  0.4998414444056962  0.0001956216353634  0.4110068836323393   T   T   T
  0.5007345624646007  0.2510001742736989  0.4114319706327123   T   T   T
  0.4998523085343152  0.5003382661950653  0.4119709681022883   T   T   T
  0.4988829844150615  0.7486885773669485  0.4122889164040870   T   T   T
  0.7501877598794522  0.0049831716533006  0.4110726484394291   T   T   T
  0.7481446905455513  0.2545812083313024  0.4125723028664297   T   T   T
  0.7519030296874902  0.5018474757433111  0.4120671269658231   T   T   T
  0.7532360278100612  0.7525515446409088  0.4110496461799613   T   T   T
  0.0004127324362742  0.0006138609165234  0.4113490158161923   T   T   T
  0.9987852674697564  0.2522560534952873  0.4132350474347888   T   T   T
  0.9998209549518577  0.5013569660067816  0.4141898515807938   T   T   T
  0.0022015620232878  0.7489536285981018  0.4124168628567730   T   T   T
  0.1234807406179570  0.1113659199515808  0.5332079052183971   T   T   T
  0.1228551238643121  0.3787672631364174  0.5318465560115229   T   T   T
  0.1260374126511721  0.6261667239824291  0.5387322520062057   T   T   T
  0.1264869251618066  0.8711153890515391  0.5263833721024085   T   T   T
  0.3727025178917103  0.1203867233347609  0.5236053348631415   T   T   T
  0.3655475176767169  0.3619060683422717  0.5290269558582921   T   T   T
  0.3694213981153993  0.6169853523965614  0.5320330349306701   T   T   T
  0.3759858694763025  0.8729847856220445  0.5359449754001631   T   T   T
  0.6245957488616725  0.1262806331477719  0.5358368718540518   T   T   T
  0.6287664183354735  0.3777260195151229  0.5309261285758140   T   T   T
  0.6335830838389143  0.6397248842634937  0.5281945336658183   T   T   T
  0.6277958303534419  0.8827811675499788  0.5232888503401725   T   T   T
  0.8737949787610972  0.1300404319105155  0.5260515556679408   T   T   T
  0.8781679554720228  0.3755247170088651  0.5369586801603887   T   T   T
  0.8799743624517120  0.6255439432620022  0.5315097617655766   T   T   T
  0.8772759993118200  0.8904635749288516  0.5312274349222790   T   T   T
  0.1250000008890453  0.1250000000000000  0.2955942430654019   F   F   F
  0.1250000008890453  0.3750000008890453  0.2955942430654019   F   F   F
  0.1250000008890453  0.6250000026671358  0.2955942430654019   F   F   F
  0.1250000008890453  0.8750000026671358  0.2955942430654019   F   F   F
  0.3750000017780906  0.1250000000000000  0.2955942430654019   F   F   F
  0.3750000017780906  0.3750000008890453  0.2955942430654019   F   F   F
  0.3750000017780906  0.6250000026671358  0.2955942430654019   F   F   F
  0.3750000017780906  0.8750000026671358  0.2955942430654019   F   F   F
  0.6250000026671358  0.1250000000000000  0.2955942430654019   F   F   F
  0.6250000026671358  0.3750000008890453  0.2955942430654019   F   F   F
  0.6250000026671358  0.6250000026671358  0.2955942430654019   F   F   F
  0.6250000026671358  0.8750000026671358  0.2955942430654019   F   F   F
  0.8750000035561882  0.1250000000000000  0.2955942430654019   F   F   F
  0.8750000026671358  0.3750000008890453  0.2955942430654019   F   F   F
  0.8750000035561882  0.6250000026671358  0.2955942430654019   F   F   F
  0.8750000035561882  0.8750000026671358  0.2955942430654019   F   F   F
  0.6453062135920504  0.4590583604097418  0.6457571281004491   T   T   T
  0.5502464797262121  0.3713571846312291  0.6463874444874946   T   T   T
  0.4318828417465923  0.4152999810208158  0.6318063049591487   T   T   T
  0.4124781136893105  0.5359749533377069  0.6349774174995133   T   T   T
  0.5008688964581154  0.6219995376443279  0.6503527491155197   T   T   T
  0.6186997043585905  0.5847682277645774  0.6409004384352528   T   T   T
  0.8114319379930777  0.4152771099377972  0.6778394543516200   T   T   T
  0.5767657817430134  0.2007339093828548  0.6776901828951907   T   T   T
  0.1241557335967087  0.2431793880523685  0.6498566156003420   T   T   T
  0.1388157217273260  0.6042153929688965  0.6803307901583153   T   T   T
  0.4515091438973258  0.7935327422453184  0.6732796682127002   T   T   T
  0.8682169684678769  0.7656823598351608  0.6491249024203753   T   T   T
 
  0.00000000E+00  0.00000000E+00  0.00000000E+00
  0.00000000E+00  0.00000000E+00  0.00000000E+00
  0.00000000E+00  0.00000000E+00  0.00000000E+00
  0.00000000E+00  0.00000000E+00  0.00000000E+00
  0.00000000E+00  0.00000000E+00  0.00000000E+00
  0.00000000E+00  0.00000000E+00  0.00000000E+00
  0.00000000E+00  0.00000000E+00  0.00000000E+00
  0.00000000E+00  0.00000000E+00  0.00000000E+00
  0.00000000E+00  0.00000000E+00  0.00000000E+00
  0.00000000E+00  0.00000000E+00  0.00000000E+00
  0.00000000E+00  0.00000000E+00  0.00000000E+00
  0.00000000E+00  0.00000000E+00  0.00000000E+00
  0.00000000E+00  0.00000000E+00  0.00000000E+00
  0.00000000E+00  0.00000000E+00  0.00000000E+00
  0.00000000E+00  0.00000000E+00  0.00000000E+00
  0.00000000E+00  0.00000000E+00  0.00000000E+00
  0.00000000E+00  0.00000000E+00  0.00000000E+00
  0.00000000E+00  0.00000000E+00  0.00000000E+00
  0.00000000E+00  0.00000000E+00  0.00000000E+00
  0.00000000E+00  0.00000000E+00  0.00000000E+00
  0.00000000E+00  0.00000000E+00  0.00000000E+00
  0.00000000E+00  0.00000000E+00  0.00000000E+00
  0.00000000E+00  0.00000000E+00  0.00000000E+00
  0.00000000E+00  0.00000000E+00  0.00000000E+00
  0.00000000E+00  0.00000000E+00  0.00000000E+00
  0.00000000E+00  0.00000000E+00  0.00000000E+00
  0.00000000E+00  0.00000000E+00  0.00000000E+00
  0.00000000E+00  0.00000000E+00  0.00000000E+00
  0.00000000E+00  0.00000000E+00  0.00000000E+00
  0.00000000E+00  0.00000000E+00  0.00000000E+00
  0.00000000E+00  0.00000000E+00  0.00000000E+00
  0.00000000E+00  0.00000000E+00  0.00000000E+00
  0.00000000E+00  0.00000000E+00  0.00000000E+00
  0.00000000E+00  0.00000000E+00  0.00000000E+00
  0.00000000E+00  0.00000000E+00  0.00000000E+00
  0.00000000E+00  0.00000000E+00  0.00000000E+00
  0.00000000E+00  0.00000000E+00  0.00000000E+00
  0.00000000E+00  0.00000000E+00  0.00000000E+00
  0.00000000E+00  0.00000000E+00  0.00000000E+00
  0.00000000E+00  0.00000000E+00  0.00000000E+00
  0.00000000E+00  0.00000000E+00  0.00000000E+00
  0.00000000E+00  0.00000000E+00  0.00000000E+00
  0.00000000E+00  0.00000000E+00  0.00000000E+00
  0.00000000E+00  0.00000000E+00  0.00000000E+00
  0.00000000E+00  0.00000000E+00  0.00000000E+00
  0.00000000E+00  0.00000000E+00  0.00000000E+00
  0.00000000E+00  0.00000000E+00  0.00000000E+00
  0.00000000E+00  0.00000000E+00  0.00000000E+00
  0.00000000E+00  0.00000000E+00  0.00000000E+00
  0.00000000E+00  0.00000000E+00  0.00000000E+00
  0.00000000E+00  0.00000000E+00  0.00000000E+00
  0.00000000E+00  0.00000000E+00  0.00000000E+00
  0.00000000E+00  0.00000000E+00  0.00000000E+00
  0.00000000E+00  0.00000000E+00  0.00000000E+00
  0.00000000E+00  0.00000000E+00  0.00000000E+00
  0.00000000E+00  0.00000000E+00  0.00000000E+00
  0.00000000E+00  0.00000000E+00  0.00000000E+00
  0.00000000E+00  0.00000000E+00  0.00000000E+00
  0.00000000E+00  0.00000000E+00  0.00000000E+00
  0.00000000E+00  0.00000000E+00  0.00000000E+00
