Automatic generation
0
Mohkorst Pack
3   3   1
0.0 0.0 0.0
