Rh48 C4 N2 Br4                          
    1.000000000000000     
    10.8856652999999994    0.0000000000000000    0.0000000000000000
     0.0000000000000000   15.3946555000000007    0.0000000000000000
     0.0000000000000000    0.0000000000000000   15.4457957300000004
   Rh   C    N    Br
    48     4     2     4
Selective dynamics
Direct
  0.2497853133925148  0.2506655004700065  0.4041592597467911   T   T   T
  0.2515590427257308  0.5004492208690863  0.4009286807452881   T   T   T
  0.2494781895565126  0.7503121054318456  0.4026406142133752   T   T   T
  0.2499152648905465  0.9989482657709985  0.4030996101138200   T   T   T
  0.5004136361478544  0.2495591894600153  0.4025075015462747   T   T   T
  0.4999899586123817  0.4999982716428022  0.4016819651216537   T   T   T
  0.4995768866220871  0.7504423849320787  0.4025166406042615   T   T   T
  0.4999889791752778  0.9999945087835158  0.4043929341585866   T   T   T
  0.7505197443212168  0.2496831848064005  0.4026366529519478   T   T   T
  0.7484345219541169  0.4995522243603858  0.4009279894677604   T   T   T
  0.7502167736772947  0.7493378322985293  0.4041630169086758   T   T   T
  0.7500907929131131  0.0010474988964617  0.4031031803569860   T   T   T
  0.0003432191227191  0.2505514306459560  0.4051054816505726   T   T   T
  0.0000192413568172  0.5000034131254978  0.4047854297356537   T   T   T
  0.9996650923024859  0.7494401757519071  0.4050898593118433   T   T   T
  0.0000006618823889  0.9999998346076282  0.4041478244464969   T   T   T
  0.1255380335071905  0.1247045384203957  0.4817653405971143   T   T   T
  0.1272827250001569  0.3777220568957915  0.4836452319456868   T   T   T
  0.1257951632211558  0.6239359691254904  0.4829925985016956   T   T   T
  0.1240239563433150  0.8743760546447561  0.4850838852802255   T   T   T
  0.3737243368922307  0.1247105364529091  0.4817028954505176   T   T   T
  0.3761975464710829  0.3736523614402003  0.4838230796304757   T   T   T
  0.3741490830591445  0.6266410025906808  0.4859364304248857   T   T   T
  0.3759495074671975  0.8743495379584445  0.4848332007281471   T   T   T
  0.6240461656962211  0.1256453186586057  0.4848385328409606   T   T   T
  0.6258576377690801  0.3733582650782239  0.4859395187588618   T   T   T
  0.6238061046591810  0.6263460366740716  0.4838013913226362   T   T   T
  0.6262716644438626  0.8752899198008564  0.4816936242477965   T   T   T
  0.8759979337083053  0.1256176474105857  0.4850586900606331   T   T   T
  0.8741951870141307  0.3760557347722724  0.4829972470672672   T   T   T
  0.8727260412632063  0.6222876643789448  0.4836409733913243   T   T   T
  0.8744537264026775  0.8752941798177076  0.4817802691193833   T   T   T
  0.1249999997703384  0.1250000001623945  0.3237126845002010   F   F   F
  0.1249999997703384  0.3750000004871836  0.3237126845002010   F   F   F
  0.1250000006889778  0.6250000014615438  0.3237126845002010   F   F   F
  0.1250000006889778  0.8750000017863329  0.3237126845002010   F   F   F
  0.3750000002296616  0.1250000001623945  0.3237126845002010   F   F   F
  0.3750000002296616  0.3750000004871836  0.3237126845002010   F   F   F
  0.3750000011483010  0.6250000014615438  0.3237126845002010   F   F   F
  0.3750000011483010  0.8750000017863329  0.3237126845002010   F   F   F
  0.6250000006889778  0.1250000001623945  0.3237126845002010   F   F   F
  0.6250000006889778  0.3750000004871836  0.3237126845002010   F   F   F
  0.6250000006889778  0.6250000014615438  0.3237126845002010   F   F   F
  0.6250000006889778  0.8750000017863329  0.3237126845002010   F   F   F
  0.8750000011483010  0.1250000001623945  0.3237126845002010   F   F   F
  0.8750000011483010  0.3750000004871836  0.3237126845002010   F   F   F
  0.8750000020669404  0.6250000014615438  0.3237126845002010   F   F   F
  0.8750000011483010  0.8750000017863329  0.3237126845002010   F   F   F
  0.4359712470594204  0.5777602141899862  0.5964952477071961   T   T   T
  0.3784040316552932  0.4978727115571289  0.6162786761949448   T   T   T
  0.5640501260430923  0.4222281414059523  0.5964925727507051   T   T   T
  0.6215864627578682  0.5021603631019005  0.6162769409939344   T   T   T
  0.4373221885866343  0.4218296398638586  0.6024783527656439   T   T   T
  0.5626893805890489  0.5782011656399177  0.6024717658623047   T   T   T
  0.7984202556265885  0.5080189182657335  0.6321886069995344   T   T   T
  0.7495124267613136  0.1289496061233777  0.6206839455251227   T   T   T
  0.2504784164516209  0.8709412670048309  0.6206984221781653   T   T   T
  0.2015901430229832  0.4919707683505123  0.6321896134085421   T   T   T
 
  0.00000000E+00  0.00000000E+00  0.00000000E+00
  0.00000000E+00  0.00000000E+00  0.00000000E+00
  0.00000000E+00  0.00000000E+00  0.00000000E+00
  0.00000000E+00  0.00000000E+00  0.00000000E+00
  0.00000000E+00  0.00000000E+00  0.00000000E+00
  0.00000000E+00  0.00000000E+00  0.00000000E+00
  0.00000000E+00  0.00000000E+00  0.00000000E+00
  0.00000000E+00  0.00000000E+00  0.00000000E+00
  0.00000000E+00  0.00000000E+00  0.00000000E+00
  0.00000000E+00  0.00000000E+00  0.00000000E+00
  0.00000000E+00  0.00000000E+00  0.00000000E+00
  0.00000000E+00  0.00000000E+00  0.00000000E+00
  0.00000000E+00  0.00000000E+00  0.00000000E+00
  0.00000000E+00  0.00000000E+00  0.00000000E+00
  0.00000000E+00  0.00000000E+00  0.00000000E+00
  0.00000000E+00  0.00000000E+00  0.00000000E+00
  0.00000000E+00  0.00000000E+00  0.00000000E+00
  0.00000000E+00  0.00000000E+00  0.00000000E+00
  0.00000000E+00  0.00000000E+00  0.00000000E+00
  0.00000000E+00  0.00000000E+00  0.00000000E+00
  0.00000000E+00  0.00000000E+00  0.00000000E+00
  0.00000000E+00  0.00000000E+00  0.00000000E+00
  0.00000000E+00  0.00000000E+00  0.00000000E+00
  0.00000000E+00  0.00000000E+00  0.00000000E+00
  0.00000000E+00  0.00000000E+00  0.00000000E+00
  0.00000000E+00  0.00000000E+00  0.00000000E+00
  0.00000000E+00  0.00000000E+00  0.00000000E+00
  0.00000000E+00  0.00000000E+00  0.00000000E+00
  0.00000000E+00  0.00000000E+00  0.00000000E+00
  0.00000000E+00  0.00000000E+00  0.00000000E+00
  0.00000000E+00  0.00000000E+00  0.00000000E+00
  0.00000000E+00  0.00000000E+00  0.00000000E+00
  0.00000000E+00  0.00000000E+00  0.00000000E+00
  0.00000000E+00  0.00000000E+00  0.00000000E+00
  0.00000000E+00  0.00000000E+00  0.00000000E+00
  0.00000000E+00  0.00000000E+00  0.00000000E+00
  0.00000000E+00  0.00000000E+00  0.00000000E+00
  0.00000000E+00  0.00000000E+00  0.00000000E+00
  0.00000000E+00  0.00000000E+00  0.00000000E+00
  0.00000000E+00  0.00000000E+00  0.00000000E+00
  0.00000000E+00  0.00000000E+00  0.00000000E+00
  0.00000000E+00  0.00000000E+00  0.00000000E+00
  0.00000000E+00  0.00000000E+00  0.00000000E+00
  0.00000000E+00  0.00000000E+00  0.00000000E+00
  0.00000000E+00  0.00000000E+00  0.00000000E+00
  0.00000000E+00  0.00000000E+00  0.00000000E+00
  0.00000000E+00  0.00000000E+00  0.00000000E+00
  0.00000000E+00  0.00000000E+00  0.00000000E+00
  0.00000000E+00  0.00000000E+00  0.00000000E+00
  0.00000000E+00  0.00000000E+00  0.00000000E+00
  0.00000000E+00  0.00000000E+00  0.00000000E+00
  0.00000000E+00  0.00000000E+00  0.00000000E+00
  0.00000000E+00  0.00000000E+00  0.00000000E+00
  0.00000000E+00  0.00000000E+00  0.00000000E+00
  0.00000000E+00  0.00000000E+00  0.00000000E+00
  0.00000000E+00  0.00000000E+00  0.00000000E+00
  0.00000000E+00  0.00000000E+00  0.00000000E+00
  0.00000000E+00  0.00000000E+00  0.00000000E+00
