Pd48 C6 H2 F4                           
    1.000000000000000     
    11.1817229999999999    0.0000000000000000    0.0000000000000000
     0.0000000000000000   11.1817229999999999    0.0000000000000000
     0.0000000000000000    0.0000000000000000   16.9009514100000011
   Pd   C    H    F 
    48     6     2     4
Selective dynamics
Direct
  0.9975748651926608  0.2493473472529573  0.4104314449723319   T   T   T
  0.0000023982194008  0.4999980160125048  0.4098577129805818   T   T   T
  0.0024333400582819  0.7506729356507194  0.4104293780080184   T   T   T
  0.9999963764249671  0.0000002782483719  0.4103748092676511   T   T   T
  0.2497779807351606  0.2497942995769975  0.4100350300481779   T   T   T
  0.2525655656121870  0.5004460024166164  0.4123860168959297   T   T   T
  0.2532716329289855  0.7467208588393959  0.4136477021320886   T   T   T
  0.2493340299574669  0.9975770840484302  0.4104238774759565   T   T   T
  0.5004435000960186  0.2525558027867163  0.4123802061227977   T   T   T
  0.4999775259756873  0.4999968178470908  0.4115488715190878   T   T   T
  0.4995324142712931  0.7474295833921687  0.4123813294680261   T   T   T
  0.5000002732309667  0.9999898118151762  0.4098503093882400   T   T   T
  0.7467192020770668  0.2532789944128027  0.4136484605244561   T   T   T
  0.7474259412408486  0.4995406425391451  0.4123789571145835   T   T   T
  0.7502099218184100  0.7502238278364928  0.4100268158511966   T   T   T
  0.7506675001936287  0.0024193570006759  0.4104241856750335   T   T   T
  0.1238098834581365  0.1238255415796417  0.5254722972158916   T   T   T
  0.1220200796304525  0.3732760510929367  0.5248252479943503   T   T   T
  0.1237592867648090  0.6230324791782067  0.5264978744110067   T   T   T
  0.1256616381697739  0.8743287199746561  0.5266527763557463   T   T   T
  0.3732546578619775  0.1220252380902593  0.5248284615157814   T   T   T
  0.3673536951070915  0.3673742436023062  0.5303821896512204   T   T   T
  0.3782619026208778  0.6217297979394800  0.5382007316302406   T   T   T
  0.3769555113448035  0.8762350242237815  0.5264954499399792   T   T   T
  0.6230366811809560  0.1237431991343101  0.5265056095586047   T   T   T
  0.6217363600114467  0.3782599933099746  0.5381685986600147   T   T   T
  0.6326319157543665  0.6326337526755523  0.5303988813689386   T   T   T
  0.6267442235306433  0.8779560251386158  0.5248222469427120   T   T   T
  0.8743298578744643  0.1256634097375624  0.5266752771494581   T   T   T
  0.8762230847999319  0.3769681191872252  0.5265177245123382   T   T   T
  0.8779686944245029  0.6267538402526043  0.5248115889687739   T   T   T
  0.8761881870268908  0.8761874872987789  0.5254674772291850   T   T   T
  0.1249999995528412  0.1249999995528412  0.2958413333489389   F   F   F
  0.1249999995528412  0.3749999986585237  0.2958413333489389   F   F   F
  0.1249999995528412  0.6249999977642062  0.2958413333489389   F   F   F
  0.1249999995528412  0.8749999968698887  0.2958413333489389   F   F   F
  0.3749999986585237  0.1249999995528412  0.2958413333489389   F   F   F
  0.3749999986585237  0.3749999986585237  0.2958413333489389   F   F   F
  0.3749999986585237  0.6249999977642062  0.2958413333489389   F   F   F
  0.3749999986585237  0.8749999968698887  0.2958413333489389   F   F   F
  0.6249999977642062  0.1249999995528412  0.2958413333489389   F   F   F
  0.6249999977642062  0.3749999986585237  0.2958413333489389   F   F   F
  0.6249999977642062  0.6249999977642062  0.2958413333489389   F   F   F
  0.6249999977642062  0.8749999968698887  0.2958413333489389   F   F   F
  0.8749999968698887  0.1249999995528412  0.2958413333489389   F   F   F
  0.8749999968698887  0.3749999986585237  0.2958413333489389   F   F   F
  0.8749999968698887  0.6249999977642062  0.2958413333489389   F   F   F
  0.8749999968698887  0.8749999968698887  0.2958413333489389   F   F   F
  0.5932447447514306  0.5932485470979856  0.6480496505453743   T   T   T
  0.6245580366947294  0.4665797846643898  0.6523868525353222   T   T   T
  0.5334602647346003  0.3755017810923533  0.6523807189912745   T   T   T
  0.4068327489087409  0.4068218435112030  0.6480494594477904   T   T   T
  0.3755154455805894  0.5334343080747104  0.6524074891167260   T   T   T
  0.4666007337695106  0.6245136020136997  0.6524246654349852   T   T   T
  0.6527763380801446  0.6527353924259671  0.6813478900730914   T   T   T
  0.3473185057908665  0.3472552495278833  0.6813050109099734   T   T   T
  0.7290995271380893  0.4423896886673973  0.6914818992598342   T   T   T
  0.5576708795332408  0.2709913172362803  0.6914794169093099   T   T   T
  0.2710535380773322  0.5576072417743561  0.6915234337891007   T   T   T
  0.4424528847462028  0.7290402875819879  0.6914970596345427   T   T   T
 
  0.00000000E+00  0.00000000E+00  0.00000000E+00
  0.00000000E+00  0.00000000E+00  0.00000000E+00
  0.00000000E+00  0.00000000E+00  0.00000000E+00
  0.00000000E+00  0.00000000E+00  0.00000000E+00
  0.00000000E+00  0.00000000E+00  0.00000000E+00
  0.00000000E+00  0.00000000E+00  0.00000000E+00
  0.00000000E+00  0.00000000E+00  0.00000000E+00
  0.00000000E+00  0.00000000E+00  0.00000000E+00
  0.00000000E+00  0.00000000E+00  0.00000000E+00
  0.00000000E+00  0.00000000E+00  0.00000000E+00
  0.00000000E+00  0.00000000E+00  0.00000000E+00
  0.00000000E+00  0.00000000E+00  0.00000000E+00
  0.00000000E+00  0.00000000E+00  0.00000000E+00
  0.00000000E+00  0.00000000E+00  0.00000000E+00
  0.00000000E+00  0.00000000E+00  0.00000000E+00
  0.00000000E+00  0.00000000E+00  0.00000000E+00
  0.00000000E+00  0.00000000E+00  0.00000000E+00
  0.00000000E+00  0.00000000E+00  0.00000000E+00
  0.00000000E+00  0.00000000E+00  0.00000000E+00
  0.00000000E+00  0.00000000E+00  0.00000000E+00
  0.00000000E+00  0.00000000E+00  0.00000000E+00
  0.00000000E+00  0.00000000E+00  0.00000000E+00
  0.00000000E+00  0.00000000E+00  0.00000000E+00
  0.00000000E+00  0.00000000E+00  0.00000000E+00
  0.00000000E+00  0.00000000E+00  0.00000000E+00
  0.00000000E+00  0.00000000E+00  0.00000000E+00
  0.00000000E+00  0.00000000E+00  0.00000000E+00
  0.00000000E+00  0.00000000E+00  0.00000000E+00
  0.00000000E+00  0.00000000E+00  0.00000000E+00
  0.00000000E+00  0.00000000E+00  0.00000000E+00
  0.00000000E+00  0.00000000E+00  0.00000000E+00
  0.00000000E+00  0.00000000E+00  0.00000000E+00
  0.00000000E+00  0.00000000E+00  0.00000000E+00
  0.00000000E+00  0.00000000E+00  0.00000000E+00
  0.00000000E+00  0.00000000E+00  0.00000000E+00
  0.00000000E+00  0.00000000E+00  0.00000000E+00
  0.00000000E+00  0.00000000E+00  0.00000000E+00
  0.00000000E+00  0.00000000E+00  0.00000000E+00
  0.00000000E+00  0.00000000E+00  0.00000000E+00
  0.00000000E+00  0.00000000E+00  0.00000000E+00
  0.00000000E+00  0.00000000E+00  0.00000000E+00
  0.00000000E+00  0.00000000E+00  0.00000000E+00
  0.00000000E+00  0.00000000E+00  0.00000000E+00
  0.00000000E+00  0.00000000E+00  0.00000000E+00
  0.00000000E+00  0.00000000E+00  0.00000000E+00
  0.00000000E+00  0.00000000E+00  0.00000000E+00
  0.00000000E+00  0.00000000E+00  0.00000000E+00
  0.00000000E+00  0.00000000E+00  0.00000000E+00
  0.00000000E+00  0.00000000E+00  0.00000000E+00
  0.00000000E+00  0.00000000E+00  0.00000000E+00
  0.00000000E+00  0.00000000E+00  0.00000000E+00
  0.00000000E+00  0.00000000E+00  0.00000000E+00
  0.00000000E+00  0.00000000E+00  0.00000000E+00
  0.00000000E+00  0.00000000E+00  0.00000000E+00
  0.00000000E+00  0.00000000E+00  0.00000000E+00
  0.00000000E+00  0.00000000E+00  0.00000000E+00
  0.00000000E+00  0.00000000E+00  0.00000000E+00
  0.00000000E+00  0.00000000E+00  0.00000000E+00
  0.00000000E+00  0.00000000E+00  0.00000000E+00
  0.00000000E+00  0.00000000E+00  0.00000000E+00
