Cu  C  H Cl                             
    1.000000000000000     
    10.2424774999999997    0.0000000000000000    0.0000000000000000
     0.0000000000000000   10.2424774999999997    0.0000000000000000
     0.0000000000000000    0.0000000000000000   23.4318939600000000
   Cu   C    H    Cl
    64     6     4     2
Selective dynamics
Direct
  0.2499999995118358  0.0000000000000000  0.3200765594451340   F   F   F
  0.0000000000000000  0.4999999990236716  0.3200765594451340   F   F   F
  0.2499999995118358  0.2499999995118358  0.3200765594451340   F   F   F
  0.2499999995118358  0.4999999990236716  0.3200765594451340   F   F   F
  0.2499999995118358  0.7499999985355075  0.3200765594451340   F   F   F
  0.4999999990236716  0.0000000000000000  0.3200765594451340   F   F   F
  0.4999999990236716  0.2499999995118358  0.3200765594451340   F   F   F
  0.0000000000000000  0.7499999985355075  0.3200765594451340   F   F   F
  0.4999999990236716  0.4999999990236716  0.3200765594451340   F   F   F
  0.4999999990236716  0.7499999985355075  0.3200765594451340   F   F   F
  0.7499999985355075  0.0000000000000000  0.3200765594451340   F   F   F
  0.7499999985355075  0.2499999995118358  0.3200765594451340   F   F   F
  0.7499999985355075  0.4999999990236716  0.3200765594451340   F   F   F
  0.7499999985355075  0.7499999985355075  0.3200765594451340   F   F   F
  0.0000000000000000  0.0000000000000000  0.3200765594451340   F   F   F
  0.0000000000000000  0.2499999995118358  0.3200765594451340   F   F   F
  0.2498809109280033  0.0000315623412772  0.4741119755633059   T   T   T
  0.2498336870114820  0.2498348188711823  0.4741121494535144   T   T   T
  0.2499224690349521  0.5000895090491174  0.4741919828193093   T   T   T
  0.2500472987892191  0.7499553525610027  0.4741502884786050   T   T   T
  0.5000014114719056  0.0000026748604534  0.4740363926746275   T   T   T
  0.5000893849688414  0.2499269036074799  0.4741951033026163   T   T   T
  0.5000006446136566  0.5000032716381362  0.4740690296908414   T   T   T
  0.4999097325561039  0.7500762160125793  0.4741922858524424   T   T   T
  0.7501221061660280 -0.0000311607995636  0.4741123551168653   T   T   T
  0.7499551077625094  0.2500476091596932  0.4741519661028940   T   T   T
  0.7500793669134691  0.4999112954541139  0.4741923959275124   T   T   T
  0.7501702998407298  0.7501689093884378  0.4741125769145244   T   T   T
  0.0000022026667482  0.0000007135692820  0.4740949427134128   T   T   T
  0.0000349090829517  0.2498807573298489  0.4741121343120526   T   T   T
  0.0000037299610695  0.5000025136720032  0.4740357382824990   T   T   T
 -0.0000307451427171  0.7501219255783643  0.4741117422751980   T   T   T
  0.1247025878193867  0.1246994023719530  0.5495355127362104   T   T   T
  0.1246399090314187  0.3751348956780690  0.5495879053117305   T   T   T
  0.1248935477283550  0.6250138631559681  0.5494991289424470   T   T   T
  0.1253187039575408  0.8746856789161979  0.5497013872500315   T   T   T
  0.3751343862013873  0.1246409815681060  0.5495882456742387   T   T   T
  0.3751289711700969  0.3751313873713378  0.5486922805225449   T   T   T
  0.3744992892050297  0.6255064372412140  0.5497142110293578   T   T   T
  0.3749872823687930  0.8751093120116583  0.5494953377995260   T   T   T
  0.6250131575716438  0.1248916460772432  0.5494972137240252   T   T   T
  0.6255070824473269  0.3744961573262651  0.5497140010238168   T   T   T
  0.6248732847183011  0.6248717521817480  0.5486937066016206   T   T   T
  0.6248717191509979  0.8753610901916096  0.5495885753624825   T   T   T
  0.8746894353338450  0.1253193165815950  0.5497014073257920   T   T   T
  0.8751119515545602  0.3749910278718286  0.5494968266544324   T   T   T
  0.8753661010529835  0.6248700589417256  0.5495890481276996   T   T   T
  0.8753043976286573  0.8753028765567911  0.5495375773042134   T   T   T
  0.1250000002440785  0.1249999992677573  0.3973486452223582   F   F   F
  0.1250000002440785  0.3749999997559215  0.3973486452223582   F   F   F
  0.1250000002440785  0.6249999982914289  0.3973486452223582   F   F   F
  0.1250000002440785  0.8749999987795931  0.3973486452223582   F   F   F
  0.3749999997559215  0.1249999992677573  0.3973486452223582   F   F   F
  0.3749999997559215  0.3749999997559215  0.3973486452223582   F   F   F
  0.3749999997559215  0.6249999982914289  0.3973486452223582   F   F   F
  0.3749999997559215  0.8749999987795931  0.3973486452223582   F   F   F
  0.6249999982914289  0.1249999992677573  0.3973486452223582   F   F   F
  0.6249999982914289  0.3749999997559215  0.3973486452223582   F   F   F
  0.6249999992677573  0.6249999982914289  0.3973486452223582   F   F   F
  0.6249999992677573  0.8749999987795931  0.3973486452223582   F   F   F
  0.8749999987795931  0.1249999992677573  0.3973486452223582   F   F   F
  0.8749999978032648  0.3749999997559215  0.3973486452223582   F   F   F
  0.8749999987795931  0.6249999982914289  0.3973486452223582   F   F   F
  0.8749999987795931  0.8749999987795931  0.3973486452223582   F   F   F
  0.5958838838416031  0.5958959562855818  0.6688779210296036   T   T   T
  0.6324551014971607  0.4641357364988508  0.6671625046423680   T   T   T
  0.5357789413806584  0.3674629305611152  0.6671617174275326   T   T   T
  0.4041754247875161  0.4041455472912527  0.6688755978598212   T   T   T
  0.3675037165162403  0.5358132048515940  0.6671570843250515   T   T   T
  0.4641613638394694  0.6325051061786581  0.6671644693473352   T   T   T
  0.7354462394237060  0.4371282941472843  0.6671876575672417   T   T   T
  0.5628462423859529  0.2645675760235364  0.6671872978161228   T   T   T
  0.2645527959954405  0.5628745937614068  0.6671905142562163   T   T   T
  0.4371474968873865  0.7354421078358840  0.6671893923732181   T   T   T
  0.7150964924389124  0.7149820603906940  0.6738650898600543   T   T   T
  0.2848500779306626  0.2849623336835999  0.6737957274999207   T   T   T
 
  0.00000000E+00  0.00000000E+00  0.00000000E+00
  0.00000000E+00  0.00000000E+00  0.00000000E+00
  0.00000000E+00  0.00000000E+00  0.00000000E+00
  0.00000000E+00  0.00000000E+00  0.00000000E+00
  0.00000000E+00  0.00000000E+00  0.00000000E+00
  0.00000000E+00  0.00000000E+00  0.00000000E+00
  0.00000000E+00  0.00000000E+00  0.00000000E+00
  0.00000000E+00  0.00000000E+00  0.00000000E+00
  0.00000000E+00  0.00000000E+00  0.00000000E+00
  0.00000000E+00  0.00000000E+00  0.00000000E+00
  0.00000000E+00  0.00000000E+00  0.00000000E+00
  0.00000000E+00  0.00000000E+00  0.00000000E+00
  0.00000000E+00  0.00000000E+00  0.00000000E+00
  0.00000000E+00  0.00000000E+00  0.00000000E+00
  0.00000000E+00  0.00000000E+00  0.00000000E+00
  0.00000000E+00  0.00000000E+00  0.00000000E+00
  0.00000000E+00  0.00000000E+00  0.00000000E+00
  0.00000000E+00  0.00000000E+00  0.00000000E+00
  0.00000000E+00  0.00000000E+00  0.00000000E+00
  0.00000000E+00  0.00000000E+00  0.00000000E+00
  0.00000000E+00  0.00000000E+00  0.00000000E+00
  0.00000000E+00  0.00000000E+00  0.00000000E+00
  0.00000000E+00  0.00000000E+00  0.00000000E+00
  0.00000000E+00  0.00000000E+00  0.00000000E+00
  0.00000000E+00  0.00000000E+00  0.00000000E+00
  0.00000000E+00  0.00000000E+00  0.00000000E+00
  0.00000000E+00  0.00000000E+00  0.00000000E+00
  0.00000000E+00  0.00000000E+00  0.00000000E+00
  0.00000000E+00  0.00000000E+00  0.00000000E+00
  0.00000000E+00  0.00000000E+00  0.00000000E+00
  0.00000000E+00  0.00000000E+00  0.00000000E+00
  0.00000000E+00  0.00000000E+00  0.00000000E+00
  0.00000000E+00  0.00000000E+00  0.00000000E+00
  0.00000000E+00  0.00000000E+00  0.00000000E+00
  0.00000000E+00  0.00000000E+00  0.00000000E+00
  0.00000000E+00  0.00000000E+00  0.00000000E+00
  0.00000000E+00  0.00000000E+00  0.00000000E+00
  0.00000000E+00  0.00000000E+00  0.00000000E+00
  0.00000000E+00  0.00000000E+00  0.00000000E+00
  0.00000000E+00  0.00000000E+00  0.00000000E+00
  0.00000000E+00  0.00000000E+00  0.00000000E+00
  0.00000000E+00  0.00000000E+00  0.00000000E+00
  0.00000000E+00  0.00000000E+00  0.00000000E+00
  0.00000000E+00  0.00000000E+00  0.00000000E+00
  0.00000000E+00  0.00000000E+00  0.00000000E+00
  0.00000000E+00  0.00000000E+00  0.00000000E+00
  0.00000000E+00  0.00000000E+00  0.00000000E+00
  0.00000000E+00  0.00000000E+00  0.00000000E+00
  0.00000000E+00  0.00000000E+00  0.00000000E+00
  0.00000000E+00  0.00000000E+00  0.00000000E+00
  0.00000000E+00  0.00000000E+00  0.00000000E+00
  0.00000000E+00  0.00000000E+00  0.00000000E+00
  0.00000000E+00  0.00000000E+00  0.00000000E+00
  0.00000000E+00  0.00000000E+00  0.00000000E+00
  0.00000000E+00  0.00000000E+00  0.00000000E+00
  0.00000000E+00  0.00000000E+00  0.00000000E+00
  0.00000000E+00  0.00000000E+00  0.00000000E+00
  0.00000000E+00  0.00000000E+00  0.00000000E+00
  0.00000000E+00  0.00000000E+00  0.00000000E+00
  0.00000000E+00  0.00000000E+00  0.00000000E+00
  0.00000000E+00  0.00000000E+00  0.00000000E+00
  0.00000000E+00  0.00000000E+00  0.00000000E+00
  0.00000000E+00  0.00000000E+00  0.00000000E+00
  0.00000000E+00  0.00000000E+00  0.00000000E+00
  0.00000000E+00  0.00000000E+00  0.00000000E+00
  0.00000000E+00  0.00000000E+00  0.00000000E+00
  0.00000000E+00  0.00000000E+00  0.00000000E+00
  0.00000000E+00  0.00000000E+00  0.00000000E+00
  0.00000000E+00  0.00000000E+00  0.00000000E+00
  0.00000000E+00  0.00000000E+00  0.00000000E+00
  0.00000000E+00  0.00000000E+00  0.00000000E+00
  0.00000000E+00  0.00000000E+00  0.00000000E+00
  0.00000000E+00  0.00000000E+00  0.00000000E+00
  0.00000000E+00  0.00000000E+00  0.00000000E+00
  0.00000000E+00  0.00000000E+00  0.00000000E+00
  0.00000000E+00  0.00000000E+00  0.00000000E+00
