Pd  C  N  F                             
    1.000000000000000     
    11.1817229999999999    0.0000000000000000    0.0000000000000000
     0.0000000000000000   11.1817229999999999    0.0000000000000000
     0.0000000000000000    0.0000000000000000   23.9300040900000006
   Pd   C    N    F 
    64     4     2     4
Selective dynamics
Direct
  0.0000000000000000  0.2499999991056825  0.3134140709626578   F   F   F
  0.7499999973170475  0.7499999973170475  0.3134140709626578   F   F   F
  0.0000000000000000  0.4999999982113650  0.3134140709626578   F   F   F
  0.0000000000000000  0.7499999973170475  0.3134140709626578   F   F   F
  0.0000000000000000  0.0000000000000000  0.3134140709626578   F   F   F
  0.2499999991056825  0.2499999991056825  0.3134140709626578   F   F   F
  0.2499999991056825  0.4999999982113650  0.3134140709626578   F   F   F
  0.7499999973170475  0.0000000000000000  0.3134140709626578   F   F   F
  0.2499999991056825  0.7499999973170475  0.3134140709626578   F   F   F
  0.2499999991056825  0.0000000000000000  0.3134140709626578   F   F   F
  0.4999999982113650  0.2499999991056825  0.3134140709626578   F   F   F
  0.4999999982113650  0.4999999982113650  0.3134140709626578   F   F   F
  0.4999999982113650  0.7499999973170475  0.3134140709626578   F   F   F
  0.4999999982113650  0.0000000000000000  0.3134140709626578   F   F   F
  0.7499999973170475  0.2499999991056825  0.3134140709626578   F   F   F
  0.7499999973170475  0.4999999982113650  0.3134140709626578   F   F   F
  0.0000644504202379  0.2500093038866107  0.4772017207121488   T   T   T
  0.0000015410623773  0.4999957917654598  0.4771593561156889   T   T   T
 -0.0000568268524412  0.7499882770824202  0.4772010877916513   T   T   T
  0.0000055165770036 -0.0000018562926340  0.4772057457007824   T   T   T
  0.2500335793736808  0.2500433880135459  0.4772843893159588   T   T   T
  0.2501224246057452  0.4993294350372177  0.4771833459145374   T   T   T
  0.2500832991904405  0.7499110417528467  0.4771075160915452   T   T   T
  0.2500027368687538  0.0000559493467305  0.4771997187135426   T   T   T
  0.4993236795402319  0.2501172585876102  0.4771769224201820   T   T   T
  0.4999925658972784  0.5000022379023973  0.4772873352620285   T   T   T
  0.5006709594963515  0.7498702369779787  0.4771804003083777   T   T   T
  0.4999926844072831  0.9999885567459366  0.4771495898271046   T   T   T
  0.7499269100165937  0.2501106089355797  0.4770983737749915   T   T   T
  0.7498607983014932  0.5007151265060631  0.4771910363913803   T   T   T
  0.7499595136185876  0.7499775188225208  0.4772825674108040   T   T   T
  0.7500003021306543 -0.0000650386854306  0.4771914300681412   T   T   T
  0.1249844470621244  0.1249800954699663  0.5582890759299703   T   T   T
  0.1246249009341203  0.3750291170303776  0.5582209083166363   T   T   T
  0.1253528688908826  0.6249238103333291  0.5581937885127090   T   T   T
  0.1251205486245950  0.8748786310477302  0.5581757927663322   T   T   T
  0.3750189703512644  0.1246313193396760  0.5582197041525850   T   T   T
  0.3746079258620861  0.3746040435915397  0.5592643719142200   T   T   T
  0.3752934709107965  0.6247036944159727  0.5579572019679117   T   T   T
  0.3750709091682795  0.8746494641975202  0.5581866753619020   T   T   T
  0.6249310065020335  0.1253571833060584  0.5581788338264023   T   T   T
  0.6247066107133210  0.3752936751411118  0.5579465635229527   T   T   T
  0.6253868523072549  0.6253979506248686  0.5592719559738208   T   T   T
  0.6249846606928930  0.8753722524830101  0.5582173428522419   T   T   T
  0.8748818152559078  0.1251108981905335  0.5581720710943109   T   T   T
  0.8746391479365248  0.3750753792641997  0.5581837237017321   T   T   T
  0.8753801603554735  0.6249841668152150  0.5582219669939682   T   T   T
  0.8750167082609166  0.8750189833584847  0.5582838569618374   T   T   T
  0.1249999995528412  0.1249999995528412  0.3960161475258630   F   F   F
  0.1249999995528412  0.3749999986585237  0.3960161475258630   F   F   F
  0.1249999995528412  0.6249999977642062  0.3960161475258630   F   F   F
  0.1249999995528412  0.8749999968698887  0.3960161475258630   F   F   F
  0.3749999986585237  0.1249999995528412  0.3960161475258630   F   F   F
  0.3749999986585237  0.3749999986585237  0.3960161475258630   F   F   F
  0.3749999986585237  0.6249999977642062  0.3960161475258630   F   F   F
  0.3749999986585237  0.8749999968698887  0.3960161475258630   F   F   F
  0.6249999977642062  0.1249999995528412  0.3960161475258630   F   F   F
  0.6249999977642062  0.3749999986585237  0.3960161475258630   F   F   F
  0.6249999977642062  0.6249999977642062  0.3960161475258630   F   F   F
  0.6249999977642062  0.8749999968698887  0.3960161475258630   F   F   F
  0.8749999968698887  0.1249999995528412  0.3960161475258630   F   F   F
  0.8749999968698887  0.3749999986585237  0.3960161475258630   F   F   F
  0.8749999968698887  0.6249999977642062  0.3960161475258630   F   F   F
  0.8749999968698887  0.8749999968698887  0.3960161475258630   F   F   F
  0.5269983090890169  0.3842831148875579  0.6834576623850641   T   T   T
  0.6157046287982744  0.4729875903704124  0.6834568254050722   T   T   T
  0.4729934359543913  0.6157061155243807  0.6834584387964288   T   T   T
  0.3843074600034200  0.5270235653013425  0.6834558236496544   T   T   T
  0.5878132224806655  0.5877975151811413  0.6832055097755634   T   T   T
  0.4121875497754758  0.4122092065439532  0.6832038193714646   T   T   T
  0.2678388885245087  0.5562910418844881  0.6858534169761820   T   T   T
  0.4437722585434593  0.7321565349357601  0.6858593527508197   T   T   T
  0.5562431479749264  0.2678278033653259  0.6858582363190636   T   T   T
  0.7321789874525406  0.4436973256428242  0.6858544432862899   T   T   T
 
  0.00000000E+00  0.00000000E+00  0.00000000E+00
  0.00000000E+00  0.00000000E+00  0.00000000E+00
  0.00000000E+00  0.00000000E+00  0.00000000E+00
  0.00000000E+00  0.00000000E+00  0.00000000E+00
  0.00000000E+00  0.00000000E+00  0.00000000E+00
  0.00000000E+00  0.00000000E+00  0.00000000E+00
  0.00000000E+00  0.00000000E+00  0.00000000E+00
  0.00000000E+00  0.00000000E+00  0.00000000E+00
  0.00000000E+00  0.00000000E+00  0.00000000E+00
  0.00000000E+00  0.00000000E+00  0.00000000E+00
  0.00000000E+00  0.00000000E+00  0.00000000E+00
  0.00000000E+00  0.00000000E+00  0.00000000E+00
  0.00000000E+00  0.00000000E+00  0.00000000E+00
  0.00000000E+00  0.00000000E+00  0.00000000E+00
  0.00000000E+00  0.00000000E+00  0.00000000E+00
  0.00000000E+00  0.00000000E+00  0.00000000E+00
  0.00000000E+00  0.00000000E+00  0.00000000E+00
  0.00000000E+00  0.00000000E+00  0.00000000E+00
  0.00000000E+00  0.00000000E+00  0.00000000E+00
  0.00000000E+00  0.00000000E+00  0.00000000E+00
  0.00000000E+00  0.00000000E+00  0.00000000E+00
  0.00000000E+00  0.00000000E+00  0.00000000E+00
  0.00000000E+00  0.00000000E+00  0.00000000E+00
  0.00000000E+00  0.00000000E+00  0.00000000E+00
  0.00000000E+00  0.00000000E+00  0.00000000E+00
  0.00000000E+00  0.00000000E+00  0.00000000E+00
  0.00000000E+00  0.00000000E+00  0.00000000E+00
  0.00000000E+00  0.00000000E+00  0.00000000E+00
  0.00000000E+00  0.00000000E+00  0.00000000E+00
  0.00000000E+00  0.00000000E+00  0.00000000E+00
  0.00000000E+00  0.00000000E+00  0.00000000E+00
  0.00000000E+00  0.00000000E+00  0.00000000E+00
  0.00000000E+00  0.00000000E+00  0.00000000E+00
  0.00000000E+00  0.00000000E+00  0.00000000E+00
  0.00000000E+00  0.00000000E+00  0.00000000E+00
  0.00000000E+00  0.00000000E+00  0.00000000E+00
  0.00000000E+00  0.00000000E+00  0.00000000E+00
  0.00000000E+00  0.00000000E+00  0.00000000E+00
  0.00000000E+00  0.00000000E+00  0.00000000E+00
  0.00000000E+00  0.00000000E+00  0.00000000E+00
  0.00000000E+00  0.00000000E+00  0.00000000E+00
  0.00000000E+00  0.00000000E+00  0.00000000E+00
  0.00000000E+00  0.00000000E+00  0.00000000E+00
  0.00000000E+00  0.00000000E+00  0.00000000E+00
  0.00000000E+00  0.00000000E+00  0.00000000E+00
  0.00000000E+00  0.00000000E+00  0.00000000E+00
  0.00000000E+00  0.00000000E+00  0.00000000E+00
  0.00000000E+00  0.00000000E+00  0.00000000E+00
  0.00000000E+00  0.00000000E+00  0.00000000E+00
  0.00000000E+00  0.00000000E+00  0.00000000E+00
  0.00000000E+00  0.00000000E+00  0.00000000E+00
  0.00000000E+00  0.00000000E+00  0.00000000E+00
  0.00000000E+00  0.00000000E+00  0.00000000E+00
  0.00000000E+00  0.00000000E+00  0.00000000E+00
  0.00000000E+00  0.00000000E+00  0.00000000E+00
  0.00000000E+00  0.00000000E+00  0.00000000E+00
  0.00000000E+00  0.00000000E+00  0.00000000E+00
  0.00000000E+00  0.00000000E+00  0.00000000E+00
  0.00000000E+00  0.00000000E+00  0.00000000E+00
  0.00000000E+00  0.00000000E+00  0.00000000E+00
  0.00000000E+00  0.00000000E+00  0.00000000E+00
  0.00000000E+00  0.00000000E+00  0.00000000E+00
  0.00000000E+00  0.00000000E+00  0.00000000E+00
  0.00000000E+00  0.00000000E+00  0.00000000E+00
  0.00000000E+00  0.00000000E+00  0.00000000E+00
  0.00000000E+00  0.00000000E+00  0.00000000E+00
  0.00000000E+00  0.00000000E+00  0.00000000E+00
  0.00000000E+00  0.00000000E+00  0.00000000E+00
  0.00000000E+00  0.00000000E+00  0.00000000E+00
  0.00000000E+00  0.00000000E+00  0.00000000E+00
  0.00000000E+00  0.00000000E+00  0.00000000E+00
  0.00000000E+00  0.00000000E+00  0.00000000E+00
  0.00000000E+00  0.00000000E+00  0.00000000E+00
  0.00000000E+00  0.00000000E+00  0.00000000E+00
