Cu48 C4 Br4 N2                          
    1.000000000000000     
    10.2424769999999992    0.0000000000000000    0.0000000000000000
    -5.1212390000000001    8.8702459999999999    0.0000000000000000
     0.0000000000000000    0.0000000000000000   17.1814740000000015
   Cu   C    Br   N 
    48     4     4     2
Selective dynamics
Direct
  0.0833330000000032  0.1666669999999968  0.3492129999999989   F   F   F
  0.0833330000000032  0.4166669999999968  0.3492129999999989   F   F   F
  0.0833330000000032  0.6666669999999968  0.3492129999999989   F   F   F
  0.0833330000000032  0.9166669999999968  0.3492129999999989   F   F   F
  0.3333330000000032  0.1666669999999968  0.3492129999999989   F   F   F
  0.3333330000000032  0.4166669999999968  0.3492129999999989   F   F   F
  0.3333330000000032  0.6666669999999968  0.3492129999999989   F   F   F
  0.3333330000000032  0.9166669999999968  0.3492129999999989   F   F   F
  0.5833330000000032  0.1666669999999968  0.3492129999999989   F   F   F
  0.5833330000000032  0.4166669999999968  0.3492129999999989   F   F   F
  0.5833330000000032  0.6666669999999968  0.3492129999999989   F   F   F
  0.5833330000000032  0.9166669999999968  0.3492129999999989   F   F   F
  0.8333330000000032  0.1666669999999968  0.3492129999999989   F   F   F
  0.8333330000000032  0.4166669999999968  0.3492129999999989   F   F   F
  0.8333330000000032  0.6666669999999968  0.3492129999999989   F   F   F
  0.8333330000000032  0.9166669999999968  0.3492129999999989   F   F   F
  0.9997196064994256  0.9998480902410023  0.5886116970476607   T   T   T
  0.9997333710521517  0.2500131757975694  0.5889190432732931   T   T   T
  0.0001518562224803  0.5001115635003828  0.5887953589200734   T   T   T
  0.0001255276236733  0.7498730913123381  0.5884217133089393   T   T   T
  0.2497695702332976  0.9998113913806890  0.5890447613601282   T   T   T
  0.2501383533071078  0.2503406561619599  0.5871089166504433   T   T   T
  0.2499658137427971  0.5000362800715337  0.5887887345102811   T   T   T
  0.2498860647918804  0.7498461514184527  0.5887961112175901   T   T   T
  0.5000737795991981  0.0004593695140045  0.5888515808372929   T   T   T
  0.4996108371476993  0.2503910384903776  0.5887702379957531   T   T   T
  0.4996582829497100  0.4998600220294591  0.5871096322515257   T   T   T
  0.4999877627485532  0.7502669716532466  0.5889200321697743   T   T   T
  0.7496520707826733  0.0003488425062272  0.5884216792749442   T   T   T
  0.7495408613630872  0.2499259255459947  0.5888491826012299   T   T   T
  0.7501895084805170  0.5002313034640267  0.5890458041977382   T   T   T
  0.7501521987912270  0.7502802220404803  0.5886131100080902   T   T   T
  0.1664852047306837  0.0827209029032616  0.4687371968498368   T   T   T
  0.1664519185101270  0.3335488286034618  0.4687355377264311   T   T   T
  0.1666018189321505  0.5833974814473208  0.4689436384804679   T   T   T
  0.1668629389078262  0.8333328543010765  0.4689247788083861   T   T   T
  0.4164944204536027  0.0832330513464186  0.4691271385740521   T   T   T
  0.4169330045098292  0.3330665107819542  0.4682608594974198   T   T   T
  0.4164510732393651  0.5835481643168237  0.4687374739027419   T   T   T
  0.4167901101211342  0.8334501446010876  0.4690577705306680   T   T   T
  0.6665663353191107  0.0834331530533632  0.4688305969180817   T   T   T
  0.6667683400394182  0.3335068787174649  0.4691273710908348   T   T   T
  0.6672797688093794  0.5835145136074189  0.4687390732677912   T   T   T
  0.6664637271766054  0.8331597888299527  0.4689318979638131   T   T   T
  0.9168411656850992  0.0835370323021394  0.4689301021504448   T   T   T
  0.9165497306452437  0.3332101992615435  0.4690563222073649   T   T   T
  0.9166664987510700  0.5831363580565352  0.4689250941769032   T   T   T
  0.9167261824494517  0.8332731127456725  0.4688733528020066   T   T   T
  0.5267100572948209  0.4469844834053376  0.7676493253748049   T   T   T
  0.4471093860441044  0.5265739053441365  0.7675522110394084   T   T   T
  0.2234139923370293  0.3029020749499836  0.7675520659752237   T   T   T
  0.3030049074727543  0.2232946711764470  0.7676496629278446   T   T   T
  0.2052355046322418  0.0097242870143006  0.7671426049427481   T   T   T
  0.0098521132450813  0.2051778449748980  0.7671120906161946   T   T   T
  0.7402791601036824  0.5447293091301972  0.7671418590179115   T   T   T
  0.5448650216568893  0.7401445775227842  0.7671106458277421   T   T   T
  0.2974325891468084  0.4525950281871616  0.7676471445478725   T   T   T
  0.4526951251444800  0.2972849353031606  0.7678659687481044   T   T   T
 
  0.00000000E+00  0.00000000E+00  0.00000000E+00
  0.00000000E+00  0.00000000E+00  0.00000000E+00
  0.00000000E+00  0.00000000E+00  0.00000000E+00
  0.00000000E+00  0.00000000E+00  0.00000000E+00
  0.00000000E+00  0.00000000E+00  0.00000000E+00
  0.00000000E+00  0.00000000E+00  0.00000000E+00
  0.00000000E+00  0.00000000E+00  0.00000000E+00
  0.00000000E+00  0.00000000E+00  0.00000000E+00
  0.00000000E+00  0.00000000E+00  0.00000000E+00
  0.00000000E+00  0.00000000E+00  0.00000000E+00
  0.00000000E+00  0.00000000E+00  0.00000000E+00
  0.00000000E+00  0.00000000E+00  0.00000000E+00
  0.00000000E+00  0.00000000E+00  0.00000000E+00
  0.00000000E+00  0.00000000E+00  0.00000000E+00
  0.00000000E+00  0.00000000E+00  0.00000000E+00
  0.00000000E+00  0.00000000E+00  0.00000000E+00
  0.00000000E+00  0.00000000E+00  0.00000000E+00
  0.00000000E+00  0.00000000E+00  0.00000000E+00
  0.00000000E+00  0.00000000E+00  0.00000000E+00
  0.00000000E+00  0.00000000E+00  0.00000000E+00
  0.00000000E+00  0.00000000E+00  0.00000000E+00
  0.00000000E+00  0.00000000E+00  0.00000000E+00
  0.00000000E+00  0.00000000E+00  0.00000000E+00
  0.00000000E+00  0.00000000E+00  0.00000000E+00
  0.00000000E+00  0.00000000E+00  0.00000000E+00
  0.00000000E+00  0.00000000E+00  0.00000000E+00
  0.00000000E+00  0.00000000E+00  0.00000000E+00
  0.00000000E+00  0.00000000E+00  0.00000000E+00
  0.00000000E+00  0.00000000E+00  0.00000000E+00
  0.00000000E+00  0.00000000E+00  0.00000000E+00
  0.00000000E+00  0.00000000E+00  0.00000000E+00
  0.00000000E+00  0.00000000E+00  0.00000000E+00
  0.00000000E+00  0.00000000E+00  0.00000000E+00
  0.00000000E+00  0.00000000E+00  0.00000000E+00
  0.00000000E+00  0.00000000E+00  0.00000000E+00
  0.00000000E+00  0.00000000E+00  0.00000000E+00
  0.00000000E+00  0.00000000E+00  0.00000000E+00
  0.00000000E+00  0.00000000E+00  0.00000000E+00
  0.00000000E+00  0.00000000E+00  0.00000000E+00
  0.00000000E+00  0.00000000E+00  0.00000000E+00
  0.00000000E+00  0.00000000E+00  0.00000000E+00
  0.00000000E+00  0.00000000E+00  0.00000000E+00
  0.00000000E+00  0.00000000E+00  0.00000000E+00
  0.00000000E+00  0.00000000E+00  0.00000000E+00
  0.00000000E+00  0.00000000E+00  0.00000000E+00
  0.00000000E+00  0.00000000E+00  0.00000000E+00
  0.00000000E+00  0.00000000E+00  0.00000000E+00
  0.00000000E+00  0.00000000E+00  0.00000000E+00
  0.00000000E+00  0.00000000E+00  0.00000000E+00
  0.00000000E+00  0.00000000E+00  0.00000000E+00
  0.00000000E+00  0.00000000E+00  0.00000000E+00
  0.00000000E+00  0.00000000E+00  0.00000000E+00
  0.00000000E+00  0.00000000E+00  0.00000000E+00
  0.00000000E+00  0.00000000E+00  0.00000000E+00
  0.00000000E+00  0.00000000E+00  0.00000000E+00
  0.00000000E+00  0.00000000E+00  0.00000000E+00
  0.00000000E+00  0.00000000E+00  0.00000000E+00
  0.00000000E+00  0.00000000E+00  0.00000000E+00
