H2 Pt48 C6 Br4                          
    1.000000000000000     
    11.2480069999999994    0.0000000000000000    0.0000000000000000
    -5.6240030000000001    9.7410599999999992    0.0000000000000000
     0.0000000000000000    0.0000000000000000   16.5976940000000006
   H    Pt   C    Br
     2    48     6     4
Selective dynamics
Direct
  0.7468410002123775  0.5031608199786106  0.8024366921766415   T   T   T
  0.5020953241398800  0.7479434245553946  0.8033936744085679   T   T   T
  0.0833330000000032  0.1666669999999968  0.3614960000000025   F   F   F
  0.0833330000000032  0.4166669999999968  0.3614960000000025   F   F   F
  0.0833330000000032  0.6666669999999968  0.3614960000000025   F   F   F
  0.0833330000000032  0.9166669999999968  0.3614960000000025   F   F   F
  0.3333330000000032  0.1666669999999968  0.3614960000000025   F   F   F
  0.3333330000000032  0.4166669999999968  0.3614960000000025   F   F   F
  0.3333330000000032  0.6666669999999968  0.3614960000000025   F   F   F
  0.3333330000000032  0.9166669999999968  0.3614960000000025   F   F   F
  0.5833330000000032  0.1666669999999968  0.3614960000000025   F   F   F
  0.5833330000000032  0.4166669999999968  0.3614960000000025   F   F   F
  0.5833330000000032  0.6666669999999968  0.3614960000000025   F   F   F
  0.5833330000000032  0.9166669999999968  0.3614960000000025   F   F   F
  0.8333330000000032  0.1666669999999968  0.3614960000000025   F   F   F
  0.8333330000000032  0.4166669999999968  0.3614960000000025   F   F   F
  0.8333330000000032  0.6666669999999968  0.3614960000000025   F   F   F
  0.8333330000000032  0.9166669999999968  0.3614960000000025   F   F   F
  0.2427560711565988  0.2434190104112446  0.6337072801297055   T   T   T
  0.2389223424401692  0.4977545669999017  0.6391350805260316   T   T   T
  0.2512842067493608  0.7508096369118320  0.6390157377505261   T   T   T
  0.2510687021398255  0.9989422877660061  0.6371021487759734   T   T   T
  0.4959109465884666  0.2393222030793325  0.6386144807019818   T   T   T
  0.4864169507565990  0.4888454020682644  0.6431523733892703   T   T   T
  0.4986467686317511  0.7513581022095508  0.6446364411160701   T   T   T
  0.4991874466167729  0.9987212836721824  0.6390122215554683   T   T   T
  0.7493287464794918  0.2527691114898545  0.6384768793061539   T   T   T
  0.7478484501183260  0.5021314779254737  0.6436316654778835   T   T   T
  0.7611437911488892  0.7635770560795407  0.6431442231136231   T   T   T
  0.7522377944291705  0.0110730743614340  0.6391308522843602   T   T   T
  0.9974133013596784  0.2525831491539421  0.6364489866224190   T   T   T
  0.9972211787096796  0.5006621957986681  0.6384798134589573   T   T   T
  0.0106786089168907  0.7540876814106241  0.6386245830023825   T   T   T
  0.0065677540038038  0.0072372274827899  0.6337042453570163   T   T   T
  0.1682438795129642  0.0817582324286619  0.4959553962468988   T   T   T
  0.1666600398351932  0.3337130508135431  0.4978671851591727   T   T   T
  0.1664032341454558  0.5831997977326182  0.4994723179334315   T   T   T
  0.1675047566484125  0.8319227855054976  0.4980657455506901   T   T   T
  0.4180782205324505  0.0824987616709549  0.4980583266025462   T   T   T
  0.4186720601484097  0.3355853100154960  0.5011321636417350   T   T   T
  0.4170351880798648  0.5832674504640778  0.5024968266237622   T   T   T
  0.4187269946756516  0.8312691077617131  0.5024370444868396   T   T   T
  0.6667901221732748  0.0835984200507909  0.4994597740540527   T   T   T
  0.6663305097302441  0.3357148321384003  0.5015079785140841   T   T   T
  0.6656248762076942  0.5843673799110505  0.5022827866413380   T   T   T
  0.6667340873372396  0.8329600708637983  0.5024928760014973   T   T   T
  0.9162863678195450  0.0833394376569956  0.4978587485692145   T   T   T
  0.9152126466160553  0.3347832118565606  0.4985094836623603   T   T   T
  0.9142835098500228  0.5836637076652025  0.5015076969845396   T   T   T
  0.9144170935574181  0.8313278116804881  0.5011284349003446   T   T   T
  0.7032994818058285  0.5466175151545087  0.7604198447060639   T   T   T
  0.5507068831965043  0.4777182535944604  0.7623301980713748   T   T   T
  0.4766944785901543  0.5521808365025720  0.7626932563507651   T   T   T
  0.5453522307399439  0.7047062658595493  0.7610120930908053   T   T   T
  0.6978092279157195  0.7733086000980833  0.7626940452791970   T   T   T
  0.7723377035469170  0.6993357852984232  0.7623248925648767   T   T   T
  0.4689123744022723  0.2928522501988837  0.8061069966881647   T   T   T
  0.2913406151864066  0.4693873391131262  0.8057670516780391   T   T   T
  0.7806637172736970  0.9586621432341431  0.8057971231531198   T   T   T
  0.9571788842582620  0.7810692235031667  0.8060653927526928   T   T   T
 
  0.00000000E+00  0.00000000E+00  0.00000000E+00
  0.00000000E+00  0.00000000E+00  0.00000000E+00
  0.00000000E+00  0.00000000E+00  0.00000000E+00
  0.00000000E+00  0.00000000E+00  0.00000000E+00
  0.00000000E+00  0.00000000E+00  0.00000000E+00
  0.00000000E+00  0.00000000E+00  0.00000000E+00
  0.00000000E+00  0.00000000E+00  0.00000000E+00
  0.00000000E+00  0.00000000E+00  0.00000000E+00
  0.00000000E+00  0.00000000E+00  0.00000000E+00
  0.00000000E+00  0.00000000E+00  0.00000000E+00
  0.00000000E+00  0.00000000E+00  0.00000000E+00
  0.00000000E+00  0.00000000E+00  0.00000000E+00
  0.00000000E+00  0.00000000E+00  0.00000000E+00
  0.00000000E+00  0.00000000E+00  0.00000000E+00
  0.00000000E+00  0.00000000E+00  0.00000000E+00
  0.00000000E+00  0.00000000E+00  0.00000000E+00
  0.00000000E+00  0.00000000E+00  0.00000000E+00
  0.00000000E+00  0.00000000E+00  0.00000000E+00
  0.00000000E+00  0.00000000E+00  0.00000000E+00
  0.00000000E+00  0.00000000E+00  0.00000000E+00
  0.00000000E+00  0.00000000E+00  0.00000000E+00
  0.00000000E+00  0.00000000E+00  0.00000000E+00
  0.00000000E+00  0.00000000E+00  0.00000000E+00
  0.00000000E+00  0.00000000E+00  0.00000000E+00
  0.00000000E+00  0.00000000E+00  0.00000000E+00
  0.00000000E+00  0.00000000E+00  0.00000000E+00
  0.00000000E+00  0.00000000E+00  0.00000000E+00
  0.00000000E+00  0.00000000E+00  0.00000000E+00
  0.00000000E+00  0.00000000E+00  0.00000000E+00
  0.00000000E+00  0.00000000E+00  0.00000000E+00
  0.00000000E+00  0.00000000E+00  0.00000000E+00
  0.00000000E+00  0.00000000E+00  0.00000000E+00
  0.00000000E+00  0.00000000E+00  0.00000000E+00
  0.00000000E+00  0.00000000E+00  0.00000000E+00
  0.00000000E+00  0.00000000E+00  0.00000000E+00
  0.00000000E+00  0.00000000E+00  0.00000000E+00
  0.00000000E+00  0.00000000E+00  0.00000000E+00
  0.00000000E+00  0.00000000E+00  0.00000000E+00
  0.00000000E+00  0.00000000E+00  0.00000000E+00
  0.00000000E+00  0.00000000E+00  0.00000000E+00
  0.00000000E+00  0.00000000E+00  0.00000000E+00
  0.00000000E+00  0.00000000E+00  0.00000000E+00
  0.00000000E+00  0.00000000E+00  0.00000000E+00
  0.00000000E+00  0.00000000E+00  0.00000000E+00
  0.00000000E+00  0.00000000E+00  0.00000000E+00
  0.00000000E+00  0.00000000E+00  0.00000000E+00
  0.00000000E+00  0.00000000E+00  0.00000000E+00
  0.00000000E+00  0.00000000E+00  0.00000000E+00
  0.00000000E+00  0.00000000E+00  0.00000000E+00
  0.00000000E+00  0.00000000E+00  0.00000000E+00
  0.00000000E+00  0.00000000E+00  0.00000000E+00
  0.00000000E+00  0.00000000E+00  0.00000000E+00
  0.00000000E+00  0.00000000E+00  0.00000000E+00
  0.00000000E+00  0.00000000E+00  0.00000000E+00
  0.00000000E+00  0.00000000E+00  0.00000000E+00
  0.00000000E+00  0.00000000E+00  0.00000000E+00
  0.00000000E+00  0.00000000E+00  0.00000000E+00
  0.00000000E+00  0.00000000E+00  0.00000000E+00
  0.00000000E+00  0.00000000E+00  0.00000000E+00
  0.00000000E+00  0.00000000E+00  0.00000000E+00
