Cu  C  N Br                             
   1.00000000000000     
    10.2424769999999992    0.0000000000000000    0.0000000000000000
    -5.1212390000000001    8.8702459999999999    0.0000000000000000
     0.0000000000000000    0.0000000000000000   24.2722108799999958
   Cu   C    N    Br
    64     4     2     4
Selective dynamics
Direct
  0.7500000436217675  0.9999999661790682  0.3089953377992387   F   F   F
  0.0000000023248248  0.2499999909810811  0.3089953377992387   F   F   F
  0.0000000042370090  0.4999999830895305  0.3089953377992387   F   F   F
  0.0000000055855054  0.7499999740706187  0.3089953377992387   F   F   F
  0.0000000084740179  0.9999999661790682  0.3089953377992387   F   F   F
  0.2500000140407437  0.2499999909810811  0.3089953377992387   F   F   F
  0.2500000159529208  0.4999999830895305  0.3089953377992387   F   F   F
  0.2500000173014243  0.7499999740706187  0.3089953377992387   F   F   F
  0.5000000257566555  0.2499999909810811  0.3089953377992387   F   F   F
  0.5000000276688397  0.4999999830895305  0.3089953377992387   F   F   F
  0.5000000290173432  0.7499999740706187  0.3089953377992387   F   F   F
  0.5000000319058486  0.9999999661790682  0.3089953377992387   F   F   F
  0.7500000374725744  0.2499999909810811  0.3089953377992387   F   F   F
  0.7500000393847586  0.4999999830895305  0.3089953377992387   F   F   F
  0.7500000417095833  0.7499999740706187  0.3089953377992387   F   F   F
  0.2500000201899297  0.9999999661790682  0.3089953377992387   F   F   F
  0.0833330000000032  0.1666669999999968  0.3951324008931820   F   F   F
  0.0833330000000032  0.4166669999999968  0.3951324008931820   F   F   F
  0.0833330000000032  0.6666669999999968  0.3951324008931820   F   F   F
  0.0833330000000032  0.9166669999999968  0.3951324008931820   F   F   F
  0.3333330000000032  0.1666669999999968  0.3951324008931820   F   F   F
  0.3333330000000032  0.4166669999999968  0.3951324008931820   F   F   F
  0.3333330000000032  0.6666669999999968  0.3951324008931820   F   F   F
  0.3333330000000032  0.9166669999999968  0.3951324008931820   F   F   F
  0.5833330000000032  0.1666669999999968  0.3951324008931820   F   F   F
  0.5833330000000032  0.4166669999999968  0.3951324008931820   F   F   F
  0.5833330000000032  0.6666669999999968  0.3951324008931820   F   F   F
  0.5833330000000032  0.9166669999999968  0.3951324008931820   F   F   F
  0.8333330000000032  0.1666669999999968  0.3951324008931820   F   F   F
  0.8333330000000032  0.4166669999999968  0.3951324008931820   F   F   F
  0.8333330000000032  0.6666669999999968  0.3951324008931820   F   F   F
  0.8333330000000032  0.9166669999999968  0.3951324008931820   F   F   F
  0.9970130157463388  0.9981237828135564  0.5636308957343806   T   T   T
  0.9951060462176797  0.2490915252972278  0.5645968763072184   T   T   T
  0.0000201280681104  0.5004895059194886  0.5640780861576312   T   T   T
  0.0003304566978367  0.7499849745205054  0.5638476510193156   T   T   T
  0.2475744885842032  0.9966878128850856  0.5644604648691233   T   T   T
  0.2438414092998402  0.2454661430725638  0.5627792319004363   T   T   T
  0.2493454285732335  0.5009024272778161  0.5675591610297085   T   T   T
  0.2499025910113969  0.7502455645278477  0.5640665412636331   T   T   T
  0.4997218816683439  0.0017574967469757  0.5642940337008222   T   T   T
  0.4991047970737426  0.2507997785544624  0.5676095370527340   T   T   T
  0.5047118150238763  0.5062522321963686  0.5628076034156601   T   T   T
  0.5012614874358110  0.7549895851086711  0.5645944158686365   T   T   T
  0.7488132703311638  0.0014599038037200  0.5640819169763350   T   T   T
  0.7483616980283081  0.2506255216846544  0.5643573749064794   T   T   T
  0.7534644673049595  0.5027005567178413  0.5644952573959812   T   T   T
  0.7520937916053329  0.7531087767021503  0.5636547628303340   T   T   T
  0.1665108229731442  0.0830312995676784  0.4795935143684469   T   T   T
  0.1663712745433192  0.3344425867307216  0.4804349001626346   T   T   T
  0.1674574870210861  0.5825946610766178  0.4803795632996998   T   T   T
  0.1671608275868913  0.8334013921716357  0.4794899486587557   T   T   T
  0.4166005633733524  0.0853126585000428  0.4806422293514315   T   T   T
  0.4165563146421535  0.3336808020229212  0.4805393401742754   T   T   T
  0.4157089841020300  0.5838136531668305  0.4804207936955016   T   T   T
  0.4168111954977277  0.8341902848569801  0.4797889069951266   T   T   T
  0.6662325712415127  0.0840406572434425  0.4797082661749680   T   T   T
  0.6648992341517214  0.3336582890560714  0.4806760231694385   T   T   T
  0.6671680712002163  0.5837531401793105  0.4795801601440280   T   T   T
  0.6663181121911587  0.8335542026915008  0.4797256371699725   T   T   T
  0.9167506858485276  0.0839698344369765  0.4797092884184695   T   T   T
  0.9158876006438257  0.3333005328825632  0.4798205882505637   T   T   T
  0.9167617151500120  0.5830261566326453  0.4794662514581660   T   T   T
  0.9169920631918216  0.8331736133110810  0.4793166852684403   T   T   T
  0.5265949384226425  0.4446153384023936  0.6602294794863154   T   T   T
  0.4491032347346529  0.5229347785887413  0.6589475397913956   T   T   T
  0.2253346663191715  0.2996002115849243  0.6589351698979361   T   T   T
  0.3034528469472307  0.2218549092071282  0.6600861013507369   T   T   T
  0.2976550618826442  0.4510175208223065  0.6462433387913438   T   T   T
  0.4552387915805838  0.2929977571050074  0.6484431042855998   T   T   T
  0.2137400549906116  0.0135689671235981  0.6816494564429938   T   T   T
  0.0162272563518871  0.2111999744566069  0.6797266980490630   T   T   T
  0.7352797134331450  0.5344410270313262  0.6814616094392248   T   T   T
  0.5373632166284382  0.7320604708837946  0.6798897892700961   T   T   T
 
  0.00000000E+00  0.00000000E+00  0.00000000E+00
  0.00000000E+00  0.00000000E+00  0.00000000E+00
  0.00000000E+00  0.00000000E+00  0.00000000E+00
  0.00000000E+00  0.00000000E+00  0.00000000E+00
  0.00000000E+00  0.00000000E+00  0.00000000E+00
  0.00000000E+00  0.00000000E+00  0.00000000E+00
  0.00000000E+00  0.00000000E+00  0.00000000E+00
  0.00000000E+00  0.00000000E+00  0.00000000E+00
  0.00000000E+00  0.00000000E+00  0.00000000E+00
  0.00000000E+00  0.00000000E+00  0.00000000E+00
  0.00000000E+00  0.00000000E+00  0.00000000E+00
  0.00000000E+00  0.00000000E+00  0.00000000E+00
  0.00000000E+00  0.00000000E+00  0.00000000E+00
  0.00000000E+00  0.00000000E+00  0.00000000E+00
  0.00000000E+00  0.00000000E+00  0.00000000E+00
  0.00000000E+00  0.00000000E+00  0.00000000E+00
  0.00000000E+00  0.00000000E+00  0.00000000E+00
  0.00000000E+00  0.00000000E+00  0.00000000E+00
  0.00000000E+00  0.00000000E+00  0.00000000E+00
  0.00000000E+00  0.00000000E+00  0.00000000E+00
  0.00000000E+00  0.00000000E+00  0.00000000E+00
  0.00000000E+00  0.00000000E+00  0.00000000E+00
  0.00000000E+00  0.00000000E+00  0.00000000E+00
  0.00000000E+00  0.00000000E+00  0.00000000E+00
  0.00000000E+00  0.00000000E+00  0.00000000E+00
  0.00000000E+00  0.00000000E+00  0.00000000E+00
  0.00000000E+00  0.00000000E+00  0.00000000E+00
  0.00000000E+00  0.00000000E+00  0.00000000E+00
  0.00000000E+00  0.00000000E+00  0.00000000E+00
  0.00000000E+00  0.00000000E+00  0.00000000E+00
  0.00000000E+00  0.00000000E+00  0.00000000E+00
  0.00000000E+00  0.00000000E+00  0.00000000E+00
  0.00000000E+00  0.00000000E+00  0.00000000E+00
  0.00000000E+00  0.00000000E+00  0.00000000E+00
  0.00000000E+00  0.00000000E+00  0.00000000E+00
  0.00000000E+00  0.00000000E+00  0.00000000E+00
  0.00000000E+00  0.00000000E+00  0.00000000E+00
  0.00000000E+00  0.00000000E+00  0.00000000E+00
  0.00000000E+00  0.00000000E+00  0.00000000E+00
  0.00000000E+00  0.00000000E+00  0.00000000E+00
  0.00000000E+00  0.00000000E+00  0.00000000E+00
  0.00000000E+00  0.00000000E+00  0.00000000E+00
  0.00000000E+00  0.00000000E+00  0.00000000E+00
  0.00000000E+00  0.00000000E+00  0.00000000E+00
  0.00000000E+00  0.00000000E+00  0.00000000E+00
  0.00000000E+00  0.00000000E+00  0.00000000E+00
  0.00000000E+00  0.00000000E+00  0.00000000E+00
  0.00000000E+00  0.00000000E+00  0.00000000E+00
  0.00000000E+00  0.00000000E+00  0.00000000E+00
  0.00000000E+00  0.00000000E+00  0.00000000E+00
  0.00000000E+00  0.00000000E+00  0.00000000E+00
  0.00000000E+00  0.00000000E+00  0.00000000E+00
  0.00000000E+00  0.00000000E+00  0.00000000E+00
  0.00000000E+00  0.00000000E+00  0.00000000E+00
  0.00000000E+00  0.00000000E+00  0.00000000E+00
  0.00000000E+00  0.00000000E+00  0.00000000E+00
  0.00000000E+00  0.00000000E+00  0.00000000E+00
  0.00000000E+00  0.00000000E+00  0.00000000E+00
  0.00000000E+00  0.00000000E+00  0.00000000E+00
  0.00000000E+00  0.00000000E+00  0.00000000E+00
  0.00000000E+00  0.00000000E+00  0.00000000E+00
  0.00000000E+00  0.00000000E+00  0.00000000E+00
  0.00000000E+00  0.00000000E+00  0.00000000E+00
  0.00000000E+00  0.00000000E+00  0.00000000E+00
  0.00000000E+00  0.00000000E+00  0.00000000E+00
  0.00000000E+00  0.00000000E+00  0.00000000E+00
  0.00000000E+00  0.00000000E+00  0.00000000E+00
  0.00000000E+00  0.00000000E+00  0.00000000E+00
  0.00000000E+00  0.00000000E+00  0.00000000E+00
  0.00000000E+00  0.00000000E+00  0.00000000E+00
  0.00000000E+00  0.00000000E+00  0.00000000E+00
  0.00000000E+00  0.00000000E+00  0.00000000E+00
  0.00000000E+00  0.00000000E+00  0.00000000E+00
  0.00000000E+00  0.00000000E+00  0.00000000E+00
