Cu  C  N Br                             
    1.000000000000000     
    10.2424774999999997    0.0000000000000000    0.0000000000000000
     0.0000000000000000   10.2424774999999997    0.0000000000000000
     0.0000000000000000    0.0000000000000000   23.4318939600000000
   Cu   C    N    Br
    64     4     2     4
Selective dynamics
Direct
  0.2499999995118358  0.0000000000000000  0.3200765594451340   F   F   F
  0.0000000000000000  0.4999999990236716  0.3200765594451340   F   F   F
  0.2499999995118358  0.2499999995118358  0.3200765594451340   F   F   F
  0.2499999995118358  0.4999999990236716  0.3200765594451340   F   F   F
  0.2499999995118358  0.7499999985355075  0.3200765594451340   F   F   F
  0.4999999990236716  0.0000000000000000  0.3200765594451340   F   F   F
  0.4999999990236716  0.2499999995118358  0.3200765594451340   F   F   F
  0.0000000000000000  0.7499999985355075  0.3200765594451340   F   F   F
  0.4999999990236716  0.4999999990236716  0.3200765594451340   F   F   F
  0.4999999990236716  0.7499999985355075  0.3200765594451340   F   F   F
  0.7499999985355075  0.0000000000000000  0.3200765594451340   F   F   F
  0.7499999985355075  0.2499999995118358  0.3200765594451340   F   F   F
  0.7499999985355075  0.4999999990236716  0.3200765594451340   F   F   F
  0.7499999985355075  0.7499999985355075  0.3200765594451340   F   F   F
  0.0000000000000000  0.0000000000000000  0.3200765594451340   F   F   F
  0.0000000000000000  0.2499999995118358  0.3200765594451340   F   F   F
  0.2501457061759002  0.9998361423417368  0.4741284121452145   T   T   T
  0.2499533345294579  0.2499525199142697  0.4741353676296323   T   T   T
  0.2495573076373892  0.4998322902546626  0.4739267603495233   T   T   T
  0.2499556673955545  0.7500467993690079  0.4740720351065434   T   T   T
  0.4999992811529843 -0.0000000534455331  0.4742422993543425   T   T   T
  0.4998327100177610  0.2495604295680255  0.4739262519327292   T   T   T
  0.4999987293627248  0.4999999236791590  0.4737912045047972   T   T   T
  0.5001651236052990  0.7504414336321129  0.4739252697358108   T   T   T
  0.7498534752340121  0.0001602072958217  0.4741263210063767   T   T   T
  0.7500462444603239  0.2499545094614859  0.4740716037177075   T   T   T
  0.7504428163025656  0.5001660863498434  0.4739245778920333   T   T   T
  0.7500478373982851  0.7500517105958104  0.4741320878845722   T   T   T
  0.0000012223473305  0.0000007400332401  0.4739804168815910   T   T   T
  0.9998426969449111  0.2501473838904383  0.4741263416496798   T   T   T
  0.0000030922320017  0.4999993655050201  0.4742396738401241   T   T   T
  0.0001620124776322  0.7498557140975998  0.4741245526266325   T   T   T
  0.1249694692787227  0.1249711854493100  0.5495395394302187   T   T   T
  0.1248709865795145  0.3746327131371103  0.5496473193453740   T   T   T
  0.1252183819935198  0.6251743729294390  0.5497568653258229   T   T   T
  0.1247679419656741  0.8752327632640955  0.5494488311610988   T   T   T
  0.3746330433224537  0.1248721181542739  0.5496461753616945   T   T   T
  0.3747803889589171  0.3747817601737235  0.5492519457883539   T   T   T
  0.3755884248442478  0.6244106228157118  0.5485267436847741   T   T   T
  0.3748257788385495  0.8747828948419206  0.5497555925315614   T   T   T
  0.6251768822690889  0.1252177795798460  0.5497555732562743   T   T   T
  0.6244094929115265  0.3755836131381992  0.5485180012588158   T   T   T
  0.6252197254526469  0.6252199800141295  0.5492503156726305   T   T   T
  0.6253681455576160  0.8751292945968154  0.5496468453677973   T   T   T
  0.8752345262100510  0.1247696888986232  0.5494487373717981   T   T   T
  0.8747881192912640  0.3748208810183359  0.5497511743825805   T   T   T
  0.8751297135609400  0.6253683871941135  0.5496528059361496   T   T   T
  0.8750313613769147  0.8750339891490196  0.5495416882477866   T   T   T
  0.1250000002440785  0.1249999992677573  0.3973486452223582   F   F   F
  0.1250000002440785  0.3749999997559215  0.3973486452223582   F   F   F
  0.1250000002440785  0.6249999982914289  0.3973486452223582   F   F   F
  0.1250000002440785  0.8749999987795931  0.3973486452223582   F   F   F
  0.3749999997559215  0.1249999992677573  0.3973486452223582   F   F   F
  0.3749999997559215  0.3749999997559215  0.3973486452223582   F   F   F
  0.3749999997559215  0.6249999982914289  0.3973486452223582   F   F   F
  0.3749999997559215  0.8749999987795931  0.3973486452223582   F   F   F
  0.6249999982914289  0.1249999992677573  0.3973486452223582   F   F   F
  0.6249999982914289  0.3749999997559215  0.3973486452223582   F   F   F
  0.6249999992677573  0.6249999982914289  0.3973486452223582   F   F   F
  0.6249999992677573  0.8749999987795931  0.3973486452223582   F   F   F
  0.8749999987795931  0.1249999992677573  0.3973486452223582   F   F   F
  0.8749999978032648  0.3749999997559215  0.3973486452223582   F   F   F
  0.8749999987795931  0.6249999982914289  0.3973486452223582   F   F   F
  0.8749999987795931  0.8749999987795931  0.3973486452223582   F   F   F
  0.5303339294198763  0.3722402237069906  0.6760952348994613   T   T   T
  0.6277324442447622  0.4697302158935325  0.6761101119768065   T   T   T
  0.4696756854563592  0.6277703737737736  0.6760934925008691   T   T   T
  0.3722794887672296  0.5302791721813906  0.6761011511707133   T   T   T
  0.5949342108766924  0.5949189356785897  0.6765187222274845   T   T   T
  0.4050775236404993  0.4050888798424260  0.6765167541451655   T   T   T
  0.1911581520542733  0.5699701043868884  0.6767675229205192   T   T   T
  0.4300021613729323  0.8088578086944829  0.6767619647950223   T   T   T
  0.5699935626882565  0.1911462417154381  0.6767604414513183   T   T   T
  0.8088250163704007  0.4299935688112606  0.6767676924895625   T   T   T
 
  0.00000000E+00  0.00000000E+00  0.00000000E+00
  0.00000000E+00  0.00000000E+00  0.00000000E+00
  0.00000000E+00  0.00000000E+00  0.00000000E+00
  0.00000000E+00  0.00000000E+00  0.00000000E+00
  0.00000000E+00  0.00000000E+00  0.00000000E+00
  0.00000000E+00  0.00000000E+00  0.00000000E+00
  0.00000000E+00  0.00000000E+00  0.00000000E+00
  0.00000000E+00  0.00000000E+00  0.00000000E+00
  0.00000000E+00  0.00000000E+00  0.00000000E+00
  0.00000000E+00  0.00000000E+00  0.00000000E+00
  0.00000000E+00  0.00000000E+00  0.00000000E+00
  0.00000000E+00  0.00000000E+00  0.00000000E+00
  0.00000000E+00  0.00000000E+00  0.00000000E+00
  0.00000000E+00  0.00000000E+00  0.00000000E+00
  0.00000000E+00  0.00000000E+00  0.00000000E+00
  0.00000000E+00  0.00000000E+00  0.00000000E+00
  0.00000000E+00  0.00000000E+00  0.00000000E+00
  0.00000000E+00  0.00000000E+00  0.00000000E+00
  0.00000000E+00  0.00000000E+00  0.00000000E+00
  0.00000000E+00  0.00000000E+00  0.00000000E+00
  0.00000000E+00  0.00000000E+00  0.00000000E+00
  0.00000000E+00  0.00000000E+00  0.00000000E+00
  0.00000000E+00  0.00000000E+00  0.00000000E+00
  0.00000000E+00  0.00000000E+00  0.00000000E+00
  0.00000000E+00  0.00000000E+00  0.00000000E+00
  0.00000000E+00  0.00000000E+00  0.00000000E+00
  0.00000000E+00  0.00000000E+00  0.00000000E+00
  0.00000000E+00  0.00000000E+00  0.00000000E+00
  0.00000000E+00  0.00000000E+00  0.00000000E+00
  0.00000000E+00  0.00000000E+00  0.00000000E+00
  0.00000000E+00  0.00000000E+00  0.00000000E+00
  0.00000000E+00  0.00000000E+00  0.00000000E+00
  0.00000000E+00  0.00000000E+00  0.00000000E+00
  0.00000000E+00  0.00000000E+00  0.00000000E+00
  0.00000000E+00  0.00000000E+00  0.00000000E+00
  0.00000000E+00  0.00000000E+00  0.00000000E+00
  0.00000000E+00  0.00000000E+00  0.00000000E+00
  0.00000000E+00  0.00000000E+00  0.00000000E+00
  0.00000000E+00  0.00000000E+00  0.00000000E+00
  0.00000000E+00  0.00000000E+00  0.00000000E+00
  0.00000000E+00  0.00000000E+00  0.00000000E+00
  0.00000000E+00  0.00000000E+00  0.00000000E+00
  0.00000000E+00  0.00000000E+00  0.00000000E+00
  0.00000000E+00  0.00000000E+00  0.00000000E+00
  0.00000000E+00  0.00000000E+00  0.00000000E+00
  0.00000000E+00  0.00000000E+00  0.00000000E+00
  0.00000000E+00  0.00000000E+00  0.00000000E+00
  0.00000000E+00  0.00000000E+00  0.00000000E+00
  0.00000000E+00  0.00000000E+00  0.00000000E+00
  0.00000000E+00  0.00000000E+00  0.00000000E+00
  0.00000000E+00  0.00000000E+00  0.00000000E+00
  0.00000000E+00  0.00000000E+00  0.00000000E+00
  0.00000000E+00  0.00000000E+00  0.00000000E+00
  0.00000000E+00  0.00000000E+00  0.00000000E+00
  0.00000000E+00  0.00000000E+00  0.00000000E+00
  0.00000000E+00  0.00000000E+00  0.00000000E+00
  0.00000000E+00  0.00000000E+00  0.00000000E+00
  0.00000000E+00  0.00000000E+00  0.00000000E+00
  0.00000000E+00  0.00000000E+00  0.00000000E+00
  0.00000000E+00  0.00000000E+00  0.00000000E+00
  0.00000000E+00  0.00000000E+00  0.00000000E+00
  0.00000000E+00  0.00000000E+00  0.00000000E+00
  0.00000000E+00  0.00000000E+00  0.00000000E+00
  0.00000000E+00  0.00000000E+00  0.00000000E+00
  0.00000000E+00  0.00000000E+00  0.00000000E+00
  0.00000000E+00  0.00000000E+00  0.00000000E+00
  0.00000000E+00  0.00000000E+00  0.00000000E+00
  0.00000000E+00  0.00000000E+00  0.00000000E+00
  0.00000000E+00  0.00000000E+00  0.00000000E+00
  0.00000000E+00  0.00000000E+00  0.00000000E+00
  0.00000000E+00  0.00000000E+00  0.00000000E+00
  0.00000000E+00  0.00000000E+00  0.00000000E+00
  0.00000000E+00  0.00000000E+00  0.00000000E+00
  0.00000000E+00  0.00000000E+00  0.00000000E+00
