Cu  C  H  F                             
    1.000000000000000     
    10.2424774999999997    0.0000000000000000    0.0000000000000000
     0.0000000000000000   14.4850505999999992    0.0000000000000000
     0.0000000000000000    0.0000000000000000   21.8409290399999989
   Cu   C    H    F 
    64     6     2     4
Selective dynamics
Direct
  0.2499999995118358  0.2499999993096296  0.3433919860398049   F   F   F
  0.0000000000000000  0.7499999965481621  0.3433919860398049   F   F   F
  0.2499999995118358  0.4999999986192663  0.3433919860398049   F   F   F
  0.2499999995118358  0.7499999979288958  0.3433919860398049   F   F   F
  0.2499999995118358  0.0000000000000000  0.3433919860398049   F   F   F
  0.4999999990236716  0.2499999993096296  0.3433919860398049   F   F   F
  0.4999999990236716  0.4999999986192663  0.3433919860398049   F   F   F
  0.0000000000000000  0.0000000000000000  0.3433919860398049   F   F   F
  0.4999999990236716  0.7499999979288958  0.3433919860398049   F   F   F
  0.4999999990236716  0.0000000000000000  0.3433919860398049   F   F   F
  0.7499999985355075  0.2499999993096296  0.3433919860398049   F   F   F
  0.7499999985355075  0.4999999986192663  0.3433919860398049   F   F   F
  0.7499999985355075  0.7499999979288958  0.3433919860398049   F   F   F
  0.7499999985355075  0.0000000000000000  0.3433919860398049   F   F   F
  0.9999999980473504  0.2499999993096296  0.3433919860398049   F   F   F
  0.0000000000000000  0.4999999986192663  0.3433919860398049   F   F   F
  0.2501819799287501  0.2503231132819675  0.4620354962394795   T   T   T
  0.2499950764666073  0.4999626211401305  0.4617529647332877   T   T   T
  0.2499319731592275  0.7499408072513811  0.4617759245017083   T   T   T
  0.2500251787435128  0.9999894637068266  0.4618323919921745   T   T   T
  0.4998235173120889  0.2501360740692753  0.4617991689205613   T   T   T
  0.4999991019230562  0.4999959811165836  0.4613616118105914   T   T   T
  0.5001754524641979  0.7498537025171682  0.4618030011843749   T   T   T
  0.4999977934983407  0.0000086202286284  0.4618207031696462   T   T   T
  0.7500634282120350  0.2500597701064628  0.4617715479261674   T   T   T
  0.7500033980329753  0.5000304590896537  0.4617527083125741   T   T   T
  0.7498167575058527  0.7496648325863946  0.4620415198025136   T   T   T
  0.7499723048318711  0.0000251231451197  0.4618300243458637   T   T   T
  0.0000554570740725  0.2501818319280318  0.4618411107816717   T   T   T
  0.0000015600686961  0.4999965539068231  0.4617655581036861   T   T   T
  0.9999446159437443  0.7498167510758157  0.4618464730942834   T   T   T
  0.0000019666819439  0.0000046886763512  0.4618238967163252   T   T   T
  0.1250739992963695  0.1251823133578044  0.5166088832217343   T   T   T
  0.1251313089791359  0.3752063908185588  0.5166948273991993   T   T   T
  0.1249363324316755  0.6247826506819345  0.5166910111000885   T   T   T
  0.1250019235299795  0.8748890167541616  0.5165972530075418   T   T   T
  0.3750046996209394  0.1251153964803220  0.5166224271406837   T   T   T
  0.3751929571283272  0.3756225999089433  0.5170361514134659   T   T   T
  0.3750032924034153  0.6248816398022753  0.5162017860590341   T   T   T
  0.3750747537247881  0.8748142877302739  0.5165846764334410   T   T   T
  0.6249236245320514  0.1251922053070464  0.5165825367314758   T   T   T
  0.6249998764374549  0.3751109128796088  0.5162058676999202   T   T   T
  0.6248084608409199  0.6243639828920534  0.5170347821432014   T   T   T
  0.6249929485245430  0.8748903549872640  0.5166239141467791   T   T   T
  0.8749982685949976  0.1251257605849037  0.5165906052906867   T   T   T
  0.8750604549727500  0.3752157111320134  0.5166908274466033   T   T   T
  0.8748639142913369  0.6247796230261979  0.5166953423513695   T   T   T
  0.8749223972728956  0.8748234379014307  0.5166170673762308   T   T   T
  0.1250000002440785  0.1249999996548183  0.4020117305412967   F   F   F
  0.1250000002440785  0.3749999989644479  0.4020117305412967   F   F   F
  0.1250000002440785  0.6249999982740846  0.4020117305412967   F   F   F
  0.1250000002440785  0.8749999975837142  0.4020117305412967   F   F   F
  0.3749999997559215  0.1249999996548183  0.4020117305412967   F   F   F
  0.3749999997559215  0.3749999989644479  0.4020117305412967   F   F   F
  0.3749999997559215  0.6249999982740846  0.4020117305412967   F   F   F
  0.3749999997559215  0.8749999975837142  0.4020117305412967   F   F   F
  0.6249999982914289  0.1249999996548183  0.4020117305412967   F   F   F
  0.6249999992677573  0.3749999989644479  0.4020117305412967   F   F   F
  0.6249999992677573  0.6249999982740846  0.4020117305412967   F   F   F
  0.6249999992677573  0.8749999975837142  0.4020117305412967   F   F   F
  0.8749999987795931  0.1249999996548183  0.4020117305412967   F   F   F
  0.8749999978032648  0.3749999989644479  0.4020117305412967   F   F   F
  0.8749999987795931  0.6249999982740846  0.4020117305412967   F   F   F
  0.8749999987795931  0.8749999975837142  0.4020117305412967   F   F   F
  0.5793289472165184  0.5794774082111758  0.6503484920287294   T   T   T
  0.6350829916430745  0.4918125793997237  0.6508828830529504   T   T   T
  0.5564575154829214  0.4131248947322144  0.6509947607979518   T   T   T
  0.4207124549511155  0.4205608506051390  0.6503584290133991   T   T   T
  0.3649526036199716  0.5082238584035761  0.6508651856716294   T   T   T
  0.4435841286069118  0.5869030960658224  0.6509604193803448   T   T   T
  0.6405242033249463  0.6409654893056363  0.6520534573157337   T   T   T
  0.3595095049354469  0.3590727313439381  0.6520754272246080   T   T   T
  0.7664347454503462  0.4826222560292282  0.6519173995093905   T   T   T
  0.6130080624049773  0.3286618162060278  0.6531073325388734   T   T   T
  0.2336017606609265  0.5174210604007765  0.6518578501076100   T   T   T
  0.3870264510309143  0.6713730096665721  0.6530306574985407   T   T   T
 
  0.00000000E+00  0.00000000E+00  0.00000000E+00
  0.00000000E+00  0.00000000E+00  0.00000000E+00
  0.00000000E+00  0.00000000E+00  0.00000000E+00
  0.00000000E+00  0.00000000E+00  0.00000000E+00
  0.00000000E+00  0.00000000E+00  0.00000000E+00
  0.00000000E+00  0.00000000E+00  0.00000000E+00
  0.00000000E+00  0.00000000E+00  0.00000000E+00
  0.00000000E+00  0.00000000E+00  0.00000000E+00
  0.00000000E+00  0.00000000E+00  0.00000000E+00
  0.00000000E+00  0.00000000E+00  0.00000000E+00
  0.00000000E+00  0.00000000E+00  0.00000000E+00
  0.00000000E+00  0.00000000E+00  0.00000000E+00
  0.00000000E+00  0.00000000E+00  0.00000000E+00
  0.00000000E+00  0.00000000E+00  0.00000000E+00
  0.00000000E+00  0.00000000E+00  0.00000000E+00
  0.00000000E+00  0.00000000E+00  0.00000000E+00
  0.00000000E+00  0.00000000E+00  0.00000000E+00
  0.00000000E+00  0.00000000E+00  0.00000000E+00
  0.00000000E+00  0.00000000E+00  0.00000000E+00
  0.00000000E+00  0.00000000E+00  0.00000000E+00
  0.00000000E+00  0.00000000E+00  0.00000000E+00
  0.00000000E+00  0.00000000E+00  0.00000000E+00
  0.00000000E+00  0.00000000E+00  0.00000000E+00
  0.00000000E+00  0.00000000E+00  0.00000000E+00
  0.00000000E+00  0.00000000E+00  0.00000000E+00
  0.00000000E+00  0.00000000E+00  0.00000000E+00
  0.00000000E+00  0.00000000E+00  0.00000000E+00
  0.00000000E+00  0.00000000E+00  0.00000000E+00
  0.00000000E+00  0.00000000E+00  0.00000000E+00
  0.00000000E+00  0.00000000E+00  0.00000000E+00
  0.00000000E+00  0.00000000E+00  0.00000000E+00
  0.00000000E+00  0.00000000E+00  0.00000000E+00
  0.00000000E+00  0.00000000E+00  0.00000000E+00
  0.00000000E+00  0.00000000E+00  0.00000000E+00
  0.00000000E+00  0.00000000E+00  0.00000000E+00
  0.00000000E+00  0.00000000E+00  0.00000000E+00
  0.00000000E+00  0.00000000E+00  0.00000000E+00
  0.00000000E+00  0.00000000E+00  0.00000000E+00
  0.00000000E+00  0.00000000E+00  0.00000000E+00
  0.00000000E+00  0.00000000E+00  0.00000000E+00
  0.00000000E+00  0.00000000E+00  0.00000000E+00
  0.00000000E+00  0.00000000E+00  0.00000000E+00
  0.00000000E+00  0.00000000E+00  0.00000000E+00
  0.00000000E+00  0.00000000E+00  0.00000000E+00
  0.00000000E+00  0.00000000E+00  0.00000000E+00
  0.00000000E+00  0.00000000E+00  0.00000000E+00
  0.00000000E+00  0.00000000E+00  0.00000000E+00
  0.00000000E+00  0.00000000E+00  0.00000000E+00
  0.00000000E+00  0.00000000E+00  0.00000000E+00
  0.00000000E+00  0.00000000E+00  0.00000000E+00
  0.00000000E+00  0.00000000E+00  0.00000000E+00
  0.00000000E+00  0.00000000E+00  0.00000000E+00
  0.00000000E+00  0.00000000E+00  0.00000000E+00
  0.00000000E+00  0.00000000E+00  0.00000000E+00
  0.00000000E+00  0.00000000E+00  0.00000000E+00
  0.00000000E+00  0.00000000E+00  0.00000000E+00
  0.00000000E+00  0.00000000E+00  0.00000000E+00
  0.00000000E+00  0.00000000E+00  0.00000000E+00
  0.00000000E+00  0.00000000E+00  0.00000000E+00
  0.00000000E+00  0.00000000E+00  0.00000000E+00
  0.00000000E+00  0.00000000E+00  0.00000000E+00
  0.00000000E+00  0.00000000E+00  0.00000000E+00
  0.00000000E+00  0.00000000E+00  0.00000000E+00
  0.00000000E+00  0.00000000E+00  0.00000000E+00
  0.00000000E+00  0.00000000E+00  0.00000000E+00
  0.00000000E+00  0.00000000E+00  0.00000000E+00
  0.00000000E+00  0.00000000E+00  0.00000000E+00
  0.00000000E+00  0.00000000E+00  0.00000000E+00
  0.00000000E+00  0.00000000E+00  0.00000000E+00
  0.00000000E+00  0.00000000E+00  0.00000000E+00
  0.00000000E+00  0.00000000E+00  0.00000000E+00
  0.00000000E+00  0.00000000E+00  0.00000000E+00
  0.00000000E+00  0.00000000E+00  0.00000000E+00
  0.00000000E+00  0.00000000E+00  0.00000000E+00
  0.00000000E+00  0.00000000E+00  0.00000000E+00
  0.00000000E+00  0.00000000E+00  0.00000000E+00
