Ag  C Br                                
   1.00000000000000     
    11.7702999115000004    0.0000000000000000    0.0000000000000000
     0.0000000000000000   11.7702999115000004    0.0000000000000000
     0.0000000000000000    0.0000000000000000   24.2420997619999987
   Ag   C    Br
    64     6     6
Selective dynamics
Direct
  0.0000000000000000  0.2500000000106226  0.3093799948697722   F   F   F
  0.7500000000318607  0.7500000000318607  0.3093799948697722   F   F   F
  0.0000000000000000  0.5000000000212381  0.3093799948697722   F   F   F
  0.0000000000000000  0.7500000000318607  0.3093799948697722   F   F   F
  0.0000000000000000  0.0000000000000000  0.3093799948697722   F   F   F
  0.2500000000106226  0.2500000000106226  0.3093799948697722   F   F   F
  0.2500000000106226  0.5000000000212381  0.3093799948697722   F   F   F
  0.7500000000318607  0.0000000000000000  0.3093799948697722   F   F   F
  0.2500000000106226  0.7500000000318607  0.3093799948697722   F   F   F
  0.2500000000106226  0.0000000000000000  0.3093799948697722   F   F   F
  0.5000000000212381  0.2500000000106226  0.3093799948697722   F   F   F
  0.5000000000212381  0.5000000000212381  0.3093799948697722   F   F   F
  0.5000000000212381  0.7500000000318607  0.3093799948697722   F   F   F
  0.5000000000212381  0.0000000000000000  0.3093799948697722   F   F   F
  0.7500000000318607  0.2500000000106226  0.3093799948697722   F   F   F
  0.7500000000318607  0.5000000000212381  0.3093799948697722   F   F   F
 -0.0000578149324735  0.2498982349329324  0.4742805860870423   T   T   T
  0.0000312578106799  0.4999237586883812  0.4742598454741813   T   T   T
  0.0000579474154085  0.7501926474788687  0.4742030373370871   T   T   T
 -0.0000123272097616  0.0000955091588589  0.4741303006605088   T   T   T
  0.2496103865211321  0.2496895454227931  0.4740647085322435   T   T   T
  0.2488602390733478  0.5000563447139705  0.4738054351691303   T   T   T
  0.2495299822558313  0.7505651925433513  0.4740791304096652   T   T   T
  0.2496916663207749  0.0000794949654237  0.4742508516712671   T   T   T
  0.4999805277926380  0.2489186060628745  0.4738263091326577   T   T   T
  0.4999504918791259  0.5001642911728649  0.4733263592205798   T   T   T
  0.4999517616972329  0.7511393311738039  0.4738344504728522   T   T   T
  0.4999171016010656  0.0001276877711210  0.4742016727206665   T   T   T
  0.7504332111648631  0.2495884712442025  0.4741430203195777   T   T   T
  0.7511553809496635  0.4999758766372027  0.4738666740886168   T   T   T
  0.7502760963749446  0.7503365481314883  0.4740477204809777   T   T   T
  0.7501407096792825  0.0002063877605054  0.4742179840054823   T   T   T
  0.1247789252847511  0.1250701967197204  0.5526948594991180   T   T   T
  0.1247596632153918  0.3749312001238947  0.5525719768765125   T   T   T
  0.1246316906897881  0.6251849854365586  0.5526423040449172   T   T   T
  0.1246965093452424  0.8752934059455422  0.5527190844328295   T   T   T
  0.3745962878396267  0.1247192764908240  0.5524781767290096   T   T   T
  0.3753578855384461  0.3754717743098338  0.5509299682631064   T   T   T
  0.3754145822635593  0.6246353895473790  0.5506698555152566   T   T   T
  0.3748284655474117  0.8754902207343337  0.5526350103093969   T   T   T
  0.6250335125120057  0.1246696066040859  0.5527214327791293   T   T   T
  0.6243017279534152  0.3756564028495233  0.5506271052300922   T   T   T
  0.6247142919562709  0.6247578592141063  0.5510109323804334   T   T   T
  0.6251566903685987  0.8755648443788618  0.5524188882437754   T   T   T
  0.8752626394864896  0.1247809944777205  0.5527729419452880   T   T   T
  0.8754296774917814  0.3748590994442378  0.5527789902238129   T   T   T
  0.8754099945229822  0.6252476713883759  0.5524525593353613   T   T   T
  0.8750116946187799  0.8751042848606007  0.5525248243836308   T   T   T
  0.1250000000053078  0.1250000000053078  0.3952099978986965   F   F   F
  0.1250000000053078  0.3750000000159304  0.3952099978986965   F   F   F
  0.1250000000053078  0.6250000000265530  0.3952099978986965   F   F   F
  0.1250000000053078  0.8750000000371685  0.3952099978986965   F   F   F
  0.3750000000159304  0.1250000000053078  0.3952099978986965   F   F   F
  0.3750000000159304  0.3750000000159304  0.3952099978986965   F   F   F
  0.3750000000159304  0.6250000000265530  0.3952099978986965   F   F   F
  0.3750000000159304  0.8750000000371685  0.3952099978986965   F   F   F
  0.6250000000265530  0.1250000000053078  0.3952099978986965   F   F   F
  0.6250000000265530  0.3750000000159304  0.3952099978986965   F   F   F
  0.6250000000265530  0.6250000000265530  0.3952099978986965   F   F   F
  0.6250000000265530  0.8750000000371685  0.3952099978986965   F   F   F
  0.8750000000371685  0.1250000000053078  0.3952099978986965   F   F   F
  0.8750000000371685  0.3750000000159304  0.3952099978986965   F   F   F
  0.8750000000371685  0.6250000000265530  0.3952099978986965   F   F   F
  0.8750000000371685  0.8750000000371685  0.3952099978986965   F   F   F
  0.5343739303832911  0.6113057825353272  0.6803377433894123   T   T   T
  0.6221796313471041  0.5304417415960768  0.6803553507872728   T   T   T
  0.5960456353325108  0.4139952519312530  0.6798465358901464   T   T   T
  0.4821397578675013  0.3783111295494607  0.6800518453966989   T   T   T
  0.3941972351306753  0.4591170561716494  0.6805216646203988   T   T   T
  0.4204540943925135  0.5755477717483708  0.6803910413274598   T   T   T
  0.5694462830987223  0.7689379898999904  0.6790076228293408   T   T   T
  0.7762432886328686  0.5782770207234389  0.6801531282859407   T   T   T
  0.7151380449076109  0.3043701801024369  0.6773585563405107   T   T   T
  0.4474366258755584  0.2206096396817893  0.6779777364650702   T   T   T
  0.2400531102607232  0.4106954915710594  0.6801560944081578   T   T   T
  0.3019925258443502  0.6853103646076261  0.6786195079786521   T   T   T
 
  0.00000000E+00  0.00000000E+00  0.00000000E+00
  0.00000000E+00  0.00000000E+00  0.00000000E+00
  0.00000000E+00  0.00000000E+00  0.00000000E+00
  0.00000000E+00  0.00000000E+00  0.00000000E+00
  0.00000000E+00  0.00000000E+00  0.00000000E+00
  0.00000000E+00  0.00000000E+00  0.00000000E+00
  0.00000000E+00  0.00000000E+00  0.00000000E+00
  0.00000000E+00  0.00000000E+00  0.00000000E+00
  0.00000000E+00  0.00000000E+00  0.00000000E+00
  0.00000000E+00  0.00000000E+00  0.00000000E+00
  0.00000000E+00  0.00000000E+00  0.00000000E+00
  0.00000000E+00  0.00000000E+00  0.00000000E+00
  0.00000000E+00  0.00000000E+00  0.00000000E+00
  0.00000000E+00  0.00000000E+00  0.00000000E+00
  0.00000000E+00  0.00000000E+00  0.00000000E+00
  0.00000000E+00  0.00000000E+00  0.00000000E+00
  0.00000000E+00  0.00000000E+00  0.00000000E+00
  0.00000000E+00  0.00000000E+00  0.00000000E+00
  0.00000000E+00  0.00000000E+00  0.00000000E+00
  0.00000000E+00  0.00000000E+00  0.00000000E+00
  0.00000000E+00  0.00000000E+00  0.00000000E+00
  0.00000000E+00  0.00000000E+00  0.00000000E+00
  0.00000000E+00  0.00000000E+00  0.00000000E+00
  0.00000000E+00  0.00000000E+00  0.00000000E+00
  0.00000000E+00  0.00000000E+00  0.00000000E+00
  0.00000000E+00  0.00000000E+00  0.00000000E+00
  0.00000000E+00  0.00000000E+00  0.00000000E+00
  0.00000000E+00  0.00000000E+00  0.00000000E+00
  0.00000000E+00  0.00000000E+00  0.00000000E+00
  0.00000000E+00  0.00000000E+00  0.00000000E+00
  0.00000000E+00  0.00000000E+00  0.00000000E+00
  0.00000000E+00  0.00000000E+00  0.00000000E+00
  0.00000000E+00  0.00000000E+00  0.00000000E+00
  0.00000000E+00  0.00000000E+00  0.00000000E+00
  0.00000000E+00  0.00000000E+00  0.00000000E+00
  0.00000000E+00  0.00000000E+00  0.00000000E+00
  0.00000000E+00  0.00000000E+00  0.00000000E+00
  0.00000000E+00  0.00000000E+00  0.00000000E+00
  0.00000000E+00  0.00000000E+00  0.00000000E+00
  0.00000000E+00  0.00000000E+00  0.00000000E+00
  0.00000000E+00  0.00000000E+00  0.00000000E+00
  0.00000000E+00  0.00000000E+00  0.00000000E+00
  0.00000000E+00  0.00000000E+00  0.00000000E+00
  0.00000000E+00  0.00000000E+00  0.00000000E+00
  0.00000000E+00  0.00000000E+00  0.00000000E+00
  0.00000000E+00  0.00000000E+00  0.00000000E+00
  0.00000000E+00  0.00000000E+00  0.00000000E+00
  0.00000000E+00  0.00000000E+00  0.00000000E+00
  0.00000000E+00  0.00000000E+00  0.00000000E+00
  0.00000000E+00  0.00000000E+00  0.00000000E+00
  0.00000000E+00  0.00000000E+00  0.00000000E+00
  0.00000000E+00  0.00000000E+00  0.00000000E+00
  0.00000000E+00  0.00000000E+00  0.00000000E+00
  0.00000000E+00  0.00000000E+00  0.00000000E+00
  0.00000000E+00  0.00000000E+00  0.00000000E+00
  0.00000000E+00  0.00000000E+00  0.00000000E+00
  0.00000000E+00  0.00000000E+00  0.00000000E+00
  0.00000000E+00  0.00000000E+00  0.00000000E+00
  0.00000000E+00  0.00000000E+00  0.00000000E+00
  0.00000000E+00  0.00000000E+00  0.00000000E+00
  0.00000000E+00  0.00000000E+00  0.00000000E+00
  0.00000000E+00  0.00000000E+00  0.00000000E+00
  0.00000000E+00  0.00000000E+00  0.00000000E+00
  0.00000000E+00  0.00000000E+00  0.00000000E+00
  0.00000000E+00  0.00000000E+00  0.00000000E+00
  0.00000000E+00  0.00000000E+00  0.00000000E+00
  0.00000000E+00  0.00000000E+00  0.00000000E+00
  0.00000000E+00  0.00000000E+00  0.00000000E+00
  0.00000000E+00  0.00000000E+00  0.00000000E+00
  0.00000000E+00  0.00000000E+00  0.00000000E+00
  0.00000000E+00  0.00000000E+00  0.00000000E+00
  0.00000000E+00  0.00000000E+00  0.00000000E+00
  0.00000000E+00  0.00000000E+00  0.00000000E+00
  0.00000000E+00  0.00000000E+00  0.00000000E+00
  0.00000000E+00  0.00000000E+00  0.00000000E+00
  0.00000000E+00  0.00000000E+00  0.00000000E+00
