Pt48 C6 Br6                             
    1.000000000000000     
    11.2480069999999994    0.0000000000000000    0.0000000000000000
    -5.6240030000000001    9.7410599999999992    0.0000000000000000
     0.0000000000000000    0.0000000000000000   16.5933840000000004
   Pt   C    Br
    48     6     6
Selective dynamics
Direct
  0.0833330000000032  0.1666669999999968  0.3615899999999996   F   F   F
  0.0833330000000032  0.4166669999999968  0.3615899999999996   F   F   F
  0.0833330000000032  0.6666669999999968  0.3615899999999996   F   F   F
  0.0833330000000032  0.9166669999999968  0.3615899999999996   F   F   F
  0.3333330000000032  0.1666669999999968  0.3615899999999996   F   F   F
  0.3333330000000032  0.4166669999999968  0.3615899999999996   F   F   F
  0.3333330000000032  0.6666669999999968  0.3615899999999996   F   F   F
  0.3333330000000032  0.9166669999999968  0.3615899999999996   F   F   F
  0.5833330000000032  0.1666669999999968  0.3615899999999996   F   F   F
  0.5833330000000032  0.4166669999999968  0.3615899999999996   F   F   F
  0.5833330000000032  0.6666669999999968  0.3615899999999996   F   F   F
  0.5833330000000032  0.9166669999999968  0.3615899999999996   F   F   F
  0.8333330000000032  0.1666669999999968  0.3615899999999996   F   F   F
  0.8333330000000032  0.4166669999999968  0.3615899999999996   F   F   F
  0.8333330000000032  0.6666669999999968  0.3615899999999996   F   F   F
  0.8333330000000032  0.9166669999999968  0.3615899999999996   F   F   F
  0.2426195565357219  0.2469419001778874  0.6361005770912556   T   T   T
  0.2395955489305379  0.5004031099994108  0.6425079081266034   T   T   T
  0.2493348679371294  0.7530968186866787  0.6438895182753583   T   T   T
  0.2489044069910378  0.0011025509592955  0.6405775379737548   T   T   T
  0.4941090183366015  0.2420099468029377  0.6416055921289683   T   T   T
  0.4931866456252507  0.4977014456720639  0.6434053833002977   T   T   T
  0.4954471632749886  0.7545665097471996  0.6502862240713796   T   T   T
  0.4969076878911451  0.0006768321898534  0.6438841820332115   T   T   T
  0.7483325907865321  0.2534542885278128  0.6431659596530608   T   T   T
  0.7495914459003217  0.5004001464904704  0.6488508446431140   T   T   T
  0.7523026174892422  0.7568145423844257  0.6433998691105813   T   T   T
  0.7496040234074073  0.0103975791387967  0.6425071074713102   T   T   T
  0.9964962807719147  0.2535073530795913  0.6403188738238796   T   T   T
  0.9965532180285379  0.5016664764420113  0.6431781899875162   T   T   T
  0.0080013428918662  0.7558993608138351  0.6416130407224045   T   T   T
  0.0030646655148345  0.0073772004763839  0.6360954590941788   T   T   T
  0.1673109990565607  0.0826848516572056  0.4979327401500555   T   T   T
  0.1654657179319727  0.3339819913883773  0.4994078123466608   T   T   T
  0.1661025491778432  0.5836968261629707  0.5024757459886473   T   T   T
  0.1672573942705640  0.8325756292059694  0.5003067169198445   T   T   T
  0.4174297789695416  0.0827405644001473  0.5003056780763515   T   T   T
  0.4174183436958643  0.3352977209312655  0.5016707263395972   T   T   T
  0.4166616738856561  0.5843569686887378  0.5039246526091574   T   T   T
  0.4177146818103452  0.8322921585310823  0.5051994050254436   T   T   T
  0.6662901051213339  0.0839042110808492  0.5024740606417240   T   T   T
  0.6661322965645695  0.3351779638616463  0.5038991642447641   T   T   T
  0.6663818245394779  0.5836253307017287  0.5031120138457794   T   T   T
  0.6656422169995295  0.8333301549218959  0.5039325647600563   T   T   T
  0.9160257779916918  0.0845412631121931  0.4994076467576960   T   T   T
  0.9147877341356008  0.3352143376443664  0.5007544520959399   T   T   T
  0.9148159604548383  0.5838653113383501  0.5039009708994229   T   T   T
  0.9147098292434706  0.8325816084227711  0.5016777819076665   T   T   T
  0.6978093566979950  0.7735114871408015  0.7624505704492606   T   T   T
  0.7720148189737088  0.6993389709898992  0.7621230792789788   T   T   T
  0.7049680885699061  0.5449626971598747  0.7637695727490836   T   T   T
  0.5506662972496272  0.4779537862938170  0.7621244424703519   T   T   T
  0.4765253958724571  0.5522223629052476  0.7624489115517790   T   T   T
  0.5434296402598804  0.7066396429155759  0.7642911296497203   T   T   T
  0.7920342992513056  0.9699307921784239  0.7928104466290407   T   T   T
  0.9684228972294946  0.7927376050477690  0.7918872826271084   T   T   T
  0.7701964354823971  0.4797578988714832  0.8554881701656285   T   T   T
  0.4572391944704393  0.2816188448380998  0.7918796499213130   T   T   T
  0.2800564609878080  0.4580054644145406  0.7928108706310653   T   T   T
  0.4795141166429957  0.7705350062393492  0.8572527341108227   T   T   T
 
  0.00000000E+00  0.00000000E+00  0.00000000E+00
  0.00000000E+00  0.00000000E+00  0.00000000E+00
  0.00000000E+00  0.00000000E+00  0.00000000E+00
  0.00000000E+00  0.00000000E+00  0.00000000E+00
  0.00000000E+00  0.00000000E+00  0.00000000E+00
  0.00000000E+00  0.00000000E+00  0.00000000E+00
  0.00000000E+00  0.00000000E+00  0.00000000E+00
  0.00000000E+00  0.00000000E+00  0.00000000E+00
  0.00000000E+00  0.00000000E+00  0.00000000E+00
  0.00000000E+00  0.00000000E+00  0.00000000E+00
  0.00000000E+00  0.00000000E+00  0.00000000E+00
  0.00000000E+00  0.00000000E+00  0.00000000E+00
  0.00000000E+00  0.00000000E+00  0.00000000E+00
  0.00000000E+00  0.00000000E+00  0.00000000E+00
  0.00000000E+00  0.00000000E+00  0.00000000E+00
  0.00000000E+00  0.00000000E+00  0.00000000E+00
  0.00000000E+00  0.00000000E+00  0.00000000E+00
  0.00000000E+00  0.00000000E+00  0.00000000E+00
  0.00000000E+00  0.00000000E+00  0.00000000E+00
  0.00000000E+00  0.00000000E+00  0.00000000E+00
  0.00000000E+00  0.00000000E+00  0.00000000E+00
  0.00000000E+00  0.00000000E+00  0.00000000E+00
  0.00000000E+00  0.00000000E+00  0.00000000E+00
  0.00000000E+00  0.00000000E+00  0.00000000E+00
  0.00000000E+00  0.00000000E+00  0.00000000E+00
  0.00000000E+00  0.00000000E+00  0.00000000E+00
  0.00000000E+00  0.00000000E+00  0.00000000E+00
  0.00000000E+00  0.00000000E+00  0.00000000E+00
  0.00000000E+00  0.00000000E+00  0.00000000E+00
  0.00000000E+00  0.00000000E+00  0.00000000E+00
  0.00000000E+00  0.00000000E+00  0.00000000E+00
  0.00000000E+00  0.00000000E+00  0.00000000E+00
  0.00000000E+00  0.00000000E+00  0.00000000E+00
  0.00000000E+00  0.00000000E+00  0.00000000E+00
  0.00000000E+00  0.00000000E+00  0.00000000E+00
  0.00000000E+00  0.00000000E+00  0.00000000E+00
  0.00000000E+00  0.00000000E+00  0.00000000E+00
  0.00000000E+00  0.00000000E+00  0.00000000E+00
  0.00000000E+00  0.00000000E+00  0.00000000E+00
  0.00000000E+00  0.00000000E+00  0.00000000E+00
  0.00000000E+00  0.00000000E+00  0.00000000E+00
  0.00000000E+00  0.00000000E+00  0.00000000E+00
  0.00000000E+00  0.00000000E+00  0.00000000E+00
  0.00000000E+00  0.00000000E+00  0.00000000E+00
  0.00000000E+00  0.00000000E+00  0.00000000E+00
  0.00000000E+00  0.00000000E+00  0.00000000E+00
  0.00000000E+00  0.00000000E+00  0.00000000E+00
  0.00000000E+00  0.00000000E+00  0.00000000E+00
  0.00000000E+00  0.00000000E+00  0.00000000E+00
  0.00000000E+00  0.00000000E+00  0.00000000E+00
  0.00000000E+00  0.00000000E+00  0.00000000E+00
  0.00000000E+00  0.00000000E+00  0.00000000E+00
  0.00000000E+00  0.00000000E+00  0.00000000E+00
  0.00000000E+00  0.00000000E+00  0.00000000E+00
  0.00000000E+00  0.00000000E+00  0.00000000E+00
  0.00000000E+00  0.00000000E+00  0.00000000E+00
  0.00000000E+00  0.00000000E+00  0.00000000E+00
  0.00000000E+00  0.00000000E+00  0.00000000E+00
  0.00000000E+00  0.00000000E+00  0.00000000E+00
  0.00000000E+00  0.00000000E+00  0.00000000E+00
