Pt48 C4 N2 F4                           
    1.000000000000000     
    11.2480068000000006    0.0000000000000000    0.0000000000000000
     0.0000000000000000   11.2480068000000006    0.0000000000000000
     0.0000000000000000    0.0000000000000000   16.9136689300000000
   Pt   C    N    F 
    48     4     2     4
Selective dynamics
Direct
  0.2490701115323901  0.9977472952485869  0.4100746108006490   T   T   T
  0.2499476965326153  0.2499496638063263  0.4108250317459721   T   T   T
  0.2537227857249462  0.4996963534463887  0.4129747574853297   T   T   T
  0.2541595133757113  0.7458403634610846  0.4134524983685566   T   T   T
  0.5000040702473427  0.0000001594500816  0.4096904143709423   T   T   T
  0.4996978569063373  0.2537227514206464  0.4129730173673281   T   T   T
  0.5000003440206555  0.4999971327068167  0.4164428093704657   T   T   T
  0.5003067737031870  0.7462751031730406  0.4129735745364442   T   T   T
  0.7509303104077745  0.0022503975592798  0.4100800915566296   T   T   T
  0.7458446625770634  0.2541560737107176  0.4134523261254870   T   T   T
  0.7462796078375646  0.5003009026544731  0.4129735634617191   T   T   T
  0.7500544695952627  0.7500520643182753  0.4108285729791845   T   T   T
  0.9999956970929631  0.9999994262889444  0.4104555669086523   T   T   T
  0.9977443043603813  0.2490727738740333  0.4100769699811266   T   T   T
  0.9999990097661140  0.4999999153516370  0.4096912134287578   T   T   T
  0.0022525213799724  0.7509317514062985  0.4100789805976461   T   T   T
  0.1229987171832434  0.1230065298464638  0.5260928623622689   T   T   T
  0.1191500479973584  0.3731663537912269  0.5252965474142783   T   T   T
  0.1252291629751738  0.6231731990896279  0.5262916736931516   T   T   T
  0.1258573998716770  0.8741451494074255  0.5265551953791672   T   T   T
  0.3731653971924231  0.1191505118133165  0.5253020648224123   T   T   T
  0.3608884234218550  0.3608889620167446  0.5323103827862923   T   T   T
  0.3751576744606666  0.6248486857486029  0.5397956566178266   T   T   T
  0.3768285035447363  0.8747711855071287  0.5262859435784719   T   T   T
  0.6231784641727458  0.1252293091760208  0.5262855580785697   T   T   T
  0.6248499226913964  0.3751505920396170  0.5397984254328065   T   T   T
  0.6391167152252990  0.6391069503707101  0.5323124777982855   T   T   T
  0.6268388765811252  0.8808495854299991  0.5252952565762001   T   T   T
  0.8741422980028162  0.1258604559712779  0.5265487485976834   T   T   T
  0.8747720440304860  0.3768264642477348  0.5262863406711134   T   T   T
  0.8808512174525944  0.6268344398544912  0.5253017223824514   T   T   T
  0.8769944459587080  0.8769954078131761  0.5260912709777159   T   T   T
  0.1250000008890453  0.1250000000000000  0.2956188879357455   F   F   F
  0.1250000008890453  0.3750000008890453  0.2956188879357455   F   F   F
  0.1250000008890453  0.6250000026671358  0.2956188879357455   F   F   F
  0.1250000008890453  0.8750000026671358  0.2956188879357455   F   F   F
  0.3750000017780906  0.1250000000000000  0.2956188879357455   F   F   F
  0.3750000017780906  0.3750000008890453  0.2956188879357455   F   F   F
  0.3750000017780906  0.6250000026671358  0.2956188879357455   F   F   F
  0.3750000017780906  0.8750000026671358  0.2956188879357455   F   F   F
  0.6250000026671358  0.1250000000000000  0.2956188879357455   F   F   F
  0.6250000026671358  0.3750000008890453  0.2956188879357455   F   F   F
  0.6250000026671358  0.6250000026671358  0.2956188879357455   F   F   F
  0.6250000026671358  0.8750000026671358  0.2956188879357455   F   F   F
  0.8750000035561882  0.1250000000000000  0.2956188879357455   F   F   F
  0.8750000026671358  0.3750000008890453  0.2956188879357455   F   F   F
  0.8750000035561882  0.6250000026671358  0.2956188879357455   F   F   F
  0.8750000035561882  0.8750000026671358  0.2956188879357455   F   F   F
  0.4708793217685923  0.6203158983466821  0.6512724081711596   T   T   T
  0.3796746244409732  0.5291357914601846  0.6512687954196537   T   T   T
  0.5291083304353918  0.3796787707401208  0.6512700934173097   T   T   T
  0.6203108183609558  0.4708645367234681  0.6512710838079911   T   T   T
  0.4099920493859628  0.4099894671723874  0.6449842005118924   T   T   T
  0.5900190597878279  0.5899863967102448  0.6449886907066471   T   T   T
  0.7215593172338686  0.4517469749493799  0.6936375246677287   T   T   T
  0.5482069362972624  0.2784200768754914  0.6936191237201967   T   T   T
  0.4517850001917836  0.7215630972314955  0.6936194959560709   T   T   T
  0.2784325858819798  0.5482398186805071  0.6936129106180715   T   T   T
 
  0.00000000E+00  0.00000000E+00  0.00000000E+00
  0.00000000E+00  0.00000000E+00  0.00000000E+00
  0.00000000E+00  0.00000000E+00  0.00000000E+00
  0.00000000E+00  0.00000000E+00  0.00000000E+00
  0.00000000E+00  0.00000000E+00  0.00000000E+00
  0.00000000E+00  0.00000000E+00  0.00000000E+00
  0.00000000E+00  0.00000000E+00  0.00000000E+00
  0.00000000E+00  0.00000000E+00  0.00000000E+00
  0.00000000E+00  0.00000000E+00  0.00000000E+00
  0.00000000E+00  0.00000000E+00  0.00000000E+00
  0.00000000E+00  0.00000000E+00  0.00000000E+00
  0.00000000E+00  0.00000000E+00  0.00000000E+00
  0.00000000E+00  0.00000000E+00  0.00000000E+00
  0.00000000E+00  0.00000000E+00  0.00000000E+00
  0.00000000E+00  0.00000000E+00  0.00000000E+00
  0.00000000E+00  0.00000000E+00  0.00000000E+00
  0.00000000E+00  0.00000000E+00  0.00000000E+00
  0.00000000E+00  0.00000000E+00  0.00000000E+00
  0.00000000E+00  0.00000000E+00  0.00000000E+00
  0.00000000E+00  0.00000000E+00  0.00000000E+00
  0.00000000E+00  0.00000000E+00  0.00000000E+00
  0.00000000E+00  0.00000000E+00  0.00000000E+00
  0.00000000E+00  0.00000000E+00  0.00000000E+00
  0.00000000E+00  0.00000000E+00  0.00000000E+00
  0.00000000E+00  0.00000000E+00  0.00000000E+00
  0.00000000E+00  0.00000000E+00  0.00000000E+00
  0.00000000E+00  0.00000000E+00  0.00000000E+00
  0.00000000E+00  0.00000000E+00  0.00000000E+00
  0.00000000E+00  0.00000000E+00  0.00000000E+00
  0.00000000E+00  0.00000000E+00  0.00000000E+00
  0.00000000E+00  0.00000000E+00  0.00000000E+00
  0.00000000E+00  0.00000000E+00  0.00000000E+00
  0.00000000E+00  0.00000000E+00  0.00000000E+00
  0.00000000E+00  0.00000000E+00  0.00000000E+00
  0.00000000E+00  0.00000000E+00  0.00000000E+00
  0.00000000E+00  0.00000000E+00  0.00000000E+00
  0.00000000E+00  0.00000000E+00  0.00000000E+00
  0.00000000E+00  0.00000000E+00  0.00000000E+00
  0.00000000E+00  0.00000000E+00  0.00000000E+00
  0.00000000E+00  0.00000000E+00  0.00000000E+00
  0.00000000E+00  0.00000000E+00  0.00000000E+00
  0.00000000E+00  0.00000000E+00  0.00000000E+00
  0.00000000E+00  0.00000000E+00  0.00000000E+00
  0.00000000E+00  0.00000000E+00  0.00000000E+00
  0.00000000E+00  0.00000000E+00  0.00000000E+00
  0.00000000E+00  0.00000000E+00  0.00000000E+00
  0.00000000E+00  0.00000000E+00  0.00000000E+00
  0.00000000E+00  0.00000000E+00  0.00000000E+00
  0.00000000E+00  0.00000000E+00  0.00000000E+00
  0.00000000E+00  0.00000000E+00  0.00000000E+00
  0.00000000E+00  0.00000000E+00  0.00000000E+00
  0.00000000E+00  0.00000000E+00  0.00000000E+00
  0.00000000E+00  0.00000000E+00  0.00000000E+00
  0.00000000E+00  0.00000000E+00  0.00000000E+00
  0.00000000E+00  0.00000000E+00  0.00000000E+00
  0.00000000E+00  0.00000000E+00  0.00000000E+00
  0.00000000E+00  0.00000000E+00  0.00000000E+00
  0.00000000E+00  0.00000000E+00  0.00000000E+00
