Ir  C Br                                
    1.000000000000000     
    10.9622135000000007    0.0000000000000000    0.0000000000000000
     0.0000000000000000   10.9622135000000007    0.0000000000000000
     0.0000000000000000    0.0000000000000000   23.8135916099999996
   Ir   C    Br
    64     6     6
Selective dynamics
Direct
  0.0000000000000000  0.2499999995438884  0.3149461921926360   F   F   F
  0.7499999986316652  0.7499999986316652  0.3149461921926360   F   F   F
  0.0000000000000000  0.4999999990877768  0.3149461921926360   F   F   F
  0.0000000000000000  0.7499999986316652  0.3149461921926360   F   F   F
  0.0000000000000000  0.0000000000000000  0.3149461921926360   F   F   F
  0.2499999995438884  0.2499999995438884  0.3149461921926360   F   F   F
  0.2499999995438884  0.4999999990877768  0.3149461921926360   F   F   F
  0.7499999986316652  0.0000000000000000  0.3149461921926360   F   F   F
  0.2499999995438884  0.7499999986316652  0.3149461921926360   F   F   F
  0.2499999995438884  0.0000000000000000  0.3149461921926360   F   F   F
  0.4999999990877768  0.2499999995438884  0.3149461921926360   F   F   F
  0.4999999990877768  0.4999999990877768  0.3149461921926360   F   F   F
  0.4999999990877768  0.7499999986316652  0.3149461921926360   F   F   F
  0.4999999990877768  0.0000000000000000  0.3149461921926360   F   F   F
  0.7499999986316652  0.2499999995438884  0.3149461921926360   F   F   F
  0.7499999986316652  0.4999999990877768  0.3149461921926360   F   F   F
  0.9984464809908652  0.2520170447487700  0.4779249521569507   T   T   T
  0.0005320068136002  0.5005730718976676  0.4795154333684419   T   T   T
  0.0022269756128335  0.7484484129447438  0.4777319196377339   T   T   T
  0.0004818795094237  0.0002602744372334  0.4776458909283477   T   T   T
  0.2498101331374336  0.2488944001863057  0.4779138647027116   T   T   T
  0.2500689883053780  0.4988045426264022  0.4789536302268452   T   T   T
  0.2519604154866935  0.7468606608166981  0.4791387837463268   T   T   T
  0.2483416350271593 -0.0000597775560182  0.4777880006792478   T   T   T
  0.4995395505895601  0.2464046137867396  0.4783598953555915   T   T   T
  0.5003514135211334  0.4993744956534783  0.4784117247787808   T   T   T
  0.4998322732073446  0.7510433988001405  0.4789768559529214   T   T   T
  0.4997132134432916  0.9992447808591925  0.4773757688661814   T   T   T
  0.7482389058946763  0.2517427549179135  0.4787013340335431   T   T   T
  0.7509035535999431  0.5010199670075187  0.4785483892710620   T   T   T
  0.7508547297310438  0.7510445257170103  0.4777940189652255   T   T   T
  0.7518161107758090 -0.0001645705317857  0.4774413951041624   T   T   T
  0.1217972527879907  0.1209388637773100  0.5577768339148208   T   T   T
  0.1245050944188957  0.3757375718878495  0.5578615488893797   T   T   T
  0.1265828063481613  0.6244725615597077  0.5598811465185251   T   T   T
  0.1247755061629027  0.8744317581952875  0.5553262530218765   T   T   T
  0.3747323459737890  0.1246960979829524  0.5573493499183991   T   T   T
  0.3736830167504576  0.3687163323977299  0.5578738189012459   T   T   T
  0.3763070048087901  0.6275664899386491  0.5659723436155284   T   T   T
  0.3744766963788968  0.8713969888857659  0.5571986742541442   T   T   T
  0.6257919252084728  0.1249480894348311  0.5571495740628373   T   T   T
  0.6271390115153554  0.3685720168163384  0.5623239385188866   T   T   T
  0.6304739843112843  0.6287545251297367  0.5568952599220814   T   T   T
  0.6253718497142174  0.8736032956948657  0.5569373935061190   T   T   T
  0.8753336668588180  0.1255305874086835  0.5553685115966417   T   T   T
  0.8753326079418630  0.3742533695043688  0.5594241377405244   T   T   T
  0.8767281460898083  0.6252451502794041  0.5575363431484757   T   T   T
  0.8778464328599268  0.8810542279812762  0.5572082147407814   T   T   T
  0.1250000002280558  0.1250000002280558  0.3963225717718615   F   F   F
  0.1250000002280558  0.3749999997719442  0.3963225717718615   F   F   F
  0.1250000002280558  0.6249999993158326  0.3963225717718615   F   F   F
  0.1250000002280558  0.8749999988597210  0.3963225717718615   F   F   F
  0.3749999997719442  0.1250000002280558  0.3963225717718615   F   F   F
  0.3749999997719442  0.3749999997719442  0.3963225717718615   F   F   F
  0.3749999997719442  0.6249999993158326  0.3963225717718615   F   F   F
  0.3749999997719442  0.8749999988597210  0.3963225717718615   F   F   F
  0.6249999993158326  0.1250000002280558  0.3963225717718615   F   F   F
  0.6249999993158326  0.3749999997719442  0.3963225717718615   F   F   F
  0.6249999993158326  0.6249999993158326  0.3963225717718615   F   F   F
  0.6249999993158326  0.8749999988597210  0.3963225717718615   F   F   F
  0.8749999988597210  0.1250000002280558  0.3963225717718615   F   F   F
  0.8749999988597210  0.3749999997719442  0.3963225717718615   F   F   F
  0.8749999988597210  0.6249999993158326  0.3963225717718615   F   F   F
  0.8749999988597210  0.8749999988597210  0.3963225717718615   F   F   F
  0.4003592249459879  0.5117808617295860  0.6352849292056761   T   T   T
  0.4858672602798242  0.6040814354018244  0.6360932652121629   T   T   T
  0.6099049062773214  0.5803726485421670  0.6362589021319470   T   T   T
  0.6469635063004424  0.4534341745581607  0.6450008731235578   T   T   T
  0.5578491000304422  0.3603961856891084  0.6425430265936110   T   T   T
  0.4345117090852446  0.3876832212626671  0.6355696321278803   T   T   T
  0.1476213847695539  0.6114800479987976  0.6618859026897564   T   T   T
  0.3411333155079477  0.9929872685948089  0.6443907695419911   T   T   T
  0.8757888888901997  0.7599798290552204  0.6449522183098813   T   T   T
  0.8225162184394162  0.4117659089657074  0.6629643067041177   T   T   T
  0.6483235786757837  0.0011328002061526  0.6451755609369956   T   T   T
  0.1185801980790923  0.2484363963703548  0.6462416832657706   T   T   T
 
  0.00000000E+00  0.00000000E+00  0.00000000E+00
  0.00000000E+00  0.00000000E+00  0.00000000E+00
  0.00000000E+00  0.00000000E+00  0.00000000E+00
  0.00000000E+00  0.00000000E+00  0.00000000E+00
  0.00000000E+00  0.00000000E+00  0.00000000E+00
  0.00000000E+00  0.00000000E+00  0.00000000E+00
  0.00000000E+00  0.00000000E+00  0.00000000E+00
  0.00000000E+00  0.00000000E+00  0.00000000E+00
  0.00000000E+00  0.00000000E+00  0.00000000E+00
  0.00000000E+00  0.00000000E+00  0.00000000E+00
  0.00000000E+00  0.00000000E+00  0.00000000E+00
  0.00000000E+00  0.00000000E+00  0.00000000E+00
  0.00000000E+00  0.00000000E+00  0.00000000E+00
  0.00000000E+00  0.00000000E+00  0.00000000E+00
  0.00000000E+00  0.00000000E+00  0.00000000E+00
  0.00000000E+00  0.00000000E+00  0.00000000E+00
  0.00000000E+00  0.00000000E+00  0.00000000E+00
  0.00000000E+00  0.00000000E+00  0.00000000E+00
  0.00000000E+00  0.00000000E+00  0.00000000E+00
  0.00000000E+00  0.00000000E+00  0.00000000E+00
  0.00000000E+00  0.00000000E+00  0.00000000E+00
  0.00000000E+00  0.00000000E+00  0.00000000E+00
  0.00000000E+00  0.00000000E+00  0.00000000E+00
  0.00000000E+00  0.00000000E+00  0.00000000E+00
  0.00000000E+00  0.00000000E+00  0.00000000E+00
  0.00000000E+00  0.00000000E+00  0.00000000E+00
  0.00000000E+00  0.00000000E+00  0.00000000E+00
  0.00000000E+00  0.00000000E+00  0.00000000E+00
  0.00000000E+00  0.00000000E+00  0.00000000E+00
  0.00000000E+00  0.00000000E+00  0.00000000E+00
  0.00000000E+00  0.00000000E+00  0.00000000E+00
  0.00000000E+00  0.00000000E+00  0.00000000E+00
  0.00000000E+00  0.00000000E+00  0.00000000E+00
  0.00000000E+00  0.00000000E+00  0.00000000E+00
  0.00000000E+00  0.00000000E+00  0.00000000E+00
  0.00000000E+00  0.00000000E+00  0.00000000E+00
  0.00000000E+00  0.00000000E+00  0.00000000E+00
  0.00000000E+00  0.00000000E+00  0.00000000E+00
  0.00000000E+00  0.00000000E+00  0.00000000E+00
  0.00000000E+00  0.00000000E+00  0.00000000E+00
  0.00000000E+00  0.00000000E+00  0.00000000E+00
  0.00000000E+00  0.00000000E+00  0.00000000E+00
  0.00000000E+00  0.00000000E+00  0.00000000E+00
  0.00000000E+00  0.00000000E+00  0.00000000E+00
  0.00000000E+00  0.00000000E+00  0.00000000E+00
  0.00000000E+00  0.00000000E+00  0.00000000E+00
  0.00000000E+00  0.00000000E+00  0.00000000E+00
  0.00000000E+00  0.00000000E+00  0.00000000E+00
  0.00000000E+00  0.00000000E+00  0.00000000E+00
  0.00000000E+00  0.00000000E+00  0.00000000E+00
  0.00000000E+00  0.00000000E+00  0.00000000E+00
  0.00000000E+00  0.00000000E+00  0.00000000E+00
  0.00000000E+00  0.00000000E+00  0.00000000E+00
  0.00000000E+00  0.00000000E+00  0.00000000E+00
  0.00000000E+00  0.00000000E+00  0.00000000E+00
  0.00000000E+00  0.00000000E+00  0.00000000E+00
  0.00000000E+00  0.00000000E+00  0.00000000E+00
  0.00000000E+00  0.00000000E+00  0.00000000E+00
  0.00000000E+00  0.00000000E+00  0.00000000E+00
  0.00000000E+00  0.00000000E+00  0.00000000E+00
  0.00000000E+00  0.00000000E+00  0.00000000E+00
  0.00000000E+00  0.00000000E+00  0.00000000E+00
  0.00000000E+00  0.00000000E+00  0.00000000E+00
  0.00000000E+00  0.00000000E+00  0.00000000E+00
  0.00000000E+00  0.00000000E+00  0.00000000E+00
  0.00000000E+00  0.00000000E+00  0.00000000E+00
  0.00000000E+00  0.00000000E+00  0.00000000E+00
  0.00000000E+00  0.00000000E+00  0.00000000E+00
  0.00000000E+00  0.00000000E+00  0.00000000E+00
  0.00000000E+00  0.00000000E+00  0.00000000E+00
  0.00000000E+00  0.00000000E+00  0.00000000E+00
  0.00000000E+00  0.00000000E+00  0.00000000E+00
  0.00000000E+00  0.00000000E+00  0.00000000E+00
  0.00000000E+00  0.00000000E+00  0.00000000E+00
  0.00000000E+00  0.00000000E+00  0.00000000E+00
  0.00000000E+00  0.00000000E+00  0.00000000E+00
