Cu  C  N  F                             
   1.00000000000000     
    10.2424769999999992    0.0000000000000000    0.0000000000000000
    -5.1212390000000001    8.8702459999999999    0.0000000000000000
     0.0000000000000000    0.0000000000000000   24.2722108799999958
   Cu   C    N    F 
    64     4     2     4
Selective dynamics
Direct
  0.7500000436217675  0.9999999661790682  0.3089953377992387   F   F   F
  0.0000000023248248  0.2499999909810811  0.3089953377992387   F   F   F
  0.0000000042370090  0.4999999830895305  0.3089953377992387   F   F   F
  0.0000000055855054  0.7499999740706187  0.3089953377992387   F   F   F
  0.0000000084740179  0.9999999661790682  0.3089953377992387   F   F   F
  0.2500000140407437  0.2499999909810811  0.3089953377992387   F   F   F
  0.2500000159529208  0.4999999830895305  0.3089953377992387   F   F   F
  0.2500000173014243  0.7499999740706187  0.3089953377992387   F   F   F
  0.5000000257566555  0.2499999909810811  0.3089953377992387   F   F   F
  0.5000000276688397  0.4999999830895305  0.3089953377992387   F   F   F
  0.5000000290173432  0.7499999740706187  0.3089953377992387   F   F   F
  0.5000000319058486  0.9999999661790682  0.3089953377992387   F   F   F
  0.7500000374725744  0.2499999909810811  0.3089953377992387   F   F   F
  0.7500000393847586  0.4999999830895305  0.3089953377992387   F   F   F
  0.7500000417095833  0.7499999740706187  0.3089953377992387   F   F   F
  0.2500000201899297  0.9999999661790682  0.3089953377992387   F   F   F
  0.0833330000000032  0.1666669999999968  0.3951324008931820   F   F   F
  0.0833330000000032  0.4166669999999968  0.3951324008931820   F   F   F
  0.0833330000000032  0.6666669999999968  0.3951324008931820   F   F   F
  0.0833330000000032  0.9166669999999968  0.3951324008931820   F   F   F
  0.3333330000000032  0.1666669999999968  0.3951324008931820   F   F   F
  0.3333330000000032  0.4166669999999968  0.3951324008931820   F   F   F
  0.3333330000000032  0.6666669999999968  0.3951324008931820   F   F   F
  0.3333330000000032  0.9166669999999968  0.3951324008931820   F   F   F
  0.5833330000000032  0.1666669999999968  0.3951324008931820   F   F   F
  0.5833330000000032  0.4166669999999968  0.3951324008931820   F   F   F
  0.5833330000000032  0.6666669999999968  0.3951324008931820   F   F   F
  0.5833330000000032  0.9166669999999968  0.3951324008931820   F   F   F
  0.8333330000000032  0.1666669999999968  0.3951324008931820   F   F   F
  0.8333330000000032  0.4166669999999968  0.3951324008931820   F   F   F
  0.8333330000000032  0.6666669999999968  0.3951324008931820   F   F   F
  0.8333330000000032  0.9166669999999968  0.3951324008931820   F   F   F
  0.9998268027380174  0.9998872019440318  0.5646436606713195   T   T   T
  0.9998705100893781  0.2499526303379410  0.5646487415435910   T   T   T
  0.0000166437523210  0.4999818923521137  0.5647278852185992   T   T   T
  0.0000558490348460  0.7500000947604561  0.5646918747734946   T   T   T
  0.2498428294325069  0.9999325908309252  0.5646800593113844   T   T   T
  0.2498222490559715  0.2499067043515353  0.5637716618708966   T   T   T
  0.2500431787919811  0.5000071417570017  0.5648254459659517   T   T   T
  0.2500760151884785  0.7500448191928092  0.5647432131328401   T   T   T
  0.5000023270843434  0.0002212031324849  0.5647213924344725   T   T   T
  0.4998877441599807  0.2501702116654693  0.5648928127677975   T   T   T
  0.5001617217459946  0.5002336700414962  0.5638042571148163   T   T   T
  0.5001154666339123  0.7502099364240834  0.5646423380449858   T   T   T
  0.7499819740895731  0.0000620697716264  0.5646846055359526   T   T   T
  0.7499211374046822  0.2500598108038746  0.5647523812284906   T   T   T
  0.7501191773402325  0.5001890770198409  0.5646697010872017   T   T   T
  0.7500708886475981  0.7501138545688353  0.5646485278960823   T   T   T
  0.1665160835148917  0.0830000194005688  0.4797692833201813   T   T   T
  0.1665687740890575  0.3335116263291070  0.4798412769649047   T   T   T
  0.1666633576679462  0.5833564065586166  0.4800040199680575   T   T   T
  0.1667061348301436  0.8333098910364706  0.4799231025536373   T   T   T
  0.4167058149638664  0.0833810575761847  0.4800016911868377   T   T   T
  0.4168087197862966  0.3331902140593868  0.4796997552931671   T   T   T
  0.4164923507327881  0.5834872041417305  0.4798126323339597   T   T   T
  0.4166808002497153  0.8334246664070012  0.4799565289076448   T   T   T
  0.6666655691172413  0.0833711591817358  0.4799621301916052   T   T   T
  0.6666562318937087  0.3333502957177519  0.4800166476266199   T   T   T
  0.6670837365462047  0.5835641747526931  0.4797568028703179   T   T   T
  0.6667139335160437  0.8333842721767644  0.4799335513009953   T   T   T
  0.9166828713062943  0.0833430330091388  0.4799236624071657   T   T   T
  0.9166120216394918  0.3333763658429355  0.4799615107798676   T   T   T
  0.9167634160319262  0.5833616512847951  0.4799212426519707   T   T   T
  0.9167882763356251  0.8333183440279860  0.4798985043095540   T   T   T
  0.5243481860446648  0.4452322756907693  0.6904923719684340   T   T   T
  0.4453484704271445  0.5242871669783368  0.6904767416522906   T   T   T
  0.2253116548735711  0.3042956301770742  0.6904660742099413   T   T   T
  0.3043364144846247  0.2252398956681649  0.6904857574684029   T   T   T
  0.2968685473517605  0.4528047647053758  0.6908949241661233   T   T   T
  0.4528492419731344  0.2967592059212549  0.6909840592636172   T   T   T
  0.2305665440873376  0.0740224171403017  0.6916640224918665   T   T   T
  0.0741000104349226  0.2305765565042599  0.6915923192778290   T   T   T
  0.6755944699588186  0.5191466790738986  0.6916594077767358   T   T   T
  0.5192831638812648  0.6755658877465953  0.6916023021502241   T   T   T
 
  0.00000000E+00  0.00000000E+00  0.00000000E+00
  0.00000000E+00  0.00000000E+00  0.00000000E+00
  0.00000000E+00  0.00000000E+00  0.00000000E+00
  0.00000000E+00  0.00000000E+00  0.00000000E+00
  0.00000000E+00  0.00000000E+00  0.00000000E+00
  0.00000000E+00  0.00000000E+00  0.00000000E+00
  0.00000000E+00  0.00000000E+00  0.00000000E+00
  0.00000000E+00  0.00000000E+00  0.00000000E+00
  0.00000000E+00  0.00000000E+00  0.00000000E+00
  0.00000000E+00  0.00000000E+00  0.00000000E+00
  0.00000000E+00  0.00000000E+00  0.00000000E+00
  0.00000000E+00  0.00000000E+00  0.00000000E+00
  0.00000000E+00  0.00000000E+00  0.00000000E+00
  0.00000000E+00  0.00000000E+00  0.00000000E+00
  0.00000000E+00  0.00000000E+00  0.00000000E+00
  0.00000000E+00  0.00000000E+00  0.00000000E+00
  0.00000000E+00  0.00000000E+00  0.00000000E+00
  0.00000000E+00  0.00000000E+00  0.00000000E+00
  0.00000000E+00  0.00000000E+00  0.00000000E+00
  0.00000000E+00  0.00000000E+00  0.00000000E+00
  0.00000000E+00  0.00000000E+00  0.00000000E+00
  0.00000000E+00  0.00000000E+00  0.00000000E+00
  0.00000000E+00  0.00000000E+00  0.00000000E+00
  0.00000000E+00  0.00000000E+00  0.00000000E+00
  0.00000000E+00  0.00000000E+00  0.00000000E+00
  0.00000000E+00  0.00000000E+00  0.00000000E+00
  0.00000000E+00  0.00000000E+00  0.00000000E+00
  0.00000000E+00  0.00000000E+00  0.00000000E+00
  0.00000000E+00  0.00000000E+00  0.00000000E+00
  0.00000000E+00  0.00000000E+00  0.00000000E+00
  0.00000000E+00  0.00000000E+00  0.00000000E+00
  0.00000000E+00  0.00000000E+00  0.00000000E+00
  0.00000000E+00  0.00000000E+00  0.00000000E+00
  0.00000000E+00  0.00000000E+00  0.00000000E+00
  0.00000000E+00  0.00000000E+00  0.00000000E+00
  0.00000000E+00  0.00000000E+00  0.00000000E+00
  0.00000000E+00  0.00000000E+00  0.00000000E+00
  0.00000000E+00  0.00000000E+00  0.00000000E+00
  0.00000000E+00  0.00000000E+00  0.00000000E+00
  0.00000000E+00  0.00000000E+00  0.00000000E+00
  0.00000000E+00  0.00000000E+00  0.00000000E+00
  0.00000000E+00  0.00000000E+00  0.00000000E+00
  0.00000000E+00  0.00000000E+00  0.00000000E+00
  0.00000000E+00  0.00000000E+00  0.00000000E+00
  0.00000000E+00  0.00000000E+00  0.00000000E+00
  0.00000000E+00  0.00000000E+00  0.00000000E+00
  0.00000000E+00  0.00000000E+00  0.00000000E+00
  0.00000000E+00  0.00000000E+00  0.00000000E+00
  0.00000000E+00  0.00000000E+00  0.00000000E+00
  0.00000000E+00  0.00000000E+00  0.00000000E+00
  0.00000000E+00  0.00000000E+00  0.00000000E+00
  0.00000000E+00  0.00000000E+00  0.00000000E+00
  0.00000000E+00  0.00000000E+00  0.00000000E+00
  0.00000000E+00  0.00000000E+00  0.00000000E+00
  0.00000000E+00  0.00000000E+00  0.00000000E+00
  0.00000000E+00  0.00000000E+00  0.00000000E+00
  0.00000000E+00  0.00000000E+00  0.00000000E+00
  0.00000000E+00  0.00000000E+00  0.00000000E+00
  0.00000000E+00  0.00000000E+00  0.00000000E+00
  0.00000000E+00  0.00000000E+00  0.00000000E+00
  0.00000000E+00  0.00000000E+00  0.00000000E+00
  0.00000000E+00  0.00000000E+00  0.00000000E+00
  0.00000000E+00  0.00000000E+00  0.00000000E+00
  0.00000000E+00  0.00000000E+00  0.00000000E+00
  0.00000000E+00  0.00000000E+00  0.00000000E+00
  0.00000000E+00  0.00000000E+00  0.00000000E+00
  0.00000000E+00  0.00000000E+00  0.00000000E+00
  0.00000000E+00  0.00000000E+00  0.00000000E+00
  0.00000000E+00  0.00000000E+00  0.00000000E+00
  0.00000000E+00  0.00000000E+00  0.00000000E+00
  0.00000000E+00  0.00000000E+00  0.00000000E+00
  0.00000000E+00  0.00000000E+00  0.00000000E+00
  0.00000000E+00  0.00000000E+00  0.00000000E+00
  0.00000000E+00  0.00000000E+00  0.00000000E+00
