Ag48 C6 Br2 H4                          
    1.000000000000000     
    11.7702790000000004    0.0000000000000000    0.0000000000000000
     0.0000000000000000   11.7702790000000004    0.0000000000000000
     0.0000000000000000    0.0000000000000000   16.8023062699999990
   Ag   C    Br   H 
    48     6     2     4
Selective dynamics
Direct
  0.0000221657978230  0.2499780454233900  0.4104760373441536   T   T   T
  0.0000007495479082  0.4999993704474193  0.4104127566562994   T   T   T
  0.9999788172927211  0.7500228732484473  0.4104758385338130   T   T   T
  0.0000009003702388  0.9999997622479739  0.4102171315991967   T   T   T
  0.2496283210577843  0.2496288664814301  0.4102202571900193   T   T   T
  0.2497511762896352  0.5003107488305645  0.4103127779863911   T   T   T
  0.2499893877274317  0.7500105471500333  0.4105533782069202   T   T   T
  0.2499773149484383  0.0000210911481560  0.4104761499198517   T   T   T
  0.5003099931221584  0.2497511166683495  0.4103132443287478   T   T   T
  0.4999972225400953  0.4999984568610500  0.4099189950156159   T   T   T
  0.4996875267408214  0.7502503388018908  0.4103101768926578   T   T   T
  0.4999993239783294  0.9999997092211217  0.4104120070768715   T   T   T
  0.7500108469679532  0.2499896948296438  0.4105538136140936   T   T   T
  0.7502504415332609  0.4996880578096352  0.4103115673189350   T   T   T
  0.7503724112678469  0.7503728340794211  0.4102180502747927   T   T   T
  0.7500225019779378  0.9999776953046151  0.4104750421786534   T   T   T
  0.1245466112151519  0.1245463744359867  0.5231420566132314   T   T   T
  0.1245214677466819  0.3751463194179934  0.5233779659107753   T   T   T
  0.1250557477320768  0.6250102163526492  0.5233303794779687   T   T   T
  0.1249521493731223  0.8750479577532531  0.5234404827850057   T   T   T
  0.3751464244078377  0.1245214817505129  0.5233778161961951   T   T   T
  0.3753504078979617  0.3753494655001504  0.5209564809202334   T   T   T
  0.3747121376433924  0.6252866662148548  0.5237082386139988   T   T   T
  0.3749900328217848  0.8749444229877028  0.5233303844781645   T   T   T
  0.6250098503971486  0.1250557917929953  0.5233312030668884   T   T   T
  0.6252870325090782  0.3747117159950264  0.5237070793226195   T   T   T
  0.6246461677492050  0.6246469475241625  0.5209461284528700   T   T   T
  0.6248530935997110  0.8754801397459460  0.5233767913153144   T   T   T
  0.8750477611235254  0.1249522508853005  0.5234429631365956   T   T   T
  0.8749442608869842  0.3749897716297426  0.5233298698149582   T   T   T
  0.8754799736249055  0.6248529871232620  0.5233765558032104   T   T   T
  0.8754542596000192  0.8754543354866016  0.5231422937755994   T   T   T
  0.1249999995752020  0.1249999995752020  0.2975781966864446   F   F   F
  0.1249999995752020  0.3749999987256061  0.2975781966864446   F   F   F
  0.1249999995752020  0.6249999978760030  0.2975781966864446   F   F   F
  0.1249999995752020  0.8749999970264071  0.2975781966864446   F   F   F
  0.3749999987256061  0.1249999995752020  0.2975781966864446   F   F   F
  0.3749999987256061  0.3749999987256061  0.2975781966864446   F   F   F
  0.3749999987256061  0.6249999978760030  0.2975781966864446   F   F   F
  0.3749999987256061  0.8749999970264071  0.2975781966864446   F   F   F
  0.6249999978760030  0.1249999995752020  0.2975781966864446   F   F   F
  0.6249999978760030  0.3749999987256061  0.2975781966864446   F   F   F
  0.6249999978760030  0.6249999978760030  0.2975781966864446   F   F   F
  0.6249999978760030  0.8749999970264071  0.2975781966864446   F   F   F
  0.8749999970264071  0.1249999995752020  0.2975781966864446   F   F   F
  0.8749999970264071  0.3749999987256061  0.2975781966864446   F   F   F
  0.8749999970264071  0.6249999978760030  0.2975781966864446   F   F   F
  0.8749999970264071  0.8749999970264071  0.2975781966864446   F   F   F
  0.5830714694616006  0.5830573870607836  0.7026701463113056   T   T   T
  0.6152173742865088  0.4688301989500587  0.7017497618137156   T   T   T
  0.5311659963801247  0.3847782366645873  0.7017643164452565   T   T   T
  0.4169307601436927  0.4169446969604991  0.7026984577914916   T   T   T
  0.3847850195634663  0.5311717462042935  0.7017677082687968   T   T   T
  0.4688360999855163  0.6152234877526510  0.7017528639787756   T   T   T
  0.6976054039746487  0.6975801859146387  0.7033905051168077   T   T   T
  0.3024009848016078  0.3024256484715693  0.7034538434042261   T   T   T
  0.7047035303863609  0.4448377882648131  0.7017334873007286   T   T   T
  0.5551429342838290  0.2952973390629907  0.7017611413793148   T   T   T
  0.2952993462941862  0.5551624323663091  0.7017676787176583   T   T   T
  0.4448578272387778  0.7047050710274476  0.7017379125782028   T   T   T
 
  0.00000000E+00  0.00000000E+00  0.00000000E+00
  0.00000000E+00  0.00000000E+00  0.00000000E+00
  0.00000000E+00  0.00000000E+00  0.00000000E+00
  0.00000000E+00  0.00000000E+00  0.00000000E+00
  0.00000000E+00  0.00000000E+00  0.00000000E+00
  0.00000000E+00  0.00000000E+00  0.00000000E+00
  0.00000000E+00  0.00000000E+00  0.00000000E+00
  0.00000000E+00  0.00000000E+00  0.00000000E+00
  0.00000000E+00  0.00000000E+00  0.00000000E+00
  0.00000000E+00  0.00000000E+00  0.00000000E+00
  0.00000000E+00  0.00000000E+00  0.00000000E+00
  0.00000000E+00  0.00000000E+00  0.00000000E+00
  0.00000000E+00  0.00000000E+00  0.00000000E+00
  0.00000000E+00  0.00000000E+00  0.00000000E+00
  0.00000000E+00  0.00000000E+00  0.00000000E+00
  0.00000000E+00  0.00000000E+00  0.00000000E+00
  0.00000000E+00  0.00000000E+00  0.00000000E+00
  0.00000000E+00  0.00000000E+00  0.00000000E+00
  0.00000000E+00  0.00000000E+00  0.00000000E+00
  0.00000000E+00  0.00000000E+00  0.00000000E+00
  0.00000000E+00  0.00000000E+00  0.00000000E+00
  0.00000000E+00  0.00000000E+00  0.00000000E+00
  0.00000000E+00  0.00000000E+00  0.00000000E+00
  0.00000000E+00  0.00000000E+00  0.00000000E+00
  0.00000000E+00  0.00000000E+00  0.00000000E+00
  0.00000000E+00  0.00000000E+00  0.00000000E+00
  0.00000000E+00  0.00000000E+00  0.00000000E+00
  0.00000000E+00  0.00000000E+00  0.00000000E+00
  0.00000000E+00  0.00000000E+00  0.00000000E+00
  0.00000000E+00  0.00000000E+00  0.00000000E+00
  0.00000000E+00  0.00000000E+00  0.00000000E+00
  0.00000000E+00  0.00000000E+00  0.00000000E+00
  0.00000000E+00  0.00000000E+00  0.00000000E+00
  0.00000000E+00  0.00000000E+00  0.00000000E+00
  0.00000000E+00  0.00000000E+00  0.00000000E+00
  0.00000000E+00  0.00000000E+00  0.00000000E+00
  0.00000000E+00  0.00000000E+00  0.00000000E+00
  0.00000000E+00  0.00000000E+00  0.00000000E+00
  0.00000000E+00  0.00000000E+00  0.00000000E+00
  0.00000000E+00  0.00000000E+00  0.00000000E+00
  0.00000000E+00  0.00000000E+00  0.00000000E+00
  0.00000000E+00  0.00000000E+00  0.00000000E+00
  0.00000000E+00  0.00000000E+00  0.00000000E+00
  0.00000000E+00  0.00000000E+00  0.00000000E+00
  0.00000000E+00  0.00000000E+00  0.00000000E+00
  0.00000000E+00  0.00000000E+00  0.00000000E+00
  0.00000000E+00  0.00000000E+00  0.00000000E+00
  0.00000000E+00  0.00000000E+00  0.00000000E+00
  0.00000000E+00  0.00000000E+00  0.00000000E+00
  0.00000000E+00  0.00000000E+00  0.00000000E+00
  0.00000000E+00  0.00000000E+00  0.00000000E+00
  0.00000000E+00  0.00000000E+00  0.00000000E+00
  0.00000000E+00  0.00000000E+00  0.00000000E+00
  0.00000000E+00  0.00000000E+00  0.00000000E+00
  0.00000000E+00  0.00000000E+00  0.00000000E+00
  0.00000000E+00  0.00000000E+00  0.00000000E+00
  0.00000000E+00  0.00000000E+00  0.00000000E+00
  0.00000000E+00  0.00000000E+00  0.00000000E+00
  0.00000000E+00  0.00000000E+00  0.00000000E+00
  0.00000000E+00  0.00000000E+00  0.00000000E+00
