H4 Pt48 C6 Cl2                          
    1.000000000000000     
    11.2480069999999994    0.0000000000000000    0.0000000000000000
    -5.6240030000000001    9.7410599999999992    0.0000000000000000
     0.0000000000000000    0.0000000000000000   16.5937739999999998
   H    Pt   C    Cl
     4    48     6     2
Selective dynamics
Direct
  0.4975844276602714  0.3716852726549149  0.7884884097280249   T   T   T
  0.3712618612696090  0.4979601056241805  0.7886399847267356   T   T   T
  0.7520639174319754  0.8787586129256653  0.7886230762476956   T   T   T
  0.8783660960905166  0.7524485477073810  0.7884807314001918   T   T   T
  0.0833330000000032  0.1666669999999968  0.3615810000000010   F   F   F
  0.0833330000000032  0.4166669999999968  0.3615810000000010   F   F   F
  0.0833330000000032  0.6666669999999968  0.3615810000000010   F   F   F
  0.0833330000000032  0.9166669999999968  0.3615810000000010   F   F   F
  0.3333330000000032  0.1666669999999968  0.3615810000000010   F   F   F
  0.3333330000000032  0.4166669999999968  0.3615810000000010   F   F   F
  0.3333330000000032  0.6666669999999968  0.3615810000000010   F   F   F
  0.3333330000000032  0.9166669999999968  0.3615810000000010   F   F   F
  0.5833330000000032  0.1666669999999968  0.3615810000000010   F   F   F
  0.5833330000000032  0.4166669999999968  0.3615810000000010   F   F   F
  0.5833330000000032  0.6666669999999968  0.3615810000000010   F   F   F
  0.5833330000000032  0.9166669999999968  0.3615810000000010   F   F   F
  0.8333330000000032  0.1666669999999968  0.3615810000000010   F   F   F
  0.8333330000000032  0.4166669999999968  0.3615810000000010   F   F   F
  0.8333330000000032  0.6666669999999968  0.3615810000000010   F   F   F
  0.8333330000000032  0.9166669999999968  0.3615810000000010   F   F   F
  0.2451958679827584  0.2451532035821771  0.6408315257555515   T   T   T
  0.2423869898540900  0.4975353022103377  0.6396281868568252   T   T   T
  0.2506604414615197  0.7493998293632558  0.6423140296484036   T   T   T
  0.2511066877088552  0.9988893797723506  0.6417342575990759   T   T   T
  0.4979870549586138  0.2435013456590056  0.6393739101159710   T   T   T
  0.4896318476448016  0.4911650535405698  0.6450202575272428   T   T   T
  0.5000937137448531  0.7499020240502787  0.6501295453047433   T   T   T
  0.5005888825368388  0.9993271485588409  0.6423135806356015   T   T   T
  0.7497035500291531  0.2513475205627316  0.6426620160615713   T   T   T
  0.7486360267778167  0.5013725019962081  0.6494601794290915   T   T   T
  0.7588353352471842  0.7603656409103152  0.6450125536101794   T   T   T
  0.7524595952556155  0.0076054969950334  0.6396303877677028   T   T   T
  0.9987590128695985  0.2512413629253984  0.6424469139515310   T   T   T
  0.9986575557270072  0.5003039907233742  0.6426518483726724   T   T   T
  0.0064975821226980  0.7520043032259807  0.6393707951358394   T   T   T
  0.0048452026451500  0.0047975493354002  0.6408270623454726   T   T   T
  0.1680070979383430  0.0819985520733937  0.4999284761980576   T   T   T
  0.1666571802726935  0.3327148570320730  0.5007517112755124   T   T   T
  0.1658113724005830  0.5837358712670522  0.5005349355161002   T   T   T
  0.1679575619417548  0.8327598809474139  0.5001380231782875   T   T   T
  0.4172387608078623  0.0820430158193659  0.5001364665887706   T   T   T
  0.4171802200901382  0.3340498598340673  0.5022282789700512   T   T   T
  0.4171209987048172  0.5835900279430177  0.5039077217955636   T   T   T
  0.4186032253211138  0.8313963720397979  0.5045202328298473   T   T   T
  0.6662622115748462  0.0841823735022231  0.5005406797817642   T   T   T
  0.6677032401145553  0.3355858890337302  0.5032882312854525   T   T   T
  0.6663821834353243  0.5836177228835524  0.5042744128280745   T   T   T
  0.6664060813485051  0.8328783888246960  0.5039068162870706   T   T   T
  0.9172842820017451  0.0833391922677080  0.5007573123076341   T   T   T
  0.9165657386446426  0.3334386824598852  0.5015049801254889   T   T   T
  0.9144137200163058  0.5822949519348413  0.5032872857123962   T   T   T
  0.9159465327304162  0.8328163852388712  0.5022261569002779   T   T   T
  0.7033932677680710  0.5466242448549465  0.7650019035125197   T   T   T
  0.5508795211553874  0.4775758681771833  0.7665183490144187   T   T   T
  0.4772622046158688  0.5513870070890974  0.7667949542077395   T   T   T
  0.5462133662665281  0.7038335534001305  0.7655120626363825   T   T   T
  0.6986358923516534  0.7727759375073120  0.7667897903329575   T   T   T
  0.7724404731432415  0.6991420700820257  0.7665085799068123   T   T   T
  0.7679829484862850  0.4820370256051589  0.8408240472940562   T   T   T
  0.4816484165449211  0.7683817746960884  0.8413487141115041   T   T   T
 
  0.00000000E+00  0.00000000E+00  0.00000000E+00
  0.00000000E+00  0.00000000E+00  0.00000000E+00
  0.00000000E+00  0.00000000E+00  0.00000000E+00
  0.00000000E+00  0.00000000E+00  0.00000000E+00
  0.00000000E+00  0.00000000E+00  0.00000000E+00
  0.00000000E+00  0.00000000E+00  0.00000000E+00
  0.00000000E+00  0.00000000E+00  0.00000000E+00
  0.00000000E+00  0.00000000E+00  0.00000000E+00
  0.00000000E+00  0.00000000E+00  0.00000000E+00
  0.00000000E+00  0.00000000E+00  0.00000000E+00
  0.00000000E+00  0.00000000E+00  0.00000000E+00
  0.00000000E+00  0.00000000E+00  0.00000000E+00
  0.00000000E+00  0.00000000E+00  0.00000000E+00
  0.00000000E+00  0.00000000E+00  0.00000000E+00
  0.00000000E+00  0.00000000E+00  0.00000000E+00
  0.00000000E+00  0.00000000E+00  0.00000000E+00
  0.00000000E+00  0.00000000E+00  0.00000000E+00
  0.00000000E+00  0.00000000E+00  0.00000000E+00
  0.00000000E+00  0.00000000E+00  0.00000000E+00
  0.00000000E+00  0.00000000E+00  0.00000000E+00
  0.00000000E+00  0.00000000E+00  0.00000000E+00
  0.00000000E+00  0.00000000E+00  0.00000000E+00
  0.00000000E+00  0.00000000E+00  0.00000000E+00
  0.00000000E+00  0.00000000E+00  0.00000000E+00
  0.00000000E+00  0.00000000E+00  0.00000000E+00
  0.00000000E+00  0.00000000E+00  0.00000000E+00
  0.00000000E+00  0.00000000E+00  0.00000000E+00
  0.00000000E+00  0.00000000E+00  0.00000000E+00
  0.00000000E+00  0.00000000E+00  0.00000000E+00
  0.00000000E+00  0.00000000E+00  0.00000000E+00
  0.00000000E+00  0.00000000E+00  0.00000000E+00
  0.00000000E+00  0.00000000E+00  0.00000000E+00
  0.00000000E+00  0.00000000E+00  0.00000000E+00
  0.00000000E+00  0.00000000E+00  0.00000000E+00
  0.00000000E+00  0.00000000E+00  0.00000000E+00
  0.00000000E+00  0.00000000E+00  0.00000000E+00
  0.00000000E+00  0.00000000E+00  0.00000000E+00
  0.00000000E+00  0.00000000E+00  0.00000000E+00
  0.00000000E+00  0.00000000E+00  0.00000000E+00
  0.00000000E+00  0.00000000E+00  0.00000000E+00
  0.00000000E+00  0.00000000E+00  0.00000000E+00
  0.00000000E+00  0.00000000E+00  0.00000000E+00
  0.00000000E+00  0.00000000E+00  0.00000000E+00
  0.00000000E+00  0.00000000E+00  0.00000000E+00
  0.00000000E+00  0.00000000E+00  0.00000000E+00
  0.00000000E+00  0.00000000E+00  0.00000000E+00
  0.00000000E+00  0.00000000E+00  0.00000000E+00
  0.00000000E+00  0.00000000E+00  0.00000000E+00
  0.00000000E+00  0.00000000E+00  0.00000000E+00
  0.00000000E+00  0.00000000E+00  0.00000000E+00
  0.00000000E+00  0.00000000E+00  0.00000000E+00
  0.00000000E+00  0.00000000E+00  0.00000000E+00
  0.00000000E+00  0.00000000E+00  0.00000000E+00
  0.00000000E+00  0.00000000E+00  0.00000000E+00
  0.00000000E+00  0.00000000E+00  0.00000000E+00
  0.00000000E+00  0.00000000E+00  0.00000000E+00
  0.00000000E+00  0.00000000E+00  0.00000000E+00
  0.00000000E+00  0.00000000E+00  0.00000000E+00
  0.00000000E+00  0.00000000E+00  0.00000000E+00
  0.00000000E+00  0.00000000E+00  0.00000000E+00
