Ag  C Br                                
    1.000000000000000     
    11.7702790000000004    0.0000000000000000    0.0000000000000000
     0.0000000000000000   11.7702790000000004    0.0000000000000000
     0.0000000000000000    0.0000000000000000   24.2421330600000005
   Ag   C    Br
    64     6     6
Selective dynamics
Direct
  0.0000000000000000  0.2499999991504041  0.3093787160328390   F   F   F
  0.7499999974512050  0.7499999974512050  0.3093787160328390   F   F   F
  0.0000000000000000  0.4999999983008081  0.3093787160328390   F   F   F
  0.0000000000000000  0.7499999974512050  0.3093787160328390   F   F   F
  0.0000000000000000  0.0000000000000000  0.3093787160328390   F   F   F
  0.2499999991504041  0.2499999991504041  0.3093787160328390   F   F   F
  0.2499999991504041  0.4999999983008081  0.3093787160328390   F   F   F
  0.7499999974512050  0.0000000000000000  0.3093787160328390   F   F   F
  0.2499999991504041  0.7499999974512050  0.3093787160328390   F   F   F
  0.2499999991504041  0.0000000000000000  0.3093787160328390   F   F   F
  0.4999999983008081  0.2499999991504041  0.3093787160328390   F   F   F
  0.4999999983008081  0.4999999983008081  0.3093787160328390   F   F   F
  0.4999999983008081  0.7499999974512050  0.3093787160328390   F   F   F
  0.4999999983008081  0.0000000000000000  0.3093787160328390   F   F   F
  0.7499999974512050  0.2499999991504041  0.3093787160328390   F   F   F
  0.7499999974512050  0.4999999983008081  0.3093787160328390   F   F   F
  0.0003404675486743  0.2508204356616441  0.4739996725186444   T   T   T
  0.9986656605725382  0.5013572078192859  0.4747516886884899   T   T   T
  0.9989249679208286  0.7500601188646528  0.4745261894534607   T   T   T
 -0.0002009726446971 -0.0001779014378829  0.4740207596278852   T   T   T
  0.2493468202286407  0.2493623380575746  0.4740130377999169   T   T   T
  0.2485629066345708  0.4993127583795163  0.4735183681127242   T   T   T
  0.2497371215933783  0.7504375607122707  0.4734829855540730   T   T   T
  0.2507946419184900  0.0003681335965862  0.4739970716429440   T   T   T
  0.4993116313317788  0.2485918170841268  0.4735265165943043   T   T   T
  0.5022457319505895  0.5022348669101071  0.4740762638005164   T   T   T
  0.5033945917483222  0.7497707260629017  0.4749192716956536   T   T   T
  0.5013384307792068  0.9987054592524253  0.4747461488980808   T   T   T
  0.7504105008470883  0.2497698386158397  0.4734909288083293   T   T   T
  0.7497585286450799  0.5033999118865248  0.4749242995476022   T   T   T
  0.7494248365330508  0.7494378587465966  0.4755631955883120   T   T   T
  0.7500407187242314  0.9989551319695043  0.4745277797585642   T   T   T
  0.1247386874329603  0.1247647327647381  0.5521369916093057   T   T   T
  0.1245342952633704  0.3748997878217826  0.5527183713265162   T   T   T
  0.1255519544951250  0.6252504814223386  0.5523670777982173   T   T   T
  0.1269414294415980  0.8754860593977507  0.5517666600902555   T   T   T
  0.3748789460121753  0.1245604038246896  0.5527204003818089   T   T   T
  0.3745123065324014  0.3745297340122120  0.5500513687474572   T   T   T
  0.3725535780343776  0.6238742132130033  0.5495106925337427   T   T   T
  0.3747377160612153  0.8754361071593800  0.5519582517991890   T   T   T
  0.6252331600925464  0.1255719815534258  0.5523804763477164   T   T   T
  0.6238769034428272  0.3725818606743013  0.5495477823138046   T   T   T
  0.6253830439111355  0.6253838492361503  0.5587059503881368   T   T   T
  0.6246881261156993  0.8768005556576176  0.5547786282936317   T   T   T
  0.8754577718818909  0.1269723223339145  0.5517670211661614   T   T   T
  0.8753873080750624  0.3747586925648041  0.5519836818574136   T   T   T
  0.8767781130858041  0.6247027675566893  0.5548028491762788   T   T   T
  0.8806030166736025  0.8806639076285423  0.5535141417983495   T   T   T
  0.1249999995752020  0.1249999995752020  0.3952090765398992   F   F   F
  0.1249999995752020  0.3749999987256061  0.3952090765398992   F   F   F
  0.1249999995752020  0.6249999978760030  0.3952090765398992   F   F   F
  0.1249999995752020  0.8749999970264071  0.3952090765398992   F   F   F
  0.3749999987256061  0.1249999995752020  0.3952090765398992   F   F   F
  0.3749999987256061  0.3749999987256061  0.3952090765398992   F   F   F
  0.3749999987256061  0.6249999978760030  0.3952090765398992   F   F   F
  0.3749999987256061  0.8749999970264071  0.3952090765398992   F   F   F
  0.6249999978760030  0.1249999995752020  0.3952090765398992   F   F   F
  0.6249999978760030  0.3749999987256061  0.3952090765398992   F   F   F
  0.6249999978760030  0.6249999978760030  0.3952090765398992   F   F   F
  0.6249999978760030  0.8749999970264071  0.3952090765398992   F   F   F
  0.8749999970264071  0.1249999995752020  0.3952090765398992   F   F   F
  0.8749999970264071  0.3749999987256061  0.3952090765398992   F   F   F
  0.8749999970264071  0.6249999978760030  0.3952090765398992   F   F   F
  0.8749999970264071  0.8749999970264071  0.3952090765398992   F   F   F
  0.3697453441604638  0.5165451112686681  0.6708785525375172   T   T   T
  0.4549589011124593  0.5955666448481358  0.6580920964798957   T   T   T
  0.5648559888112202  0.5647513849290540  0.6449902753300172   T   T   T
  0.5956968204899862  0.4548890876996688  0.6581689096185808   T   T   T
  0.5166189524897702  0.3697343322441125  0.6709221805218563   T   T   T
  0.4005862426251589  0.4005699103217106  0.6735980052389396   T   T   T
  0.2154188195133546  0.5618622417046568  0.6811830131480509   T   T   T
  0.4205649385219745  0.7593436902520432  0.6634116097947671   T   T   T
  0.7856844185679147  0.7847358128215626  0.6402771472726281   T   T   T
  0.7593750019876296  0.4203883301239549  0.6635075935500003   T   T   T
  0.5618489139578694  0.2153843266986979  0.6811613451849724   T   T   T
  0.2872015186267498  0.2872233300486798  0.6820999450079996   T   T   T
 
  0.00000000E+00  0.00000000E+00  0.00000000E+00
  0.00000000E+00  0.00000000E+00  0.00000000E+00
  0.00000000E+00  0.00000000E+00  0.00000000E+00
  0.00000000E+00  0.00000000E+00  0.00000000E+00
  0.00000000E+00  0.00000000E+00  0.00000000E+00
  0.00000000E+00  0.00000000E+00  0.00000000E+00
  0.00000000E+00  0.00000000E+00  0.00000000E+00
  0.00000000E+00  0.00000000E+00  0.00000000E+00
  0.00000000E+00  0.00000000E+00  0.00000000E+00
  0.00000000E+00  0.00000000E+00  0.00000000E+00
  0.00000000E+00  0.00000000E+00  0.00000000E+00
  0.00000000E+00  0.00000000E+00  0.00000000E+00
  0.00000000E+00  0.00000000E+00  0.00000000E+00
  0.00000000E+00  0.00000000E+00  0.00000000E+00
  0.00000000E+00  0.00000000E+00  0.00000000E+00
  0.00000000E+00  0.00000000E+00  0.00000000E+00
  0.00000000E+00  0.00000000E+00  0.00000000E+00
  0.00000000E+00  0.00000000E+00  0.00000000E+00
  0.00000000E+00  0.00000000E+00  0.00000000E+00
  0.00000000E+00  0.00000000E+00  0.00000000E+00
  0.00000000E+00  0.00000000E+00  0.00000000E+00
  0.00000000E+00  0.00000000E+00  0.00000000E+00
  0.00000000E+00  0.00000000E+00  0.00000000E+00
  0.00000000E+00  0.00000000E+00  0.00000000E+00
  0.00000000E+00  0.00000000E+00  0.00000000E+00
  0.00000000E+00  0.00000000E+00  0.00000000E+00
  0.00000000E+00  0.00000000E+00  0.00000000E+00
  0.00000000E+00  0.00000000E+00  0.00000000E+00
  0.00000000E+00  0.00000000E+00  0.00000000E+00
  0.00000000E+00  0.00000000E+00  0.00000000E+00
  0.00000000E+00  0.00000000E+00  0.00000000E+00
  0.00000000E+00  0.00000000E+00  0.00000000E+00
  0.00000000E+00  0.00000000E+00  0.00000000E+00
  0.00000000E+00  0.00000000E+00  0.00000000E+00
  0.00000000E+00  0.00000000E+00  0.00000000E+00
  0.00000000E+00  0.00000000E+00  0.00000000E+00
  0.00000000E+00  0.00000000E+00  0.00000000E+00
  0.00000000E+00  0.00000000E+00  0.00000000E+00
  0.00000000E+00  0.00000000E+00  0.00000000E+00
  0.00000000E+00  0.00000000E+00  0.00000000E+00
  0.00000000E+00  0.00000000E+00  0.00000000E+00
  0.00000000E+00  0.00000000E+00  0.00000000E+00
  0.00000000E+00  0.00000000E+00  0.00000000E+00
  0.00000000E+00  0.00000000E+00  0.00000000E+00
  0.00000000E+00  0.00000000E+00  0.00000000E+00
  0.00000000E+00  0.00000000E+00  0.00000000E+00
  0.00000000E+00  0.00000000E+00  0.00000000E+00
  0.00000000E+00  0.00000000E+00  0.00000000E+00
  0.00000000E+00  0.00000000E+00  0.00000000E+00
  0.00000000E+00  0.00000000E+00  0.00000000E+00
  0.00000000E+00  0.00000000E+00  0.00000000E+00
  0.00000000E+00  0.00000000E+00  0.00000000E+00
  0.00000000E+00  0.00000000E+00  0.00000000E+00
  0.00000000E+00  0.00000000E+00  0.00000000E+00
  0.00000000E+00  0.00000000E+00  0.00000000E+00
  0.00000000E+00  0.00000000E+00  0.00000000E+00
  0.00000000E+00  0.00000000E+00  0.00000000E+00
  0.00000000E+00  0.00000000E+00  0.00000000E+00
  0.00000000E+00  0.00000000E+00  0.00000000E+00
  0.00000000E+00  0.00000000E+00  0.00000000E+00
  0.00000000E+00  0.00000000E+00  0.00000000E+00
  0.00000000E+00  0.00000000E+00  0.00000000E+00
  0.00000000E+00  0.00000000E+00  0.00000000E+00
  0.00000000E+00  0.00000000E+00  0.00000000E+00
  0.00000000E+00  0.00000000E+00  0.00000000E+00
  0.00000000E+00  0.00000000E+00  0.00000000E+00
  0.00000000E+00  0.00000000E+00  0.00000000E+00
  0.00000000E+00  0.00000000E+00  0.00000000E+00
  0.00000000E+00  0.00000000E+00  0.00000000E+00
  0.00000000E+00  0.00000000E+00  0.00000000E+00
  0.00000000E+00  0.00000000E+00  0.00000000E+00
  0.00000000E+00  0.00000000E+00  0.00000000E+00
  0.00000000E+00  0.00000000E+00  0.00000000E+00
  0.00000000E+00  0.00000000E+00  0.00000000E+00
  0.00000000E+00  0.00000000E+00  0.00000000E+00
  0.00000000E+00  0.00000000E+00  0.00000000E+00
