Pd48 C4 N2 F4                           
    1.000000000000000     
    11.1817229999999999    0.0000000000000000    0.0000000000000000
     0.0000000000000000   15.8133443000000007    0.0000000000000000
     0.0000000000000000    0.0000000000000000   15.6556714100000001
   Pd   C    N    F 
    48     4     2     4
Selective dynamics
Direct
  0.2500336817038189  0.0002931283964500  0.4033922909166066   T   T   T
  0.2494238741558092  0.2504378990938960  0.4020110400004384   T   T   T
  0.2485926687112325  0.4990104252676559  0.4005418306697663   T   T   T
  0.2526326256907510  0.7477386640038972  0.4047293537560179   T   T   T
  0.4999989964252123  0.9999854496622831  0.4039773781538827   T   T   T
  0.5004881386836573  0.2503789727291661  0.4020775760912016   T   T   T
  0.4999892318012584  0.5000087066731282  0.3898629557799325   T   T   T
  0.4995098512227472  0.7496302459042354  0.4020876321271203   T   T   T
  0.7499687153852364  0.9996914528729235  0.4033722334753094   T   T   T
  0.7473830878577132  0.2522691022127574  0.4047074439572143   T   T   T
  0.7514069679247726  0.5009966954313825  0.4005408639352055   T   T   T
  0.7505717849911306  0.7495579639033778  0.4020120515172607   T   T   T
  0.9999991608323882  0.9999994490343980  0.4027987976536664   T   T   T
  0.9981949042367546  0.2508231485940939  0.4033363251707840   T   T   T
  0.9999957558034254  0.4999920463569012  0.4043760163141314   T   T   T
  0.0018072206825366  0.7491822658871641  0.4033469258689308   T   T   T
  0.1241986430743296  0.1260964332740002  0.4878914345803054   T   T   T
  0.1228486936994031  0.3740522983864238  0.4887503659218737   T   T   T
  0.1304197896585890  0.6239213259360028  0.4887426332580702   T   T   T
  0.1265472074724059  0.8742397537743756  0.4878520269568298   T   T   T
  0.3748073938006939  0.1263163788003467  0.4883779047678587   T   T   T
  0.3715363151948523  0.3742168089348894  0.4898510541089038   T   T   T
  0.3860919526320501  0.6136749530808743  0.4902985325500637   T   T   T
  0.3757171715988648  0.8747124384640514  0.4884269520454509   T   T   T
  0.6242812947178180  0.1252778224735422  0.4884027419350474   T   T   T
  0.6138907989451496  0.3863426182829883  0.4902969481734019   T   T   T
  0.6284324215983972  0.6257922834382228  0.4898492618753494   T   T   T
  0.6252098446845338  0.8736696788524512  0.4884005542524932   T   T   T
  0.8734455522309545  0.1257630463670907  0.4878280657123355   T   T   T
  0.8695875535713640  0.3760799089451368  0.4888080651629920   T   T   T
  0.8771565473240344  0.6259495785087097  0.4887529112742399   T   T   T
  0.8758172766828878  0.8738978320250155  0.4878798410516012   T   T   T
  0.1249999995528412  0.1249999995257198  0.3193730801482104   F   F   F
  0.1249999995528412  0.3749999992095283  0.3193730801482104   F   F   F
  0.1249999995528412  0.6249999982609609  0.3193730801482104   F   F   F
  0.1249999995528412  0.8749999979447765  0.3193730801482104   F   F   F
  0.3749999986585237  0.1249999995257198  0.3193730801482104   F   F   F
  0.3749999986585237  0.3749999992095283  0.3193730801482104   F   F   F
  0.3749999986585237  0.6249999982609609  0.3193730801482104   F   F   F
  0.3749999986585237  0.8749999979447765  0.3193730801482104   F   F   F
  0.6249999977642062  0.1249999995257198  0.3193730801482104   F   F   F
  0.6249999977642062  0.3749999992095283  0.3193730801482104   F   F   F
  0.6249999977642062  0.6249999982609609  0.3193730801482104   F   F   F
  0.6249999977642062  0.8749999979447765  0.3193730801482104   F   F   F
  0.8749999968698887  0.1249999995257198  0.3193730801482104   F   F   F
  0.8749999968698887  0.3749999992095283  0.3193730801482104   F   F   F
  0.8749999968698887  0.6249999982609609  0.3193730801482104   F   F   F
  0.8749999968698887  0.8749999979447765  0.3193730801482104   F   F   F
  0.5492058484117450  0.4182110594021893  0.6108525471250346   T   T   T
  0.6196043755799749  0.4947259221548279  0.6154490558008519   T   T   T
  0.4507754033223108  0.5817952854518680  0.6108495539651670   T   T   T
  0.3803745193279795  0.5052848995846873  0.6154485851282843   T   T   T
  0.5759305860278801  0.5716981349960122  0.6064743453392012   T   T   T
  0.4240501186282160  0.4283086341715645  0.6064857250849158   T   T   T
  0.2628758461038814  0.5116916195194463  0.6352162261930658   T   T   T
  0.4186273061780597  0.6460026969580994  0.6668545425973846   T   T   T
  0.5813611275489663  0.3539889043096096  0.6668472123724740   T   T   T
  0.7371078339210229  0.4883154579255873  0.6352024751217229   T   T   T
 
  0.00000000E+00  0.00000000E+00  0.00000000E+00
  0.00000000E+00  0.00000000E+00  0.00000000E+00
  0.00000000E+00  0.00000000E+00  0.00000000E+00
  0.00000000E+00  0.00000000E+00  0.00000000E+00
  0.00000000E+00  0.00000000E+00  0.00000000E+00
  0.00000000E+00  0.00000000E+00  0.00000000E+00
  0.00000000E+00  0.00000000E+00  0.00000000E+00
  0.00000000E+00  0.00000000E+00  0.00000000E+00
  0.00000000E+00  0.00000000E+00  0.00000000E+00
  0.00000000E+00  0.00000000E+00  0.00000000E+00
  0.00000000E+00  0.00000000E+00  0.00000000E+00
  0.00000000E+00  0.00000000E+00  0.00000000E+00
  0.00000000E+00  0.00000000E+00  0.00000000E+00
  0.00000000E+00  0.00000000E+00  0.00000000E+00
  0.00000000E+00  0.00000000E+00  0.00000000E+00
  0.00000000E+00  0.00000000E+00  0.00000000E+00
  0.00000000E+00  0.00000000E+00  0.00000000E+00
  0.00000000E+00  0.00000000E+00  0.00000000E+00
  0.00000000E+00  0.00000000E+00  0.00000000E+00
  0.00000000E+00  0.00000000E+00  0.00000000E+00
  0.00000000E+00  0.00000000E+00  0.00000000E+00
  0.00000000E+00  0.00000000E+00  0.00000000E+00
  0.00000000E+00  0.00000000E+00  0.00000000E+00
  0.00000000E+00  0.00000000E+00  0.00000000E+00
  0.00000000E+00  0.00000000E+00  0.00000000E+00
  0.00000000E+00  0.00000000E+00  0.00000000E+00
  0.00000000E+00  0.00000000E+00  0.00000000E+00
  0.00000000E+00  0.00000000E+00  0.00000000E+00
  0.00000000E+00  0.00000000E+00  0.00000000E+00
  0.00000000E+00  0.00000000E+00  0.00000000E+00
  0.00000000E+00  0.00000000E+00  0.00000000E+00
  0.00000000E+00  0.00000000E+00  0.00000000E+00
  0.00000000E+00  0.00000000E+00  0.00000000E+00
  0.00000000E+00  0.00000000E+00  0.00000000E+00
  0.00000000E+00  0.00000000E+00  0.00000000E+00
  0.00000000E+00  0.00000000E+00  0.00000000E+00
  0.00000000E+00  0.00000000E+00  0.00000000E+00
  0.00000000E+00  0.00000000E+00  0.00000000E+00
  0.00000000E+00  0.00000000E+00  0.00000000E+00
  0.00000000E+00  0.00000000E+00  0.00000000E+00
  0.00000000E+00  0.00000000E+00  0.00000000E+00
  0.00000000E+00  0.00000000E+00  0.00000000E+00
  0.00000000E+00  0.00000000E+00  0.00000000E+00
  0.00000000E+00  0.00000000E+00  0.00000000E+00
  0.00000000E+00  0.00000000E+00  0.00000000E+00
  0.00000000E+00  0.00000000E+00  0.00000000E+00
  0.00000000E+00  0.00000000E+00  0.00000000E+00
  0.00000000E+00  0.00000000E+00  0.00000000E+00
  0.00000000E+00  0.00000000E+00  0.00000000E+00
  0.00000000E+00  0.00000000E+00  0.00000000E+00
  0.00000000E+00  0.00000000E+00  0.00000000E+00
  0.00000000E+00  0.00000000E+00  0.00000000E+00
  0.00000000E+00  0.00000000E+00  0.00000000E+00
  0.00000000E+00  0.00000000E+00  0.00000000E+00
  0.00000000E+00  0.00000000E+00  0.00000000E+00
  0.00000000E+00  0.00000000E+00  0.00000000E+00
  0.00000000E+00  0.00000000E+00  0.00000000E+00
  0.00000000E+00  0.00000000E+00  0.00000000E+00
