Ir48 C4 N2 F4                           
    1.000000000000000     
    10.9622135000000007    0.0000000000000000    0.0000000000000000
     0.0000000000000000   10.9622135000000007    0.0000000000000000
     0.0000000000000000    0.0000000000000000   16.7325000400000015
   Ir   C    N    F 
    48     4     2     4
Selective dynamics
Direct
 -0.0009118180151511  0.2494547580954051  0.4094217214954137   T   T   T
  0.0000088328811940  0.5000007645243233  0.4094110286320861   T   T   T
  0.0009216279505795  0.7505604563949015  0.4094248466320720   T   T   T
 -0.0000025217764745 -0.0000090854159254  0.4094221480467852   T   T   T
  0.2505270280257571  0.2505403760085640  0.4102136216102779   T   T   T
  0.2507714809234701  0.4997831389956704  0.4102175352488150   T   T   T
  0.2527682662877417  0.7472407995485371  0.4118735233736330   T   T   T
  0.2494501056482442 -0.0009325103869086  0.4094186006169236   T   T   T
  0.4997912032600043  0.2507727961756532  0.4102195058458833   T   T   T
  0.5000093311484994  0.4999926718461690  0.4110079002675919   T   T   T
  0.5002099444559872  0.7492310585915150  0.4102124480728693   T   T   T
  0.4999986644664251 -0.0000079666657296  0.4094094517215931   T   T   T
  0.7472248175917972  0.2527648573794329  0.4118774964605679   T   T   T
  0.7492201583465993  0.5002133325262865  0.4102138442905170   T   T   T
  0.7494686778978381  0.7494731636372090  0.4102122541402436   T   T   T
  0.7505462162898981  0.0009173115432625  0.4094241079657764   T   T   T
  0.1248459672149358  0.1248544066146746  0.5211175039870400   T   T   T
  0.1225324557016172  0.3744878284634542  0.5209786554475028   T   T   T
  0.1233387370309984  0.6246972368457346  0.5218904026204527   T   T   T
  0.1249057040972350  0.8750922432892514  0.5211597194662115   T   T   T
  0.3744903900000495  0.1225376244721003  0.5209800037287270   T   T   T
  0.3720096919829696  0.3719888132651460  0.5227492138138301   T   T   T
  0.3740972586217315  0.6259014984800613  0.5312935480553921   T   T   T
  0.3752969843613448  0.8766584882961164  0.5218864885908859   T   T   T
  0.6246978691661882  0.1233404950642041  0.5218894619554956   T   T   T
  0.6259464139030747  0.3740494307139027  0.5312841666886607   T   T   T
  0.6280027005329055  0.6279804780084718  0.5227463586254123   T   T   T
  0.6255137157511538  0.8774703742277776  0.5209780931119794   T   T   T
  0.8750850594708993  0.1249112015534381  0.5211617298480290   T   T   T
  0.8766636283611828  0.3753012740619477  0.5218920481448113   T   T   T
  0.8774631634899678  0.6255113031926290  0.5209813160628846   T   T   T
  0.8751464378358100  0.8751539523849954  0.5211106592244750   T   T   T
  0.1250000002280558  0.1250000002280558  0.2988196616194330   F   F   F
  0.1250000002280558  0.3749999997719442  0.2988196616194330   F   F   F
  0.1250000002280558  0.6249999993158326  0.2988196616194330   F   F   F
  0.1250000002280558  0.8749999988597210  0.2988196616194330   F   F   F
  0.3749999997719442  0.1250000002280558  0.2988196616194330   F   F   F
  0.3749999997719442  0.3749999997719442  0.2988196616194330   F   F   F
  0.3749999997719442  0.6249999993158326  0.2988196616194330   F   F   F
  0.3749999997719442  0.8749999988597210  0.2988196616194330   F   F   F
  0.6249999993158326  0.1250000002280558  0.2988196616194330   F   F   F
  0.6249999993158326  0.3749999997719442  0.2988196616194330   F   F   F
  0.6249999993158326  0.6249999993158326  0.2988196616194330   F   F   F
  0.6249999993158326  0.8749999988597210  0.2988196616194330   F   F   F
  0.8749999988597210  0.1250000002280558  0.2988196616194330   F   F   F
  0.8749999988597210  0.3749999997719442  0.2988196616194330   F   F   F
  0.8749999988597210  0.6249999993158326  0.2988196616194330   F   F   F
  0.8749999988597210  0.8749999988597210  0.2988196616194330   F   F   F
  0.5301284834978816  0.3763124656098675  0.6469098815459831   T   T   T
  0.6236316092206766  0.4698309413803402  0.6469080976965857   T   T   T
  0.4699873624139663  0.6235483774835019  0.6469021833929695   T   T   T
  0.3764631368552087  0.5299995111808334  0.6468934807658315   T   T   T
  0.5937405304637011  0.5936097615383321  0.6421512062570681   T   T   T
  0.4063719946029873  0.4062673109376967  0.6421612061316568   T   T   T
  0.2730351440438506  0.5510347058555817  0.6906516292252413   T   T   T
  0.4489891641280675  0.7269515704461786  0.6906524077870747   T   T   T
  0.5511014762667165  0.2729300480351420  0.6906571475184454   T   T   T
  0.7270452762626401  0.4488564377282050  0.6906830140463613   T   T   T
 
  0.00000000E+00  0.00000000E+00  0.00000000E+00
  0.00000000E+00  0.00000000E+00  0.00000000E+00
  0.00000000E+00  0.00000000E+00  0.00000000E+00
  0.00000000E+00  0.00000000E+00  0.00000000E+00
  0.00000000E+00  0.00000000E+00  0.00000000E+00
  0.00000000E+00  0.00000000E+00  0.00000000E+00
  0.00000000E+00  0.00000000E+00  0.00000000E+00
  0.00000000E+00  0.00000000E+00  0.00000000E+00
  0.00000000E+00  0.00000000E+00  0.00000000E+00
  0.00000000E+00  0.00000000E+00  0.00000000E+00
  0.00000000E+00  0.00000000E+00  0.00000000E+00
  0.00000000E+00  0.00000000E+00  0.00000000E+00
  0.00000000E+00  0.00000000E+00  0.00000000E+00
  0.00000000E+00  0.00000000E+00  0.00000000E+00
  0.00000000E+00  0.00000000E+00  0.00000000E+00
  0.00000000E+00  0.00000000E+00  0.00000000E+00
  0.00000000E+00  0.00000000E+00  0.00000000E+00
  0.00000000E+00  0.00000000E+00  0.00000000E+00
  0.00000000E+00  0.00000000E+00  0.00000000E+00
  0.00000000E+00  0.00000000E+00  0.00000000E+00
  0.00000000E+00  0.00000000E+00  0.00000000E+00
  0.00000000E+00  0.00000000E+00  0.00000000E+00
  0.00000000E+00  0.00000000E+00  0.00000000E+00
  0.00000000E+00  0.00000000E+00  0.00000000E+00
  0.00000000E+00  0.00000000E+00  0.00000000E+00
  0.00000000E+00  0.00000000E+00  0.00000000E+00
  0.00000000E+00  0.00000000E+00  0.00000000E+00
  0.00000000E+00  0.00000000E+00  0.00000000E+00
  0.00000000E+00  0.00000000E+00  0.00000000E+00
  0.00000000E+00  0.00000000E+00  0.00000000E+00
  0.00000000E+00  0.00000000E+00  0.00000000E+00
  0.00000000E+00  0.00000000E+00  0.00000000E+00
  0.00000000E+00  0.00000000E+00  0.00000000E+00
  0.00000000E+00  0.00000000E+00  0.00000000E+00
  0.00000000E+00  0.00000000E+00  0.00000000E+00
  0.00000000E+00  0.00000000E+00  0.00000000E+00
  0.00000000E+00  0.00000000E+00  0.00000000E+00
  0.00000000E+00  0.00000000E+00  0.00000000E+00
  0.00000000E+00  0.00000000E+00  0.00000000E+00
  0.00000000E+00  0.00000000E+00  0.00000000E+00
  0.00000000E+00  0.00000000E+00  0.00000000E+00
  0.00000000E+00  0.00000000E+00  0.00000000E+00
  0.00000000E+00  0.00000000E+00  0.00000000E+00
  0.00000000E+00  0.00000000E+00  0.00000000E+00
  0.00000000E+00  0.00000000E+00  0.00000000E+00
  0.00000000E+00  0.00000000E+00  0.00000000E+00
  0.00000000E+00  0.00000000E+00  0.00000000E+00
  0.00000000E+00  0.00000000E+00  0.00000000E+00
  0.00000000E+00  0.00000000E+00  0.00000000E+00
  0.00000000E+00  0.00000000E+00  0.00000000E+00
  0.00000000E+00  0.00000000E+00  0.00000000E+00
  0.00000000E+00  0.00000000E+00  0.00000000E+00
  0.00000000E+00  0.00000000E+00  0.00000000E+00
  0.00000000E+00  0.00000000E+00  0.00000000E+00
  0.00000000E+00  0.00000000E+00  0.00000000E+00
  0.00000000E+00  0.00000000E+00  0.00000000E+00
  0.00000000E+00  0.00000000E+00  0.00000000E+00
  0.00000000E+00  0.00000000E+00  0.00000000E+00
