Pd48 C4 N2 Br4                          
    1.000000000000000     
    11.1817229999999999    0.0000000000000000    0.0000000000000000
     0.0000000000000000   11.1817229999999999    0.0000000000000000
     0.0000000000000000    0.0000000000000000   16.9003602499999985
   Pd   C    N    Br
    48     4     2     4
Selective dynamics
Direct
  0.9935531642345978  0.2515046441121811  0.4118042339195398   T   T   T
  0.0000003419719476  0.5000020218750052  0.4123096984642842   T   T   T
  0.0064475337867265  0.7484960376330108  0.4118067263677219   T   T   T
  0.9999990675836656  0.9999916729821834  0.4095534438209683   T   T   T
  0.2466147240397660  0.2466132607914346  0.4090629573451636   T   T   T
  0.2484220224781808  0.4994006607107693  0.4111796577487965   T   T   T
  0.2536141969365104  0.7463876083212924  0.4134763485481159   T   T   T
  0.2515068476622346  0.9935548381195929  0.4118047957617534   T   T   T
  0.4993915654107255  0.2484203890157843  0.4111772490177614   T   T   T
  0.4999985687623862  0.5000020264833438  0.4096083587686081   T   T   T
  0.5006020994805809  0.7515807906471892  0.4111812387546436   T   T   T
  0.4999994902508149  0.0000000724314191  0.4123092929443786   T   T   T
  0.7463804027256558  0.2536168908849277  0.4134706975356579   T   T   T
  0.7515796250449682  0.5006076940897870  0.4111773877673386   T   T   T
  0.7533905052153642  0.7533920908261251  0.4090650644772822   T   T   T
  0.7484955573264287  0.0064463140081656  0.4118064558865129   T   T   T
  0.1218652145769497  0.1218739168945646  0.5255906214676784   T   T   T
  0.1177782025990126  0.3691092960262523  0.5250533536804767   T   T   T
  0.1279247307709142  0.6227286653862905  0.5371612990835573   T   T   T
  0.1253250422283614  0.8746758535487658  0.5270714918746151   T   T   T
  0.3691072045578139  0.1177844413203317  0.5250675042087494   T   T   T
  0.3592538060310062  0.3592598474251076  0.5263110742540036   T   T   T
  0.3804411874361975  0.6195584973551433  0.5288116448016638   T   T   T
  0.3772643917457188  0.8720804717825317  0.5371581746356142   T   T   T
  0.6227361053959442  0.1279211840792129  0.5371571654324541   T   T   T
  0.6195622909371394  0.3804397079572723  0.5288197113924866   T   T   T
  0.6407483468245445  0.6407435877647600  0.5263126718995750   T   T   T
  0.6308935604374284  0.8822198434240889  0.5250687311400526   T   T   T
  0.8746683458803091  0.1253335214632543  0.5270553557724753   T   T   T
  0.8720831290758753  0.3772671680936170  0.5371590194228730   T   T   T
  0.8822218853317878  0.6308908876877695  0.5250706171386028   T   T   T
  0.8781320015317888  0.8781353433400128  0.5255978606487375   T   T   T
  0.1249999995528412  0.1249999995528412  0.2958516816231764   F   F   F
  0.1249999995528412  0.3749999986585237  0.2958516816231764   F   F   F
  0.1249999995528412  0.6249999977642062  0.2958516816231764   F   F   F
  0.1249999995528412  0.8749999968698887  0.2958516816231764   F   F   F
  0.3749999986585237  0.1249999995528412  0.2958516816231764   F   F   F
  0.3749999986585237  0.3749999986585237  0.2958516816231764   F   F   F
  0.3749999986585237  0.6249999977642062  0.2958516816231764   F   F   F
  0.3749999986585237  0.8749999968698887  0.2958516816231764   F   F   F
  0.6249999977642062  0.1249999995528412  0.2958516816231764   F   F   F
  0.6249999977642062  0.3749999986585237  0.2958516816231764   F   F   F
  0.6249999977642062  0.6249999977642062  0.2958516816231764   F   F   F
  0.6249999977642062  0.8749999968698887  0.2958516816231764   F   F   F
  0.8749999968698887  0.1249999995528412  0.2958516816231764   F   F   F
  0.8749999968698887  0.3749999986585237  0.2958516816231764   F   F   F
  0.8749999968698887  0.6249999977642062  0.2958516816231764   F   F   F
  0.8749999968698887  0.8749999968698887  0.2958516816231764   F   F   F
  0.5286859451179708  0.3799794711184035  0.6404360253465242   T   T   T
  0.6200120949088657  0.4713167422521849  0.6404347576822289   T   T   T
  0.4713184920536406  0.6199918863991485  0.6404321131934054   T   T   T
  0.3799999289853915  0.5286819229237949  0.6404323969289862   T   T   T
  0.5900015774605833  0.5900071681008043  0.6406527769419128   T   T   T
  0.4099641796800597  0.4100014708631079  0.6406507467286318   T   T   T
  0.2127953931657345  0.5622727174739026  0.6756967548187092   T   T   T
  0.4377421837109026  0.7872114944630439  0.6756929324098593   T   T   T
  0.5622520443513253  0.2127714143831199  0.6756859494458283   T   T   T
  0.7872016285698749  0.4377177885627574  0.6757016868205383   T   T   T
 
  0.00000000E+00  0.00000000E+00  0.00000000E+00
  0.00000000E+00  0.00000000E+00  0.00000000E+00
  0.00000000E+00  0.00000000E+00  0.00000000E+00
  0.00000000E+00  0.00000000E+00  0.00000000E+00
  0.00000000E+00  0.00000000E+00  0.00000000E+00
  0.00000000E+00  0.00000000E+00  0.00000000E+00
  0.00000000E+00  0.00000000E+00  0.00000000E+00
  0.00000000E+00  0.00000000E+00  0.00000000E+00
  0.00000000E+00  0.00000000E+00  0.00000000E+00
  0.00000000E+00  0.00000000E+00  0.00000000E+00
  0.00000000E+00  0.00000000E+00  0.00000000E+00
  0.00000000E+00  0.00000000E+00  0.00000000E+00
  0.00000000E+00  0.00000000E+00  0.00000000E+00
  0.00000000E+00  0.00000000E+00  0.00000000E+00
  0.00000000E+00  0.00000000E+00  0.00000000E+00
  0.00000000E+00  0.00000000E+00  0.00000000E+00
  0.00000000E+00  0.00000000E+00  0.00000000E+00
  0.00000000E+00  0.00000000E+00  0.00000000E+00
  0.00000000E+00  0.00000000E+00  0.00000000E+00
  0.00000000E+00  0.00000000E+00  0.00000000E+00
  0.00000000E+00  0.00000000E+00  0.00000000E+00
  0.00000000E+00  0.00000000E+00  0.00000000E+00
  0.00000000E+00  0.00000000E+00  0.00000000E+00
  0.00000000E+00  0.00000000E+00  0.00000000E+00
  0.00000000E+00  0.00000000E+00  0.00000000E+00
  0.00000000E+00  0.00000000E+00  0.00000000E+00
  0.00000000E+00  0.00000000E+00  0.00000000E+00
  0.00000000E+00  0.00000000E+00  0.00000000E+00
  0.00000000E+00  0.00000000E+00  0.00000000E+00
  0.00000000E+00  0.00000000E+00  0.00000000E+00
  0.00000000E+00  0.00000000E+00  0.00000000E+00
  0.00000000E+00  0.00000000E+00  0.00000000E+00
  0.00000000E+00  0.00000000E+00  0.00000000E+00
  0.00000000E+00  0.00000000E+00  0.00000000E+00
  0.00000000E+00  0.00000000E+00  0.00000000E+00
  0.00000000E+00  0.00000000E+00  0.00000000E+00
  0.00000000E+00  0.00000000E+00  0.00000000E+00
  0.00000000E+00  0.00000000E+00  0.00000000E+00
  0.00000000E+00  0.00000000E+00  0.00000000E+00
  0.00000000E+00  0.00000000E+00  0.00000000E+00
  0.00000000E+00  0.00000000E+00  0.00000000E+00
  0.00000000E+00  0.00000000E+00  0.00000000E+00
  0.00000000E+00  0.00000000E+00  0.00000000E+00
  0.00000000E+00  0.00000000E+00  0.00000000E+00
  0.00000000E+00  0.00000000E+00  0.00000000E+00
  0.00000000E+00  0.00000000E+00  0.00000000E+00
  0.00000000E+00  0.00000000E+00  0.00000000E+00
  0.00000000E+00  0.00000000E+00  0.00000000E+00
  0.00000000E+00  0.00000000E+00  0.00000000E+00
  0.00000000E+00  0.00000000E+00  0.00000000E+00
  0.00000000E+00  0.00000000E+00  0.00000000E+00
  0.00000000E+00  0.00000000E+00  0.00000000E+00
  0.00000000E+00  0.00000000E+00  0.00000000E+00
  0.00000000E+00  0.00000000E+00  0.00000000E+00
  0.00000000E+00  0.00000000E+00  0.00000000E+00
  0.00000000E+00  0.00000000E+00  0.00000000E+00
  0.00000000E+00  0.00000000E+00  0.00000000E+00
  0.00000000E+00  0.00000000E+00  0.00000000E+00
