Pt  C  F                                
    1.000000000000000     
    11.2480068000000006    0.0000000000000000    0.0000000000000000
     0.0000000000000000   15.9070838000000006    0.0000000000000000
     0.0000000000000000    0.0000000000000000   22.2180025631249976
   Pt   C    F 
    64     6     6
Selective dynamics
Direct
  0.2500000008890453  0.2500000006286527  0.3375640982438100   F   F   F
  0.2500000008890453  0.5000000006286527  0.3375640982438100   F   F   F
  0.2500000008890453  0.7500000012572983  0.3375640982438100   F   F   F
  0.2500000008890453  0.0000000000000000  0.3375640982438100   F   F   F
  0.5000000017780906  0.5000000006286527  0.3375640982438100   F   F   F
  0.0000000035561882  0.0000000000000000  0.3375640982438100   F   F   F
  0.5000000017780906  0.7500000012572983  0.3375640982438100   F   F   F
  0.5000000017780906  0.0000000000000000  0.3375640982438100   F   F   F
  0.7500000026671358  0.0000000000000000  0.3375640982438100   F   F   F
  0.0000000035561882  0.7500000012572983  0.3375640982438100   F   F   F
  0.5000000017780906  0.2500000006286527  0.3375640982438100   F   F   F
  0.7500000026671358  0.2500000006286527  0.3375640982438100   F   F   F
  0.7500000026671358  0.5000000006286527  0.3375640982438100   F   F   F
  0.7500000026671358  0.7500000012572983  0.3375640982438100   F   F   F
  0.0000000035561882  0.2500000006286527  0.3375640982438100   F   F   F
  0.0000000035561882  0.5000000006286527  0.3375640982438100   F   F   F
  0.2497015959876819  0.2496418031844305  0.4680074876476517   T   T   T
  0.2493110727631561  0.5000228741096510  0.4677836852647270   T   T   T
  0.2496799471531852  0.7503697576855530  0.4680049176682106   T   T   T
  0.2500235693997065  0.0000088840657699  0.4680658399610581   T   T   T
  0.5000257690862854  0.2492804533673731  0.4678259589830688   T   T   T
  0.5000000017780906  0.5000000006286527  0.4674905490732624   T   T   T
  0.4999742344698959  0.7507195485185780  0.4678259585329826   T   T   T
  0.5000000017780906 -0.0000000000000000  0.4681060269827166   T   T   T
  0.7503200564029958  0.2496302442003980  0.4680049181182968   T   T   T
  0.7506889307930248  0.4999771271476542  0.4677836857148132   T   T   T
  0.7502984075684992  0.7503581987015205  0.4680074880977378   T   T   T
  0.7499764341564750 -0.0000088840657700  0.4680658399610581   T   T   T
  0.9999785474060048  0.2497928115417076  0.4680852561630635   T   T   T
  0.0000000035561882  0.5000000006286527  0.4680241202908825   T   T   T
  0.0000214597063718  0.7502071903442434  0.4680852561630635   T   T   T
  0.0000000035561882 -0.0000000000000000  0.4680822200081997   T   T   T
  0.1249305046612484  0.1248650597122339  0.5260501014895366   T   T   T
  0.1245805522002546  0.3749318980866754  0.5258547947063675   T   T   T
  0.1246364851662963  0.6250936014211177  0.5259527113015856   T   T   T
  0.1249352161110856  0.8751532418832654  0.5260609913359068   T   T   T
  0.3749054492377457  0.1248617772813495  0.5260896140785567   T   T   T
  0.3745609555741873  0.3748841022705115  0.5246961499567332   T   T   T
  0.3743140005902682  0.6251318909284045  0.5247367317364927   T   T   T
  0.3749398074845474  0.8751363746872803  0.5261001274197425   T   T   T
  0.6250601960716340  0.1248636265700181  0.5261001274197425   T   T   T
  0.6256860029659129  0.3748681103288937  0.5247367317364927   T   T   T
  0.6254390479819940  0.6251158989867868  0.5246961499567332   T   T   T
  0.6250945543184352  0.8751382239759489  0.5260896140785567   T   T   T
  0.8750647874450954  0.1248467593740331  0.5260609913359068   T   T   T
  0.8753635183898847  0.3749063998361806  0.5259527113015856   T   T   T
  0.8754194513559338  0.6250681031706229  0.5258547947063675   T   T   T
  0.8750694980058873  0.8751349415450642  0.5260501014895366   T   T   T
  0.1250000000000000  0.1250000003143228  0.4008461529820977   F   F   F
  0.1250000000000000  0.3750000003143228  0.4008461529820977   F   F   F
  0.1250000008890453  0.6250000009429755  0.4008461529820977   F   F   F
  0.1250000008890453  0.8750000009429755  0.4008461529820977   F   F   F
  0.3750000008890453  0.1250000003143228  0.4008461529820977   F   F   F
  0.3750000008890453  0.3750000003143228  0.4008461529820977   F   F   F
  0.3750000008890453  0.6250000009429755  0.4008461529820977   F   F   F
  0.3750000008890453  0.8750000009429755  0.4008461529820977   F   F   F
  0.6250000017780906  0.1250000003143228  0.4008461529820977   F   F   F
  0.6250000017780906  0.3750000003143228  0.4008461529820977   F   F   F
  0.6250000017780906  0.6250000009429755  0.4008461529820977   F   F   F
  0.6250000026671358  0.8750000009429755  0.4008461529820977   F   F   F
  0.8750000026671358  0.1250000003143228  0.4008461529820977   F   F   F
  0.8750000026671358  0.3750000003143228  0.4008461529820977   F   F   F
  0.8750000035561882  0.6250000009429755  0.4008461529820977   F   F   F
  0.8750000026671358  0.8750000009429755  0.4008461529820977   F   F   F
  0.6241391820961246  0.4925069899807107  0.6561823384870537   T   T   T
  0.5528874329294257  0.4204520646270400  0.6567978582352929   T   T   T
  0.4288393428720683  0.4280215503977517  0.6568935465246085   T   T   T
  0.3758608463533601  0.5074930238496058  0.6561823384870537   T   T   T
  0.4471125448444139  0.5795479240572469  0.6567978582352929   T   T   T
  0.5711606606841132  0.5719784508595537  0.6568935465246085   T   T   T
  0.7432102859245285  0.4855852994638438  0.6573108483422363   T   T   T
  0.6032513950033352  0.3438005540605595  0.6619556863973516   T   T   T
  0.3605748262571832  0.3586128195215980  0.6624055685103479   T   T   T
  0.2567897176316598  0.5144147017934614  0.6573108483422363   T   T   T
  0.3967485427634171  0.6561994270799171  0.6619556863973516   T   T   T
  0.6394251524057013  0.6413871691626891  0.6624055685103479   T   T   T
 
  0.00000000E+00  0.00000000E+00  0.00000000E+00
  0.00000000E+00  0.00000000E+00  0.00000000E+00
  0.00000000E+00  0.00000000E+00  0.00000000E+00
  0.00000000E+00  0.00000000E+00  0.00000000E+00
  0.00000000E+00  0.00000000E+00  0.00000000E+00
  0.00000000E+00  0.00000000E+00  0.00000000E+00
  0.00000000E+00  0.00000000E+00  0.00000000E+00
  0.00000000E+00  0.00000000E+00  0.00000000E+00
  0.00000000E+00  0.00000000E+00  0.00000000E+00
  0.00000000E+00  0.00000000E+00  0.00000000E+00
  0.00000000E+00  0.00000000E+00  0.00000000E+00
  0.00000000E+00  0.00000000E+00  0.00000000E+00
  0.00000000E+00  0.00000000E+00  0.00000000E+00
  0.00000000E+00  0.00000000E+00  0.00000000E+00
  0.00000000E+00  0.00000000E+00  0.00000000E+00
  0.00000000E+00  0.00000000E+00  0.00000000E+00
  0.00000000E+00  0.00000000E+00  0.00000000E+00
  0.00000000E+00  0.00000000E+00  0.00000000E+00
  0.00000000E+00  0.00000000E+00  0.00000000E+00
  0.00000000E+00  0.00000000E+00  0.00000000E+00
  0.00000000E+00  0.00000000E+00  0.00000000E+00
  0.00000000E+00  0.00000000E+00  0.00000000E+00
  0.00000000E+00  0.00000000E+00  0.00000000E+00
  0.00000000E+00  0.00000000E+00  0.00000000E+00
  0.00000000E+00  0.00000000E+00  0.00000000E+00
  0.00000000E+00  0.00000000E+00  0.00000000E+00
  0.00000000E+00  0.00000000E+00  0.00000000E+00
  0.00000000E+00  0.00000000E+00  0.00000000E+00
  0.00000000E+00  0.00000000E+00  0.00000000E+00
  0.00000000E+00  0.00000000E+00  0.00000000E+00
  0.00000000E+00  0.00000000E+00  0.00000000E+00
  0.00000000E+00  0.00000000E+00  0.00000000E+00
  0.00000000E+00  0.00000000E+00  0.00000000E+00
  0.00000000E+00  0.00000000E+00  0.00000000E+00
  0.00000000E+00  0.00000000E+00  0.00000000E+00
  0.00000000E+00  0.00000000E+00  0.00000000E+00
  0.00000000E+00  0.00000000E+00  0.00000000E+00
  0.00000000E+00  0.00000000E+00  0.00000000E+00
  0.00000000E+00  0.00000000E+00  0.00000000E+00
  0.00000000E+00  0.00000000E+00  0.00000000E+00
  0.00000000E+00  0.00000000E+00  0.00000000E+00
  0.00000000E+00  0.00000000E+00  0.00000000E+00
  0.00000000E+00  0.00000000E+00  0.00000000E+00
  0.00000000E+00  0.00000000E+00  0.00000000E+00
  0.00000000E+00  0.00000000E+00  0.00000000E+00
  0.00000000E+00  0.00000000E+00  0.00000000E+00
  0.00000000E+00  0.00000000E+00  0.00000000E+00
  0.00000000E+00  0.00000000E+00  0.00000000E+00
  0.00000000E+00  0.00000000E+00  0.00000000E+00
  0.00000000E+00  0.00000000E+00  0.00000000E+00
  0.00000000E+00  0.00000000E+00  0.00000000E+00
  0.00000000E+00  0.00000000E+00  0.00000000E+00
  0.00000000E+00  0.00000000E+00  0.00000000E+00
  0.00000000E+00  0.00000000E+00  0.00000000E+00
  0.00000000E+00  0.00000000E+00  0.00000000E+00
  0.00000000E+00  0.00000000E+00  0.00000000E+00
  0.00000000E+00  0.00000000E+00  0.00000000E+00
  0.00000000E+00  0.00000000E+00  0.00000000E+00
  0.00000000E+00  0.00000000E+00  0.00000000E+00
  0.00000000E+00  0.00000000E+00  0.00000000E+00
  0.00000000E+00  0.00000000E+00  0.00000000E+00
  0.00000000E+00  0.00000000E+00  0.00000000E+00
  0.00000000E+00  0.00000000E+00  0.00000000E+00
  0.00000000E+00  0.00000000E+00  0.00000000E+00
  0.00000000E+00  0.00000000E+00  0.00000000E+00
  0.00000000E+00  0.00000000E+00  0.00000000E+00
  0.00000000E+00  0.00000000E+00  0.00000000E+00
  0.00000000E+00  0.00000000E+00  0.00000000E+00
  0.00000000E+00  0.00000000E+00  0.00000000E+00
  0.00000000E+00  0.00000000E+00  0.00000000E+00
  0.00000000E+00  0.00000000E+00  0.00000000E+00
  0.00000000E+00  0.00000000E+00  0.00000000E+00
  0.00000000E+00  0.00000000E+00  0.00000000E+00
  0.00000000E+00  0.00000000E+00  0.00000000E+00
  0.00000000E+00  0.00000000E+00  0.00000000E+00
  0.00000000E+00  0.00000000E+00  0.00000000E+00
