Ir  C  N Br                             
    1.000000000000000     
    10.9622135000000007    0.0000000000000000    0.0000000000000000
     0.0000000000000000   10.9622135000000007    0.0000000000000000
     0.0000000000000000    0.0000000000000000   23.8135916099999996
   Ir   C    N    Br
    64     4     2     4
Selective dynamics
Direct
  0.0000000000000000  0.2499999995438884  0.3149461921926360   F   F   F
  0.7499999986316652  0.7499999986316652  0.3149461921926360   F   F   F
  0.0000000000000000  0.4999999990877768  0.3149461921926360   F   F   F
  0.0000000000000000  0.7499999986316652  0.3149461921926360   F   F   F
  0.0000000000000000  0.0000000000000000  0.3149461921926360   F   F   F
  0.2499999995438884  0.2499999995438884  0.3149461921926360   F   F   F
  0.2499999995438884  0.4999999990877768  0.3149461921926360   F   F   F
  0.7499999986316652  0.0000000000000000  0.3149461921926360   F   F   F
  0.2499999995438884  0.7499999986316652  0.3149461921926360   F   F   F
  0.2499999995438884  0.0000000000000000  0.3149461921926360   F   F   F
  0.4999999990877768  0.2499999995438884  0.3149461921926360   F   F   F
  0.4999999990877768  0.4999999990877768  0.3149461921926360   F   F   F
  0.4999999990877768  0.7499999986316652  0.3149461921926360   F   F   F
  0.4999999990877768  0.0000000000000000  0.3149461921926360   F   F   F
  0.7499999986316652  0.2499999995438884  0.3149461921926360   F   F   F
  0.7499999986316652  0.4999999990877768  0.3149461921926360   F   F   F
 -0.0005465753406049  0.2521227345275726  0.4787282193663531   T   T   T
 -0.0001389542912204  0.4999072761627499  0.4786272086247521   T   T   T
  0.0001678824521765  0.7477420094929823  0.4787409871358235   T   T   T
 -0.0002562754799298  0.0000037339170458  0.4776171499070632   T   T   T
  0.2499084483334649  0.2501585469291150  0.4782854382656876   T   T   T
  0.2492696267054870  0.5004339280801424  0.4778773566228162   T   T   T
  0.2508916336854476  0.7489294411914230  0.4787568301883617   T   T   T
  0.2519435445508629 -0.0001762933955495  0.4787057064850808   T   T   T
  0.5001706810890998  0.2494488916961427  0.4779090934919853   T   T   T
  0.4997278402838805  0.4998901464181731  0.4782590404791716   T   T   T
  0.4993173784496307  0.7507139624580446  0.4777629756461145   T   T   T
  0.4997056687868773  0.0000988927061868  0.4786182062856563   T   T   T
  0.7484924501005643  0.2511066458893406  0.4789017705063106   T   T   T
  0.7504664269133362  0.4993345402609020  0.4778337160289545   T   T   T
  0.7499573232089051  0.7501079765917678  0.4781217102604728   T   T   T
  0.7474890518101504  0.0004611594734512  0.4788338960380258   T   T   T
  0.1228603874345295  0.1231841233451893  0.5562497378422554   T   T   T
  0.1238213322531314  0.3691208535929021  0.5585095664233547   T   T   T
  0.1253279130680547  0.6303385927178603  0.5589547420556668   T   T   T
  0.1234187535208917  0.8762931562085859  0.5563456412257414   T   T   T
  0.3686141127395165  0.1240150244171967  0.5584877217936323   T   T   T
  0.3699296289739699  0.3702201943399990  0.5559292571637086   T   T   T
  0.3744101712066073  0.6258818182948636  0.5627140680661274   T   T   T
  0.3692731196640141  0.8746893566040377  0.5589424113558636   T   T   T
  0.6295851802083693  0.1255444699383628  0.5591763131969161   T   T   T
  0.6253498557002697  0.3746431149644691  0.5629642364918036   T   T   T
  0.6300351330931890  0.6303244564434156  0.5551936850529178   T   T   T
  0.6304361491680461  0.8761097500946170  0.5585375459891493   T   T   T
  0.8760076976066439  0.1236649167936161  0.5564061717287697   T   T   T
  0.8743984682194098  0.3695034544194013  0.5590200380093787   T   T   T
  0.8759473014195969  0.6304815616587016  0.5584960234718562   T   T   T
  0.8765359561265781  0.8767476406781067  0.5562155527942356   T   T   T
  0.1250000002280558  0.1250000002280558  0.3963225717718615   F   F   F
  0.1250000002280558  0.3749999997719442  0.3963225717718615   F   F   F
  0.1250000002280558  0.6249999993158326  0.3963225717718615   F   F   F
  0.1250000002280558  0.8749999988597210  0.3963225717718615   F   F   F
  0.3749999997719442  0.1250000002280558  0.3963225717718615   F   F   F
  0.3749999997719442  0.3749999997719442  0.3963225717718615   F   F   F
  0.3749999997719442  0.6249999993158326  0.3963225717718615   F   F   F
  0.3749999997719442  0.8749999988597210  0.3963225717718615   F   F   F
  0.6249999993158326  0.1250000002280558  0.3963225717718615   F   F   F
  0.6249999993158326  0.3749999997719442  0.3963225717718615   F   F   F
  0.6249999993158326  0.6249999993158326  0.3963225717718615   F   F   F
  0.6249999993158326  0.8749999988597210  0.3963225717718615   F   F   F
  0.8749999988597210  0.1250000002280558  0.3963225717718615   F   F   F
  0.8749999988597210  0.3749999997719442  0.3963225717718615   F   F   F
  0.8749999988597210  0.6249999993158326  0.3963225717718615   F   F   F
  0.8749999988597210  0.8749999988597210  0.3963225717718615   F   F   F
  0.5300859190996413  0.3848490434743602  0.6359850966174345   T   T   T
  0.6185301434428740  0.4733585791087920  0.6355713353697219   T   T   T
  0.4727809380007905  0.6194896184344473  0.6355222738312321   T   T   T
  0.3841609007082691  0.5310237961092629  0.6358239554823546   T   T   T
  0.5975185274395141  0.5981394315073328  0.6387222378748150   T   T   T
  0.4053885687889328  0.4063413820009414  0.6390944019430780   T   T   T
  0.1392184703793664  0.4985623664819612  0.6451264250701908   T   T   T
  0.5002767112319431  0.8604185636080949  0.6451857347173857   T   T   T
  0.4967755921396848  0.1393123935833512  0.6455161923864380   T   T   T
  0.8599118011124448  0.5002795301385791  0.6452334674104129   T   T   T
 
  0.00000000E+00  0.00000000E+00  0.00000000E+00
  0.00000000E+00  0.00000000E+00  0.00000000E+00
  0.00000000E+00  0.00000000E+00  0.00000000E+00
  0.00000000E+00  0.00000000E+00  0.00000000E+00
  0.00000000E+00  0.00000000E+00  0.00000000E+00
  0.00000000E+00  0.00000000E+00  0.00000000E+00
  0.00000000E+00  0.00000000E+00  0.00000000E+00
  0.00000000E+00  0.00000000E+00  0.00000000E+00
  0.00000000E+00  0.00000000E+00  0.00000000E+00
  0.00000000E+00  0.00000000E+00  0.00000000E+00
  0.00000000E+00  0.00000000E+00  0.00000000E+00
  0.00000000E+00  0.00000000E+00  0.00000000E+00
  0.00000000E+00  0.00000000E+00  0.00000000E+00
  0.00000000E+00  0.00000000E+00  0.00000000E+00
  0.00000000E+00  0.00000000E+00  0.00000000E+00
  0.00000000E+00  0.00000000E+00  0.00000000E+00
  0.00000000E+00  0.00000000E+00  0.00000000E+00
  0.00000000E+00  0.00000000E+00  0.00000000E+00
  0.00000000E+00  0.00000000E+00  0.00000000E+00
  0.00000000E+00  0.00000000E+00  0.00000000E+00
  0.00000000E+00  0.00000000E+00  0.00000000E+00
  0.00000000E+00  0.00000000E+00  0.00000000E+00
  0.00000000E+00  0.00000000E+00  0.00000000E+00
  0.00000000E+00  0.00000000E+00  0.00000000E+00
  0.00000000E+00  0.00000000E+00  0.00000000E+00
  0.00000000E+00  0.00000000E+00  0.00000000E+00
  0.00000000E+00  0.00000000E+00  0.00000000E+00
  0.00000000E+00  0.00000000E+00  0.00000000E+00
  0.00000000E+00  0.00000000E+00  0.00000000E+00
  0.00000000E+00  0.00000000E+00  0.00000000E+00
  0.00000000E+00  0.00000000E+00  0.00000000E+00
  0.00000000E+00  0.00000000E+00  0.00000000E+00
  0.00000000E+00  0.00000000E+00  0.00000000E+00
  0.00000000E+00  0.00000000E+00  0.00000000E+00
  0.00000000E+00  0.00000000E+00  0.00000000E+00
  0.00000000E+00  0.00000000E+00  0.00000000E+00
  0.00000000E+00  0.00000000E+00  0.00000000E+00
  0.00000000E+00  0.00000000E+00  0.00000000E+00
  0.00000000E+00  0.00000000E+00  0.00000000E+00
  0.00000000E+00  0.00000000E+00  0.00000000E+00
  0.00000000E+00  0.00000000E+00  0.00000000E+00
  0.00000000E+00  0.00000000E+00  0.00000000E+00
  0.00000000E+00  0.00000000E+00  0.00000000E+00
  0.00000000E+00  0.00000000E+00  0.00000000E+00
  0.00000000E+00  0.00000000E+00  0.00000000E+00
  0.00000000E+00  0.00000000E+00  0.00000000E+00
  0.00000000E+00  0.00000000E+00  0.00000000E+00
  0.00000000E+00  0.00000000E+00  0.00000000E+00
  0.00000000E+00  0.00000000E+00  0.00000000E+00
  0.00000000E+00  0.00000000E+00  0.00000000E+00
  0.00000000E+00  0.00000000E+00  0.00000000E+00
  0.00000000E+00  0.00000000E+00  0.00000000E+00
  0.00000000E+00  0.00000000E+00  0.00000000E+00
  0.00000000E+00  0.00000000E+00  0.00000000E+00
  0.00000000E+00  0.00000000E+00  0.00000000E+00
  0.00000000E+00  0.00000000E+00  0.00000000E+00
  0.00000000E+00  0.00000000E+00  0.00000000E+00
  0.00000000E+00  0.00000000E+00  0.00000000E+00
  0.00000000E+00  0.00000000E+00  0.00000000E+00
  0.00000000E+00  0.00000000E+00  0.00000000E+00
  0.00000000E+00  0.00000000E+00  0.00000000E+00
  0.00000000E+00  0.00000000E+00  0.00000000E+00
  0.00000000E+00  0.00000000E+00  0.00000000E+00
  0.00000000E+00  0.00000000E+00  0.00000000E+00
  0.00000000E+00  0.00000000E+00  0.00000000E+00
  0.00000000E+00  0.00000000E+00  0.00000000E+00
  0.00000000E+00  0.00000000E+00  0.00000000E+00
  0.00000000E+00  0.00000000E+00  0.00000000E+00
  0.00000000E+00  0.00000000E+00  0.00000000E+00
  0.00000000E+00  0.00000000E+00  0.00000000E+00
  0.00000000E+00  0.00000000E+00  0.00000000E+00
  0.00000000E+00  0.00000000E+00  0.00000000E+00
  0.00000000E+00  0.00000000E+00  0.00000000E+00
  0.00000000E+00  0.00000000E+00  0.00000000E+00
