Cu48 C6 H2 F4                           
    1.000000000000000     
    10.2424774999999997    0.0000000000000000    0.0000000000000000
     0.0000000000000000   10.2424774999999997    0.0000000000000000
     0.0000000000000000    0.0000000000000000   16.5490465200000010
   Cu   C    H    F 
    48     6     2     4
Selective dynamics
Direct
  0.2499209974262016  0.9999616289197419  0.4092772416604831   T   T   T
  0.2501044815479858  0.2501035579129223  0.4093398474007870   T   T   T
  0.2498659748199614  0.4996495943705455  0.4092630880826817   T   T   T
  0.2497966800459110  0.7502051570022417  0.4092081414708204   T   T   T
  0.4999996094126047  0.0000004184148850  0.4093167652857232   T   T   T
  0.4996533114650887  0.2498668024130026  0.4092606185464049   T   T   T
  0.5000022950888052  0.4999972459926454  0.4092476339590050   T   T   T
  0.5003478273948758  0.7501342759933678  0.4092589728481784   T   T   T
  0.7500776856493303  0.0000390327557653  0.4092746191749796   T   T   T
  0.7502004380010945  0.2497985355088588  0.4092055982194509   T   T   T
  0.7501315098372174  0.5003452194221367  0.4092636560272709   T   T   T
  0.7498949585336234  0.7498953926352314  0.4093398616775374   T   T   T
  0.0000000384199481  0.9999997100314957  0.4093524321112199   T   T   T
  0.9999608321444242  0.2499212815220062  0.4092770270158752   T   T   T
  0.9999977919763694  0.4999985128954378  0.4093238812957267   T   T   T
  0.0000372925981011  0.7500799458240337  0.4092819717070881   T   T   T
  0.1251533959105871  0.1251526443594102  0.5165713768785594   T   T   T
  0.1249641251561897  0.3747826381726753  0.5162961453943709   T   T   T
  0.1249439082439281  0.6248950312491175  0.5165258588625079   T   T   T
  0.1249381571829673  0.8750596561075028  0.5165507028010126   T   T   T
  0.3747831981009853  0.1249657669115720  0.5162946043091452   T   T   T
  0.3748442270665819  0.3748424138412929  0.5171979152085555   T   T   T
  0.3750209608116606  0.6249747665926151  0.5150604115176876   T   T   T
  0.3751041947274913  0.8750544374767273  0.5165240478435251   T   T   T
  0.6248931579602086  0.1249461448443867  0.5165255102734747   T   T   T
  0.6249758687424247  0.3750204431600608  0.5150739229794254   T   T   T
  0.6251564893623183  0.6251551130328394  0.5171968546301215   T   T   T
  0.6252184552263245  0.8750359742414986  0.5162927853235431   T   T   T
  0.8750585777867883  0.1249397328235133  0.5165539149991929   T   T   T
  0.8750526381137647  0.3751059022627956  0.5165277462278723   T   T   T
  0.8750350263379900  0.6252174017557977  0.5162961647900204   T   T   T
  0.8748468747862290  0.8748457168907962  0.5165709136687013   T   T   T
  0.1250000002440785  0.1249999992677573  0.3021322100918269   F   F   F
  0.1250000002440785  0.3749999997559215  0.3021322100918269   F   F   F
  0.1250000002440785  0.6249999982914289  0.3021322100918269   F   F   F
  0.1250000002440785  0.8749999987795931  0.3021322100918269   F   F   F
  0.3749999997559215  0.1249999992677573  0.3021322100918269   F   F   F
  0.3749999997559215  0.3749999997559215  0.3021322100918269   F   F   F
  0.3749999997559215  0.6249999982914289  0.3021322100918269   F   F   F
  0.3749999997559215  0.8749999987795931  0.3021322100918269   F   F   F
  0.6249999982914289  0.1249999992677573  0.3021322100918269   F   F   F
  0.6249999982914289  0.3749999997559215  0.3021322100918269   F   F   F
  0.6249999992677573  0.6249999982914289  0.3021322100918269   F   F   F
  0.6249999992677573  0.8749999987795931  0.3021322100918269   F   F   F
  0.8749999987795931  0.1249999992677573  0.3021322100918269   F   F   F
  0.8749999978032648  0.3749999997559215  0.3021322100918269   F   F   F
  0.8749999987795931  0.6249999982914289  0.3021322100918269   F   F   F
  0.8749999987795931  0.8749999987795931  0.3021322100918269   F   F   F
  0.5972741609125265  0.5972728699747165  0.6957710529801275   T   T   T
  0.6310027406125798  0.4654600034141154  0.6964850029263090   T   T   T
  0.5346091722609998  0.3690837921521961  0.6965022472310451   T   T   T
  0.4027898428059657  0.4027726130768059  0.6957983494436704   T   T   T
  0.3690506971015495  0.5345970171521515  0.6964479211016439   T   T   T
  0.4654611983049293  0.6309780369470701  0.6964295438607806   T   T   T
  0.6724618149353532  0.6724760682235456  0.6976158826676624   T   T   T
  0.3275771442483659  0.3275530803866289  0.6976422264712312   T   T   T
  0.7581895941340022  0.4305534188285520  0.6990537526612286   T   T   T
  0.5694798989204628  0.2418052047158099  0.6990790157570999   T   T   T
  0.2418087580077639  0.5694381173659764  0.6989842777562245   T   T   T
  0.4305196045307511  0.7582347372072533  0.6989582503816152   T   T   T
 
  0.00000000E+00  0.00000000E+00  0.00000000E+00
  0.00000000E+00  0.00000000E+00  0.00000000E+00
  0.00000000E+00  0.00000000E+00  0.00000000E+00
  0.00000000E+00  0.00000000E+00  0.00000000E+00
  0.00000000E+00  0.00000000E+00  0.00000000E+00
  0.00000000E+00  0.00000000E+00  0.00000000E+00
  0.00000000E+00  0.00000000E+00  0.00000000E+00
  0.00000000E+00  0.00000000E+00  0.00000000E+00
  0.00000000E+00  0.00000000E+00  0.00000000E+00
  0.00000000E+00  0.00000000E+00  0.00000000E+00
  0.00000000E+00  0.00000000E+00  0.00000000E+00
  0.00000000E+00  0.00000000E+00  0.00000000E+00
  0.00000000E+00  0.00000000E+00  0.00000000E+00
  0.00000000E+00  0.00000000E+00  0.00000000E+00
  0.00000000E+00  0.00000000E+00  0.00000000E+00
  0.00000000E+00  0.00000000E+00  0.00000000E+00
  0.00000000E+00  0.00000000E+00  0.00000000E+00
  0.00000000E+00  0.00000000E+00  0.00000000E+00
  0.00000000E+00  0.00000000E+00  0.00000000E+00
  0.00000000E+00  0.00000000E+00  0.00000000E+00
  0.00000000E+00  0.00000000E+00  0.00000000E+00
  0.00000000E+00  0.00000000E+00  0.00000000E+00
  0.00000000E+00  0.00000000E+00  0.00000000E+00
  0.00000000E+00  0.00000000E+00  0.00000000E+00
  0.00000000E+00  0.00000000E+00  0.00000000E+00
  0.00000000E+00  0.00000000E+00  0.00000000E+00
  0.00000000E+00  0.00000000E+00  0.00000000E+00
  0.00000000E+00  0.00000000E+00  0.00000000E+00
  0.00000000E+00  0.00000000E+00  0.00000000E+00
  0.00000000E+00  0.00000000E+00  0.00000000E+00
  0.00000000E+00  0.00000000E+00  0.00000000E+00
  0.00000000E+00  0.00000000E+00  0.00000000E+00
  0.00000000E+00  0.00000000E+00  0.00000000E+00
  0.00000000E+00  0.00000000E+00  0.00000000E+00
  0.00000000E+00  0.00000000E+00  0.00000000E+00
  0.00000000E+00  0.00000000E+00  0.00000000E+00
  0.00000000E+00  0.00000000E+00  0.00000000E+00
  0.00000000E+00  0.00000000E+00  0.00000000E+00
  0.00000000E+00  0.00000000E+00  0.00000000E+00
  0.00000000E+00  0.00000000E+00  0.00000000E+00
  0.00000000E+00  0.00000000E+00  0.00000000E+00
  0.00000000E+00  0.00000000E+00  0.00000000E+00
  0.00000000E+00  0.00000000E+00  0.00000000E+00
  0.00000000E+00  0.00000000E+00  0.00000000E+00
  0.00000000E+00  0.00000000E+00  0.00000000E+00
  0.00000000E+00  0.00000000E+00  0.00000000E+00
  0.00000000E+00  0.00000000E+00  0.00000000E+00
  0.00000000E+00  0.00000000E+00  0.00000000E+00
  0.00000000E+00  0.00000000E+00  0.00000000E+00
  0.00000000E+00  0.00000000E+00  0.00000000E+00
  0.00000000E+00  0.00000000E+00  0.00000000E+00
  0.00000000E+00  0.00000000E+00  0.00000000E+00
  0.00000000E+00  0.00000000E+00  0.00000000E+00
  0.00000000E+00  0.00000000E+00  0.00000000E+00
  0.00000000E+00  0.00000000E+00  0.00000000E+00
  0.00000000E+00  0.00000000E+00  0.00000000E+00
  0.00000000E+00  0.00000000E+00  0.00000000E+00
  0.00000000E+00  0.00000000E+00  0.00000000E+00
  0.00000000E+00  0.00000000E+00  0.00000000E+00
  0.00000000E+00  0.00000000E+00  0.00000000E+00
