Pt  C  H  F                             
    1.000000000000000     
    11.2480068000000006    0.0000000000000000    0.0000000000000000
     0.0000000000000000   11.2480068000000006    0.0000000000000000
     0.0000000000000000    0.0000000000000000   23.9651564400000012
   Pt   C    H    F 
    64     6     4     2
Selective dynamics
Direct
  0.2500000008890453  0.0000000000000000  0.3129543518222917   F   F   F
  0.0000000000000000  0.5000000017780906  0.3129543518222917   F   F   F
  0.2500000008890453  0.2500000008890453  0.3129543518222917   F   F   F
  0.2500000008890453  0.5000000017780906  0.3129543518222917   F   F   F
  0.2500000008890453  0.7500000026671358  0.3129543518222917   F   F   F
  0.5000000017780906  0.0000000000000000  0.3129543518222917   F   F   F
  0.5000000017780906  0.2500000008890453  0.3129543518222917   F   F   F
  0.0000000000000000  0.7500000026671358  0.3129543518222917   F   F   F
  0.5000000017780906  0.5000000017780906  0.3129543518222917   F   F   F
  0.5000000017780906  0.7500000026671358  0.3129543518222917   F   F   F
  0.7500000026671358  0.0000000000000000  0.3129543518222917   F   F   F
  0.7500000026671358  0.2500000008890453  0.3129543518222917   F   F   F
  0.7500000026671358  0.5000000017780906  0.3129543518222917   F   F   F
  0.7500000026671358  0.7500000026671358  0.3129543518222917   F   F   F
  0.0000000000000000  0.0000000000000000  0.3129543518222917   F   F   F
  0.0000000000000000  0.2500000008890453  0.3129543518222917   F   F   F
  0.2499566658610378  0.9999020389702498  0.4782242109478740   T   T   T
  0.2501976567357504  0.2502008801730556  0.4781784246932206   T   T   T
  0.2503571471242086  0.5005525643780515  0.4783461828812496   T   T   T
  0.2503207074552460  0.7496897581732980  0.4784889349776056   T   T   T
  0.5000014170808501  0.9999980946422948  0.4781787276032131   T   T   T
  0.5005520835613266  0.2503444140512083  0.4783491916891019   T   T   T
  0.5000158538707856  0.4999986352323474  0.4788083305803403   T   T   T
  0.4994561981743266  0.7496505454562212  0.4783509722487613   T   T   T
  0.7500405794927536  0.0000962586612980  0.4782208807691510   T   T   T
  0.7496770689384840  0.2503225758883885  0.4784905918768986   T   T   T
  0.7496573336421474  0.4994520810754601  0.4783536528379791   T   T   T
  0.7498016659740234  0.7497858575668329  0.4781816789710880   T   T   T
 -0.0000001686480128 -0.0000124402775475  0.4782098810907076   T   T   T
  0.9998914614052309  0.2499464230595488  0.4782290273080814   T   T   T
  0.0000004603072627  0.5000055908530235  0.4781780873521332   T   T   T
  0.0001101551007927  0.7500508466552708  0.4782264528708935   T   T   T
  0.1250878760550670  0.1250977470961176  0.5599175407246292   T   T   T
  0.1248256764589132  0.3752668515262439  0.5599672428549323   T   T   T
  0.1245395784565560  0.6248848655757501  0.5601453481748943   T   T   T
  0.1250598206175203  0.8749406151015484  0.5600323347145492   T   T   T
  0.3752592609891942  0.1248237088604751  0.5599652358169751   T   T   T
  0.3746323422547060  0.3746330223917355  0.5598180150357183   T   T   T
  0.3737791424619488  0.6262280463041104  0.5616576959786738   T   T   T
  0.3751135767903051  0.8754768144579250  0.5601473209476304   T   T   T
  0.6248881448774697  0.1245369356399937  0.5601475224010314   T   T   T
  0.6262299615310167  0.3737688654990067  0.5616788171496618   T   T   T
  0.6253744791116405  0.6253780523899162  0.5598303792996893   T   T   T
  0.6247418374072412  0.8751836292968646  0.5599731530143817   T   T   T
  0.8749356082460669  0.1250651098455750  0.5600300642812774   T   T   T
  0.8754661801466815  0.3751169019881221  0.5601524908130217   T   T   T
  0.8751834245536030  0.6247442066028428  0.5599726435470936   T   T   T
  0.8749058038152171  0.8749068696496074  0.5599205642729550   T   T   T
  0.1250000008890453  0.1250000000000000  0.3959242036977884   F   F   F
  0.1250000008890453  0.3750000008890453  0.3959242036977884   F   F   F
  0.1250000008890453  0.6250000026671358  0.3959242036977884   F   F   F
  0.1250000008890453  0.8750000026671358  0.3959242036977884   F   F   F
  0.3750000017780906  0.1250000000000000  0.3959242036977884   F   F   F
  0.3750000017780906  0.3750000008890453  0.3959242036977884   F   F   F
  0.3750000017780906  0.6250000026671358  0.3959242036977884   F   F   F
  0.3750000017780906  0.8750000026671358  0.3959242036977884   F   F   F
  0.6250000026671358  0.1250000000000000  0.3959242036977884   F   F   F
  0.6250000026671358  0.3750000008890453  0.3959242036977884   F   F   F
  0.6250000026671358  0.6250000026671358  0.3959242036977884   F   F   F
  0.6250000026671358  0.8750000026671358  0.3959242036977884   F   F   F
  0.8750000035561882  0.1250000000000000  0.3959242036977884   F   F   F
  0.8750000026671358  0.3750000008890453  0.3959242036977884   F   F   F
  0.8750000035561882  0.6250000026671358  0.3959242036977884   F   F   F
  0.8750000035561882  0.8750000026671358  0.3959242036977884   F   F   F
  0.4135609279342554  0.4135679652165419  0.6834218447815043   T   T   T
  0.3790056377277574  0.5328247846573297  0.6822739645502540   T   T   T
  0.4671531949815907  0.6210030439709290  0.6822830896680347   T   T   T
  0.5864621868457072  0.5864352871992661  0.6834402579630318   T   T   T
  0.6210047615715589  0.4671461400546874  0.6822903144980956   T   T   T
  0.5328337202139276  0.3789921966807799  0.6822813074324886   T   T   T
  0.2850233269629234  0.5560652608264366  0.6837895225696081   T   T   T
  0.4439979704355640  0.7150067858570150  0.6838142522045532   T   T   T
  0.7150091424365608  0.4439733932617465  0.6838121851101644   T   T   T
  0.5560509364540784  0.2850312248002765  0.6837830606931610   T   T   T
  0.3284764913850532  0.3284927701987165  0.6896556206133208   T   T   T
  0.6715683934968095  0.6715525428876069  0.6897042237166936   T   T   T
 
  0.00000000E+00  0.00000000E+00  0.00000000E+00
  0.00000000E+00  0.00000000E+00  0.00000000E+00
  0.00000000E+00  0.00000000E+00  0.00000000E+00
  0.00000000E+00  0.00000000E+00  0.00000000E+00
  0.00000000E+00  0.00000000E+00  0.00000000E+00
  0.00000000E+00  0.00000000E+00  0.00000000E+00
  0.00000000E+00  0.00000000E+00  0.00000000E+00
  0.00000000E+00  0.00000000E+00  0.00000000E+00
  0.00000000E+00  0.00000000E+00  0.00000000E+00
  0.00000000E+00  0.00000000E+00  0.00000000E+00
  0.00000000E+00  0.00000000E+00  0.00000000E+00
  0.00000000E+00  0.00000000E+00  0.00000000E+00
  0.00000000E+00  0.00000000E+00  0.00000000E+00
  0.00000000E+00  0.00000000E+00  0.00000000E+00
  0.00000000E+00  0.00000000E+00  0.00000000E+00
  0.00000000E+00  0.00000000E+00  0.00000000E+00
  0.00000000E+00  0.00000000E+00  0.00000000E+00
  0.00000000E+00  0.00000000E+00  0.00000000E+00
  0.00000000E+00  0.00000000E+00  0.00000000E+00
  0.00000000E+00  0.00000000E+00  0.00000000E+00
  0.00000000E+00  0.00000000E+00  0.00000000E+00
  0.00000000E+00  0.00000000E+00  0.00000000E+00
  0.00000000E+00  0.00000000E+00  0.00000000E+00
  0.00000000E+00  0.00000000E+00  0.00000000E+00
  0.00000000E+00  0.00000000E+00  0.00000000E+00
  0.00000000E+00  0.00000000E+00  0.00000000E+00
  0.00000000E+00  0.00000000E+00  0.00000000E+00
  0.00000000E+00  0.00000000E+00  0.00000000E+00
  0.00000000E+00  0.00000000E+00  0.00000000E+00
  0.00000000E+00  0.00000000E+00  0.00000000E+00
  0.00000000E+00  0.00000000E+00  0.00000000E+00
  0.00000000E+00  0.00000000E+00  0.00000000E+00
  0.00000000E+00  0.00000000E+00  0.00000000E+00
  0.00000000E+00  0.00000000E+00  0.00000000E+00
  0.00000000E+00  0.00000000E+00  0.00000000E+00
  0.00000000E+00  0.00000000E+00  0.00000000E+00
  0.00000000E+00  0.00000000E+00  0.00000000E+00
  0.00000000E+00  0.00000000E+00  0.00000000E+00
  0.00000000E+00  0.00000000E+00  0.00000000E+00
  0.00000000E+00  0.00000000E+00  0.00000000E+00
  0.00000000E+00  0.00000000E+00  0.00000000E+00
  0.00000000E+00  0.00000000E+00  0.00000000E+00
  0.00000000E+00  0.00000000E+00  0.00000000E+00
  0.00000000E+00  0.00000000E+00  0.00000000E+00
  0.00000000E+00  0.00000000E+00  0.00000000E+00
  0.00000000E+00  0.00000000E+00  0.00000000E+00
  0.00000000E+00  0.00000000E+00  0.00000000E+00
  0.00000000E+00  0.00000000E+00  0.00000000E+00
  0.00000000E+00  0.00000000E+00  0.00000000E+00
  0.00000000E+00  0.00000000E+00  0.00000000E+00
  0.00000000E+00  0.00000000E+00  0.00000000E+00
  0.00000000E+00  0.00000000E+00  0.00000000E+00
  0.00000000E+00  0.00000000E+00  0.00000000E+00
  0.00000000E+00  0.00000000E+00  0.00000000E+00
  0.00000000E+00  0.00000000E+00  0.00000000E+00
  0.00000000E+00  0.00000000E+00  0.00000000E+00
  0.00000000E+00  0.00000000E+00  0.00000000E+00
  0.00000000E+00  0.00000000E+00  0.00000000E+00
  0.00000000E+00  0.00000000E+00  0.00000000E+00
  0.00000000E+00  0.00000000E+00  0.00000000E+00
  0.00000000E+00  0.00000000E+00  0.00000000E+00
  0.00000000E+00  0.00000000E+00  0.00000000E+00
  0.00000000E+00  0.00000000E+00  0.00000000E+00
  0.00000000E+00  0.00000000E+00  0.00000000E+00
  0.00000000E+00  0.00000000E+00  0.00000000E+00
  0.00000000E+00  0.00000000E+00  0.00000000E+00
  0.00000000E+00  0.00000000E+00  0.00000000E+00
  0.00000000E+00  0.00000000E+00  0.00000000E+00
  0.00000000E+00  0.00000000E+00  0.00000000E+00
  0.00000000E+00  0.00000000E+00  0.00000000E+00
  0.00000000E+00  0.00000000E+00  0.00000000E+00
  0.00000000E+00  0.00000000E+00  0.00000000E+00
  0.00000000E+00  0.00000000E+00  0.00000000E+00
  0.00000000E+00  0.00000000E+00  0.00000000E+00
  0.00000000E+00  0.00000000E+00  0.00000000E+00
  0.00000000E+00  0.00000000E+00  0.00000000E+00
