Pd  C  H Cl                             
    1.000000000000000     
    11.1817229999999999    0.0000000000000000    0.0000000000000000
     0.0000000000000000   11.1817229999999999    0.0000000000000000
     0.0000000000000000    0.0000000000000000   23.9300040900000006
   Pd   C    H    Cl
    64     6     2     4
Selective dynamics
Direct
  0.0000000000000000  0.2499999991056825  0.3134140709626578   F   F   F
  0.7499999973170475  0.7499999973170475  0.3134140709626578   F   F   F
  0.0000000000000000  0.4999999982113650  0.3134140709626578   F   F   F
  0.0000000000000000  0.7499999973170475  0.3134140709626578   F   F   F
  0.0000000000000000  0.0000000000000000  0.3134140709626578   F   F   F
  0.2499999991056825  0.2499999991056825  0.3134140709626578   F   F   F
  0.2499999991056825  0.4999999982113650  0.3134140709626578   F   F   F
  0.7499999973170475  0.0000000000000000  0.3134140709626578   F   F   F
  0.2499999991056825  0.7499999973170475  0.3134140709626578   F   F   F
  0.2499999991056825  0.0000000000000000  0.3134140709626578   F   F   F
  0.4999999982113650  0.2499999991056825  0.3134140709626578   F   F   F
  0.4999999982113650  0.4999999982113650  0.3134140709626578   F   F   F
  0.4999999982113650  0.7499999973170475  0.3134140709626578   F   F   F
  0.4999999982113650  0.0000000000000000  0.3134140709626578   F   F   F
  0.7499999973170475  0.2499999991056825  0.3134140709626578   F   F   F
  0.7499999973170475  0.4999999982113650  0.3134140709626578   F   F   F
  0.9971889634086492  0.2503878294638230  0.4769732594987467   T   T   T
  0.9999564795658770  0.4999964976251053  0.4766836384673926   T   T   T
  0.0028256810410763  0.7496518676824883  0.4769610505400094   T   T   T
  0.9999902839226169  0.0000113162007238  0.4764277537538375   T   T   T
  0.2493535213006695  0.2493645397890155  0.4766296067876430   T   T   T
  0.2519246296652354  0.5003750374946923  0.4780869546810306   T   T   T
  0.2532796439732223  0.7467174421011730  0.4786867863885851   T   T   T
  0.2503755647154720  0.9972062731181907  0.4769720768866594   T   T   T
  0.5003685482749602  0.2519134009134055  0.4780946903206871   T   T   T
  0.4999769249839491  0.4999987416087648  0.4777584776821563   T   T   T
  0.4996115087077975  0.7480804145006514  0.4780944819324738   T   T   T
  0.4999994415775567  0.9999924622126550  0.4766938084195336   T   T   T
  0.7467027424770895  0.2532827135677699  0.4786810473729551   T   T   T
  0.7480489882646976  0.4996133647946152  0.4780910792608296   T   T   T
  0.7506270713944669  0.7506194576913049  0.4766275401016780   T   T   T
  0.7495917118419253  0.0028779647857919  0.4769475212314917   T   T   T
  0.1238262190999250  0.1238510604739294  0.5581489678072713   T   T   T
  0.1217874975160604  0.3723405352815368  0.5578559249943592   T   T   T
  0.1244531037802309  0.6234327358692154  0.5598557901319451   T   T   T
  0.1248223907897905  0.8752152147895913  0.5580905780185621   T   T   T
  0.3723499169811449  0.1218399524651108  0.5578598184865015   T   T   T
  0.3670152304197628  0.3670299617339784  0.5613831024180481   T   T   T
  0.3786858022893141  0.6212477101627462  0.5660100390679995   T   T   T
  0.3765380544911040  0.8755031841378118  0.5598741264394783   T   T   T
  0.6234485019880910  0.1244901533745564  0.5598696115128285   T   T   T
  0.6212694418810145  0.3787262411066660  0.5659863417778875   T   T   T
  0.6329633524887319  0.6329810770054279  0.5613686977394599   T   T   T
  0.6276800941419758  0.8782052225959777  0.5578569533864060   T   T   T
  0.8751999262705096  0.1247803420995859  0.5580958863392687   T   T   T
  0.8754823255363692  0.3765489716793253  0.5598699151906933   T   T   T
  0.8781586367513208  0.6276653367840153  0.5578617828622611   T   T   T
  0.8761340817816106  0.8761543164534595  0.5581672511967882   T   T   T
  0.1249999995528412  0.1249999995528412  0.3960161475258630   F   F   F
  0.1249999995528412  0.3749999986585237  0.3960161475258630   F   F   F
  0.1249999995528412  0.6249999977642062  0.3960161475258630   F   F   F
  0.1249999995528412  0.8749999968698887  0.3960161475258630   F   F   F
  0.3749999986585237  0.1249999995528412  0.3960161475258630   F   F   F
  0.3749999986585237  0.3749999986585237  0.3960161475258630   F   F   F
  0.3749999986585237  0.6249999977642062  0.3960161475258630   F   F   F
  0.3749999986585237  0.8749999968698887  0.3960161475258630   F   F   F
  0.6249999977642062  0.1249999995528412  0.3960161475258630   F   F   F
  0.6249999977642062  0.3749999986585237  0.3960161475258630   F   F   F
  0.6249999977642062  0.6249999977642062  0.3960161475258630   F   F   F
  0.6249999977642062  0.8749999968698887  0.3960161475258630   F   F   F
  0.8749999968698887  0.1249999995528412  0.3960161475258630   F   F   F
  0.8749999968698887  0.3749999986585237  0.3960161475258630   F   F   F
  0.8749999968698887  0.6249999977642062  0.3960161475258630   F   F   F
  0.8749999968698887  0.8749999968698887  0.3960161475258630   F   F   F
  0.5923061817310701  0.5922594234204970  0.6447561816903736   T   T   T
  0.6254997022858649  0.4658292839056968  0.6474991706417222   T   T   T
  0.5342191138784826  0.3745057323736412  0.6475087850617296   T   T   T
  0.4077859623316086  0.4077045640419548  0.6447742189721204   T   T   T
  0.3745390003504430  0.5341345333798553  0.6475139590813823   T   T   T
  0.4658660462398407  0.6254514977335399  0.6475005118789600   T   T   T
  0.6533857649931171  0.6534044847756881  0.6661120374570372   T   T   T
  0.3466014091752154  0.3465554862320089  0.6661288334863551   T   T   T
  0.7646509942445530  0.4376562383456691  0.6783340503696684   T   T   T
  0.5623992031751942  0.2353939141584201  0.6783550269839119   T   T   T
  0.2353236859852686  0.5621445881081027  0.6783288654388090   T   T   T
  0.4377773424403705  0.7647290263390946  0.6783194230005419   T   T   T
 
  0.00000000E+00  0.00000000E+00  0.00000000E+00
  0.00000000E+00  0.00000000E+00  0.00000000E+00
  0.00000000E+00  0.00000000E+00  0.00000000E+00
  0.00000000E+00  0.00000000E+00  0.00000000E+00
  0.00000000E+00  0.00000000E+00  0.00000000E+00
  0.00000000E+00  0.00000000E+00  0.00000000E+00
  0.00000000E+00  0.00000000E+00  0.00000000E+00
  0.00000000E+00  0.00000000E+00  0.00000000E+00
  0.00000000E+00  0.00000000E+00  0.00000000E+00
  0.00000000E+00  0.00000000E+00  0.00000000E+00
  0.00000000E+00  0.00000000E+00  0.00000000E+00
  0.00000000E+00  0.00000000E+00  0.00000000E+00
  0.00000000E+00  0.00000000E+00  0.00000000E+00
  0.00000000E+00  0.00000000E+00  0.00000000E+00
  0.00000000E+00  0.00000000E+00  0.00000000E+00
  0.00000000E+00  0.00000000E+00  0.00000000E+00
  0.00000000E+00  0.00000000E+00  0.00000000E+00
  0.00000000E+00  0.00000000E+00  0.00000000E+00
  0.00000000E+00  0.00000000E+00  0.00000000E+00
  0.00000000E+00  0.00000000E+00  0.00000000E+00
  0.00000000E+00  0.00000000E+00  0.00000000E+00
  0.00000000E+00  0.00000000E+00  0.00000000E+00
  0.00000000E+00  0.00000000E+00  0.00000000E+00
  0.00000000E+00  0.00000000E+00  0.00000000E+00
  0.00000000E+00  0.00000000E+00  0.00000000E+00
  0.00000000E+00  0.00000000E+00  0.00000000E+00
  0.00000000E+00  0.00000000E+00  0.00000000E+00
  0.00000000E+00  0.00000000E+00  0.00000000E+00
  0.00000000E+00  0.00000000E+00  0.00000000E+00
  0.00000000E+00  0.00000000E+00  0.00000000E+00
  0.00000000E+00  0.00000000E+00  0.00000000E+00
  0.00000000E+00  0.00000000E+00  0.00000000E+00
  0.00000000E+00  0.00000000E+00  0.00000000E+00
  0.00000000E+00  0.00000000E+00  0.00000000E+00
  0.00000000E+00  0.00000000E+00  0.00000000E+00
  0.00000000E+00  0.00000000E+00  0.00000000E+00
  0.00000000E+00  0.00000000E+00  0.00000000E+00
  0.00000000E+00  0.00000000E+00  0.00000000E+00
  0.00000000E+00  0.00000000E+00  0.00000000E+00
  0.00000000E+00  0.00000000E+00  0.00000000E+00
  0.00000000E+00  0.00000000E+00  0.00000000E+00
  0.00000000E+00  0.00000000E+00  0.00000000E+00
  0.00000000E+00  0.00000000E+00  0.00000000E+00
  0.00000000E+00  0.00000000E+00  0.00000000E+00
  0.00000000E+00  0.00000000E+00  0.00000000E+00
  0.00000000E+00  0.00000000E+00  0.00000000E+00
  0.00000000E+00  0.00000000E+00  0.00000000E+00
  0.00000000E+00  0.00000000E+00  0.00000000E+00
  0.00000000E+00  0.00000000E+00  0.00000000E+00
  0.00000000E+00  0.00000000E+00  0.00000000E+00
  0.00000000E+00  0.00000000E+00  0.00000000E+00
  0.00000000E+00  0.00000000E+00  0.00000000E+00
  0.00000000E+00  0.00000000E+00  0.00000000E+00
  0.00000000E+00  0.00000000E+00  0.00000000E+00
  0.00000000E+00  0.00000000E+00  0.00000000E+00
  0.00000000E+00  0.00000000E+00  0.00000000E+00
  0.00000000E+00  0.00000000E+00  0.00000000E+00
  0.00000000E+00  0.00000000E+00  0.00000000E+00
  0.00000000E+00  0.00000000E+00  0.00000000E+00
  0.00000000E+00  0.00000000E+00  0.00000000E+00
  0.00000000E+00  0.00000000E+00  0.00000000E+00
  0.00000000E+00  0.00000000E+00  0.00000000E+00
  0.00000000E+00  0.00000000E+00  0.00000000E+00
  0.00000000E+00  0.00000000E+00  0.00000000E+00
  0.00000000E+00  0.00000000E+00  0.00000000E+00
  0.00000000E+00  0.00000000E+00  0.00000000E+00
  0.00000000E+00  0.00000000E+00  0.00000000E+00
  0.00000000E+00  0.00000000E+00  0.00000000E+00
  0.00000000E+00  0.00000000E+00  0.00000000E+00
  0.00000000E+00  0.00000000E+00  0.00000000E+00
  0.00000000E+00  0.00000000E+00  0.00000000E+00
  0.00000000E+00  0.00000000E+00  0.00000000E+00
  0.00000000E+00  0.00000000E+00  0.00000000E+00
  0.00000000E+00  0.00000000E+00  0.00000000E+00
  0.00000000E+00  0.00000000E+00  0.00000000E+00
  0.00000000E+00  0.00000000E+00  0.00000000E+00
