Ir48 C4 N2 Br4                          
    1.000000000000000     
    10.9622135000000007    0.0000000000000000    0.0000000000000000
     0.0000000000000000   10.9622135000000007    0.0000000000000000
     0.0000000000000000    0.0000000000000000   16.7325000400000015
   Ir   C    N    Br
    48     4     2     4
Selective dynamics
Direct
  0.9964061453117239  0.2517547534556428  0.4105833004183879   T   T   T
  0.9999912872257681  0.5000043201154085  0.4115005786965682   T   T   T
  0.0035888196105631  0.7482393245793517  0.4105870975916943   T   T   T
  0.0000037094902936  0.9999973291541764  0.4088442064673643   T   T   T
  0.2490837970833795  0.2490831319882716  0.4089231167872356   T   T   T
  0.2489137785291362  0.4999776193797913  0.4093592892762530   T   T   T
  0.2522450671565579  0.7477552384943706  0.4118276214699108   T   T   T
  0.2517576819140572  0.9964055393963633  0.4105860551504037   T   T   T
  0.4999739966638685  0.2489086277026331  0.4093553729064041   T   T   T
  0.5000051474200404  0.5000143686759060  0.4083587511920399   T   T   T
  0.5000348957738936  0.7510804868174361  0.4093662775284699   T   T   T
  0.4999964815518894  0.9999995548326552  0.4114942642649311   T   T   T
  0.7477583485570847  0.2522470351526351  0.4118204099933394   T   T   T
  0.7510886523174136  0.5000390759544189  0.4093609196235022   T   T   T
  0.7509139740287907  0.7508980400145120  0.4089338442295372   T   T   T
  0.7482427461523926  0.0035934080908575  0.4105825577475954   T   T   T
  0.1235720316522446  0.1235719706369380  0.5206746620877425   T   T   T
  0.1232891023080072  0.3705553952800642  0.5211091801778167   T   T   T
  0.1258190368346064  0.6243326629988104  0.5277112105580670   T   T   T
  0.1238121684529077  0.8761924555009060  0.5223070109761778   T   T   T
  0.3705606309170264  0.1232908601501777  0.5211111800967743   T   T   T
  0.3688860546827115  0.3688881535429616  0.5205805719673151   T   T   T
  0.3788786705027647  0.6211335564450238  0.5280158610516210   T   T   T
  0.3756730303389730  0.8741778581406550  0.5277105625640459   T   T   T
  0.6243332436568707  0.1258189452637239  0.5277225046010159   T   T   T
  0.6211317769977782  0.3788721718445416  0.5280210918450479   T   T   T
  0.6311145293714020  0.6311141721137119  0.5205599414098501   T   T   T
  0.6294410512910318  0.8767038874403923  0.5211074864164260   T   T   T
  0.8761846886648925  0.1238154503011586  0.5223102933702819   T   T   T
  0.8741755069198192  0.3756663563792415  0.5277078911702802   T   T   T
  0.8766987080472646  0.6294397991564651  0.5210990822951160   T   T   T
  0.8764219382683009  0.8764245610208619  0.5206760155663162   T   T   T
  0.1250000002280558  0.1250000002280558  0.2988196616194330   F   F   F
  0.1250000002280558  0.3749999997719442  0.2988196616194330   F   F   F
  0.1250000002280558  0.6249999993158326  0.2988196616194330   F   F   F
  0.1250000002280558  0.8749999988597210  0.2988196616194330   F   F   F
  0.3749999997719442  0.1250000002280558  0.2988196616194330   F   F   F
  0.3749999997719442  0.3749999997719442  0.2988196616194330   F   F   F
  0.3749999997719442  0.6249999993158326  0.2988196616194330   F   F   F
  0.3749999997719442  0.8749999988597210  0.2988196616194330   F   F   F
  0.6249999993158326  0.1250000002280558  0.2988196616194330   F   F   F
  0.6249999993158326  0.3749999997719442  0.2988196616194330   F   F   F
  0.6249999993158326  0.6249999993158326  0.2988196616194330   F   F   F
  0.6249999993158326  0.8749999988597210  0.2988196616194330   F   F   F
  0.8749999988597210  0.1250000002280558  0.2988196616194330   F   F   F
  0.8749999988597210  0.3749999997719442  0.2988196616194330   F   F   F
  0.8749999988597210  0.6249999993158326  0.2988196616194330   F   F   F
  0.8749999988597210  0.8749999988597210  0.2988196616194330   F   F   F
  0.5301960851030501  0.3771524878954509  0.6379399595861130   T   T   T
  0.6228485968823563  0.4697870044953945  0.6379439542346077   T   T   T
  0.4698181490082405  0.6228503844629643  0.6379444499102433   T   T   T
  0.3771499786935237  0.5302033696275075  0.6379521766714333   T   T   T
  0.5934447372733089  0.5934314243568224  0.6393326571568636   T   T   T
  0.4065547789058925  0.4065853052346782  0.6393357352376157   T   T   T
  0.1863173232691153  0.5666298291030998  0.6709064817981769   T   T   T
  0.4334499861487586  0.8137391318273686  0.6708761216991235   T   T   T
  0.5665654619282776  0.1862723913476430  0.6708662999712161   T   T   T
  0.8136965562954401  0.4333844608693411  0.6708756758516259   T   T   T
 
  0.00000000E+00  0.00000000E+00  0.00000000E+00
  0.00000000E+00  0.00000000E+00  0.00000000E+00
  0.00000000E+00  0.00000000E+00  0.00000000E+00
  0.00000000E+00  0.00000000E+00  0.00000000E+00
  0.00000000E+00  0.00000000E+00  0.00000000E+00
  0.00000000E+00  0.00000000E+00  0.00000000E+00
  0.00000000E+00  0.00000000E+00  0.00000000E+00
  0.00000000E+00  0.00000000E+00  0.00000000E+00
  0.00000000E+00  0.00000000E+00  0.00000000E+00
  0.00000000E+00  0.00000000E+00  0.00000000E+00
  0.00000000E+00  0.00000000E+00  0.00000000E+00
  0.00000000E+00  0.00000000E+00  0.00000000E+00
  0.00000000E+00  0.00000000E+00  0.00000000E+00
  0.00000000E+00  0.00000000E+00  0.00000000E+00
  0.00000000E+00  0.00000000E+00  0.00000000E+00
  0.00000000E+00  0.00000000E+00  0.00000000E+00
  0.00000000E+00  0.00000000E+00  0.00000000E+00
  0.00000000E+00  0.00000000E+00  0.00000000E+00
  0.00000000E+00  0.00000000E+00  0.00000000E+00
  0.00000000E+00  0.00000000E+00  0.00000000E+00
  0.00000000E+00  0.00000000E+00  0.00000000E+00
  0.00000000E+00  0.00000000E+00  0.00000000E+00
  0.00000000E+00  0.00000000E+00  0.00000000E+00
  0.00000000E+00  0.00000000E+00  0.00000000E+00
  0.00000000E+00  0.00000000E+00  0.00000000E+00
  0.00000000E+00  0.00000000E+00  0.00000000E+00
  0.00000000E+00  0.00000000E+00  0.00000000E+00
  0.00000000E+00  0.00000000E+00  0.00000000E+00
  0.00000000E+00  0.00000000E+00  0.00000000E+00
  0.00000000E+00  0.00000000E+00  0.00000000E+00
  0.00000000E+00  0.00000000E+00  0.00000000E+00
  0.00000000E+00  0.00000000E+00  0.00000000E+00
  0.00000000E+00  0.00000000E+00  0.00000000E+00
  0.00000000E+00  0.00000000E+00  0.00000000E+00
  0.00000000E+00  0.00000000E+00  0.00000000E+00
  0.00000000E+00  0.00000000E+00  0.00000000E+00
  0.00000000E+00  0.00000000E+00  0.00000000E+00
  0.00000000E+00  0.00000000E+00  0.00000000E+00
  0.00000000E+00  0.00000000E+00  0.00000000E+00
  0.00000000E+00  0.00000000E+00  0.00000000E+00
  0.00000000E+00  0.00000000E+00  0.00000000E+00
  0.00000000E+00  0.00000000E+00  0.00000000E+00
  0.00000000E+00  0.00000000E+00  0.00000000E+00
  0.00000000E+00  0.00000000E+00  0.00000000E+00
  0.00000000E+00  0.00000000E+00  0.00000000E+00
  0.00000000E+00  0.00000000E+00  0.00000000E+00
  0.00000000E+00  0.00000000E+00  0.00000000E+00
  0.00000000E+00  0.00000000E+00  0.00000000E+00
  0.00000000E+00  0.00000000E+00  0.00000000E+00
  0.00000000E+00  0.00000000E+00  0.00000000E+00
  0.00000000E+00  0.00000000E+00  0.00000000E+00
  0.00000000E+00  0.00000000E+00  0.00000000E+00
  0.00000000E+00  0.00000000E+00  0.00000000E+00
  0.00000000E+00  0.00000000E+00  0.00000000E+00
  0.00000000E+00  0.00000000E+00  0.00000000E+00
  0.00000000E+00  0.00000000E+00  0.00000000E+00
  0.00000000E+00  0.00000000E+00  0.00000000E+00
  0.00000000E+00  0.00000000E+00  0.00000000E+00
