Ir48 C6 Br6                             
    1.000000000000000     
    10.9622135000000007    0.0000000000000000    0.0000000000000000
     0.0000000000000000   10.9622135000000007    0.0000000000000000
     0.0000000000000000    0.0000000000000000   16.7339102100000012
   Ir   C    Br
    48     6     6
Selective dynamics
Direct
  0.9986945880648648  0.2518418093513333  0.4091891686707356   T   T   T
  0.0002207134447190  0.5004089029970729  0.4114868855695804   T   T   T
  0.0016060710793866  0.7484994546426975  0.4090848801435172   T   T   T
  0.0001588769523266  0.0000265454266497  0.4092114988117856   T   T   T
  0.2513318513801579  0.2509914909613116  0.4096946473262761   T   T   T
  0.2504125562325328  0.4992946236940412  0.4110923776004043   T   T   T
  0.2522887891349512  0.7468046021209247  0.4108802622636532   T   T   T
  0.2486233594283576  0.0004138662933570  0.4094491322888913   T   T   T
  0.4998534280214741  0.2483255540194804  0.4107127054919104   T   T   T
  0.4999285815131600  0.4999416212738339  0.4103005881418085   T   T   T
  0.4994748088160179  0.7498948189571237  0.4116881173449798   T   T   T
  0.4997109896415850  0.9994139519503662  0.4085231868703119   T   T   T
  0.7485112251788806  0.2520425976735865  0.4103652179296517   T   T   T
  0.7508893128308785  0.5002607369724217  0.4107724187746769   T   T   T
  0.7499774797500436  0.7499487891285810  0.4095638628745917   T   T   T
  0.7513428363700712  0.9999774745142460  0.4089599107978046   T   T   T
  0.1221080184041554  0.1219352589656069  0.5222501909380597   T   T   T
  0.1242099480596437  0.3758013219355050  0.5229123853154505   T   T   T
  0.1254344441938429  0.6250376362132641  0.5257098289124045   T   T   T
  0.1243411191653294  0.8751770077364327  0.5199833189415060   T   T   T
  0.3744648449454289  0.1246810673672982  0.5224013136559051   T   T   T
  0.3726742462280725  0.3684520643041083  0.5261005173854301   T   T   T
  0.3721314188777285  0.6315392908014559  0.5333503276967306   T   T   T
  0.3741694675759462  0.8734893419966951  0.5220864861374963   T   T   T
  0.6258561726004004  0.1243863534894061  0.5218223161533189   T   T   T
  0.6292014665880430  0.3663217140760509  0.5295082888987253   T   T   T
  0.6310756077829041  0.6286924703333270  0.5230331209796546   T   T   T
  0.6248312635742721  0.8749541647086545  0.5218393111156914   T   T   T
  0.8758437311831955  0.1250862482982171  0.5198023897540978   T   T   T
  0.8763597559914231  0.3739397962225368  0.5254647182618086   T   T   T
  0.8761609398844570  0.6254349790616089  0.5226017578253774   T   T   T
  0.8772483782607594  0.8799464592976491  0.5216968523407388   T   T   T
  0.1250000002280558  0.1250000002280558  0.2987944800260749   F   F   F
  0.1250000002280558  0.3749999997719442  0.2987944800260749   F   F   F
  0.1250000002280558  0.6249999993158326  0.2987944800260749   F   F   F
  0.1250000002280558  0.8749999988597210  0.2987944800260749   F   F   F
  0.3749999997719442  0.1250000002280558  0.2987944800260749   F   F   F
  0.3749999997719442  0.3749999997719442  0.2987944800260749   F   F   F
  0.3749999997719442  0.6249999993158326  0.2987944800260749   F   F   F
  0.3749999997719442  0.8749999988597210  0.2987944800260749   F   F   F
  0.6249999993158326  0.1250000002280558  0.2987944800260749   F   F   F
  0.6249999993158326  0.3749999997719442  0.2987944800260749   F   F   F
  0.6249999993158326  0.6249999993158326  0.2987944800260749   F   F   F
  0.6249999993158326  0.8749999988597210  0.2987944800260749   F   F   F
  0.8749999988597210  0.1250000002280558  0.2987944800260749   F   F   F
  0.8749999988597210  0.3749999997719442  0.2987944800260749   F   F   F
  0.8749999988597210  0.6249999993158326  0.2987944800260749   F   F   F
  0.8749999988597210  0.8749999988597210  0.2987944800260749   F   F   F
  0.4035705420507583  0.5039704774316789  0.6247131626284528   T   T   T
  0.4912290804391759  0.5979342968564367  0.6260274486571262   T   T   T
  0.6139434343946419  0.5750090332221660  0.6360423158177966   T   T   T
  0.6518126614338868  0.4492445571463364  0.6497873939143801   T   T   T
  0.5655580722620428  0.3541659928278520  0.6474634057860058   T   T   T
  0.4440138912045910  0.3829824179598376  0.6342202901324612   T   T   T
  0.1428875945624668  0.6146521209324547  0.6716346566537581   T   T   T
  0.3408362355875312  0.9940481865846209  0.6473378408527992   T   T   T
  0.8752238315296381  0.7607042829177786  0.6478806668971586   T   T   T
  0.8268304721251880  0.4116124530706102  0.6742407039519449   T   T   T
  0.6507599266699415  0.0041721742972598  0.6481597919786708   T   T   T
  0.1154967452996445  0.2474905631561057  0.6493607786200855   T   T   T
 
  0.00000000E+00  0.00000000E+00  0.00000000E+00
  0.00000000E+00  0.00000000E+00  0.00000000E+00
  0.00000000E+00  0.00000000E+00  0.00000000E+00
  0.00000000E+00  0.00000000E+00  0.00000000E+00
  0.00000000E+00  0.00000000E+00  0.00000000E+00
  0.00000000E+00  0.00000000E+00  0.00000000E+00
  0.00000000E+00  0.00000000E+00  0.00000000E+00
  0.00000000E+00  0.00000000E+00  0.00000000E+00
  0.00000000E+00  0.00000000E+00  0.00000000E+00
  0.00000000E+00  0.00000000E+00  0.00000000E+00
  0.00000000E+00  0.00000000E+00  0.00000000E+00
  0.00000000E+00  0.00000000E+00  0.00000000E+00
  0.00000000E+00  0.00000000E+00  0.00000000E+00
  0.00000000E+00  0.00000000E+00  0.00000000E+00
  0.00000000E+00  0.00000000E+00  0.00000000E+00
  0.00000000E+00  0.00000000E+00  0.00000000E+00
  0.00000000E+00  0.00000000E+00  0.00000000E+00
  0.00000000E+00  0.00000000E+00  0.00000000E+00
  0.00000000E+00  0.00000000E+00  0.00000000E+00
  0.00000000E+00  0.00000000E+00  0.00000000E+00
  0.00000000E+00  0.00000000E+00  0.00000000E+00
  0.00000000E+00  0.00000000E+00  0.00000000E+00
  0.00000000E+00  0.00000000E+00  0.00000000E+00
  0.00000000E+00  0.00000000E+00  0.00000000E+00
  0.00000000E+00  0.00000000E+00  0.00000000E+00
  0.00000000E+00  0.00000000E+00  0.00000000E+00
  0.00000000E+00  0.00000000E+00  0.00000000E+00
  0.00000000E+00  0.00000000E+00  0.00000000E+00
  0.00000000E+00  0.00000000E+00  0.00000000E+00
  0.00000000E+00  0.00000000E+00  0.00000000E+00
  0.00000000E+00  0.00000000E+00  0.00000000E+00
  0.00000000E+00  0.00000000E+00  0.00000000E+00
  0.00000000E+00  0.00000000E+00  0.00000000E+00
  0.00000000E+00  0.00000000E+00  0.00000000E+00
  0.00000000E+00  0.00000000E+00  0.00000000E+00
  0.00000000E+00  0.00000000E+00  0.00000000E+00
  0.00000000E+00  0.00000000E+00  0.00000000E+00
  0.00000000E+00  0.00000000E+00  0.00000000E+00
  0.00000000E+00  0.00000000E+00  0.00000000E+00
  0.00000000E+00  0.00000000E+00  0.00000000E+00
  0.00000000E+00  0.00000000E+00  0.00000000E+00
  0.00000000E+00  0.00000000E+00  0.00000000E+00
  0.00000000E+00  0.00000000E+00  0.00000000E+00
  0.00000000E+00  0.00000000E+00  0.00000000E+00
  0.00000000E+00  0.00000000E+00  0.00000000E+00
  0.00000000E+00  0.00000000E+00  0.00000000E+00
  0.00000000E+00  0.00000000E+00  0.00000000E+00
  0.00000000E+00  0.00000000E+00  0.00000000E+00
  0.00000000E+00  0.00000000E+00  0.00000000E+00
  0.00000000E+00  0.00000000E+00  0.00000000E+00
  0.00000000E+00  0.00000000E+00  0.00000000E+00
  0.00000000E+00  0.00000000E+00  0.00000000E+00
  0.00000000E+00  0.00000000E+00  0.00000000E+00
  0.00000000E+00  0.00000000E+00  0.00000000E+00
  0.00000000E+00  0.00000000E+00  0.00000000E+00
  0.00000000E+00  0.00000000E+00  0.00000000E+00
  0.00000000E+00  0.00000000E+00  0.00000000E+00
  0.00000000E+00  0.00000000E+00  0.00000000E+00
  0.00000000E+00  0.00000000E+00  0.00000000E+00
  0.00000000E+00  0.00000000E+00  0.00000000E+00
