Rh48 C6 F6                              
    1.000000000000000     
    10.8721879999999995    0.0000000000000000    0.0000000000000000
    -5.4360939999999998    9.4155909999999992    0.0000000000000000
     0.0000000000000000    0.0000000000000000   16.4385520000000014
   Rh   C    F 
    48     6     6
Selective dynamics
Direct
  0.0833330000000032  0.1666669999999968  0.3649959999999979   F   F   F
  0.0833330000000032  0.4166669999999968  0.3649959999999979   F   F   F
  0.0833330000000032  0.6666669999999968  0.3649959999999979   F   F   F
  0.0833330000000032  0.9166669999999968  0.3649959999999979   F   F   F
  0.3333330000000032  0.1666669999999968  0.3649959999999979   F   F   F
  0.3333330000000032  0.4166669999999968  0.3649959999999979   F   F   F
  0.3333330000000032  0.6666669999999968  0.3649959999999979   F   F   F
  0.3333330000000032  0.9166669999999968  0.3649959999999979   F   F   F
  0.5833330000000032  0.1666669999999968  0.3649959999999979   F   F   F
  0.5833330000000032  0.4166669999999968  0.3649959999999979   F   F   F
  0.5833330000000032  0.6666669999999968  0.3649959999999979   F   F   F
  0.5833330000000032  0.9166669999999968  0.3649959999999979   F   F   F
  0.8333330000000032  0.1666669999999968  0.3649959999999979   F   F   F
  0.8333330000000032  0.4166669999999968  0.3649959999999979   F   F   F
  0.8333330000000032  0.6666669999999968  0.3649959999999979   F   F   F
  0.8333330000000032  0.9166669999999968  0.3649959999999979   F   F   F
  0.9974372165176533  0.9967845508077531  0.6195218958688997   T   T   T
  0.9954896960453183  0.2486179036745497  0.6198910132095676   T   T   T
  0.0006176387450481  0.4998673347386955  0.6202630868546493   T   T   T
  0.0007591491554706  0.7491675679107317  0.6196548119626897   T   T   T
  0.2476711092661006  0.9949392847908030  0.6198985528646972   T   T   T
  0.2451579250422071  0.2441926080503265  0.6276396557489576   T   T   T
  0.2508811212256177  0.4991342012938489  0.6254135236121101   T   T   T
  0.2500182979886034  0.7493062433071955  0.6202588675216418   T   T   T
  0.4999331724443579  0.0003793526708407  0.6201582791803162   T   T   T
  0.4997155796887611  0.2503349336075829  0.6256804808939194   T   T   T
  0.5058256047166196  0.5048802844236704  0.6276022164202502   T   T   T
  0.5013010529608692  0.7544841361806434  0.6198631694196379   T   T   T
  0.7498488326436075  0.0000751486451023  0.6193623271113253   T   T   T
  0.7495422963255649  0.2499546188426862  0.6201586034860966   T   T   T
  0.7550317102692787  0.5022503242648213  0.6198858796511431   T   T   T
  0.7532250862959913  0.7525624658753713  0.6195039291497935   T   T   T
  0.1681337873895572  0.0862386147276268  0.4928536590696311   T   T   T
  0.1685839023215578  0.3337527358940306  0.4934987072983219   T   T   T
  0.1685319491660522  0.5813809980877025  0.4934453462514483   T   T   T
  0.1677588066679050  0.8332779282545957  0.4921835814766311   T   T   T
  0.4170696087262655  0.0861015497018229  0.4934805250102059   T   T   T
  0.4156124623444484  0.3343562588464195  0.4937812591981228   T   T   T
  0.4161949286226800  0.5813624307550143  0.4934831204871699   T   T   T
  0.4167943109699905  0.8334645994879395  0.4925806477457684   T   T   T
  0.6662220134508985  0.0837123128296469  0.4925646248825046   T   T   T
  0.6638791924465153  0.3328882545886387  0.4934662554201452   T   T   T
  0.6637681446540284  0.5818391201814634  0.4928351964200175   T   T   T
  0.6662051915308993  0.8326560067953253  0.4923784016521111   T   T   T
  0.9173006971817941  0.0837543694332510  0.4923727341271373   T   T   T
  0.9164898747930081  0.3331442137922949  0.4925817574527613   T   T   T
  0.9166916559619906  0.5821867393165547  0.4921808769495257   T   T   T
  0.9171180873674416  0.8328681320863183  0.4920603616687487   T   T   T
  0.3005615783904503  0.2233454249358786  0.7477624214152598   T   T   T
  0.2242008621878000  0.2996427272493492  0.7478189865854858   T   T   T
  0.2928885070062464  0.4575900672682138  0.7453459386929779   T   T   T
  0.4508542523617294  0.5263487515683991  0.7477924995653993   T   T   T
  0.5272398866885908  0.4500556096030266  0.7477361635644399   T   T   T
  0.4586436226603965  0.2919720205325405  0.7456045973543013   T   T   T
  0.2342033069994329  0.0906577297949411  0.7826276526961209   T   T   T
  0.0913870695524963  0.2331845889903335  0.7823163524492855   T   T   T
  0.2403700787050482  0.5099006145949403  0.8048776542069760   T   T   T
  0.5173211608872208  0.6593797999545288  0.7820760179517805   T   T   T
  0.6601847926476339  0.5166056642544135  0.7823538376572117   T   T   T
  0.5103284652020008  0.2401398985931422  0.8057903174045933   T   T   T
 
  0.00000000E+00  0.00000000E+00  0.00000000E+00
  0.00000000E+00  0.00000000E+00  0.00000000E+00
  0.00000000E+00  0.00000000E+00  0.00000000E+00
  0.00000000E+00  0.00000000E+00  0.00000000E+00
  0.00000000E+00  0.00000000E+00  0.00000000E+00
  0.00000000E+00  0.00000000E+00  0.00000000E+00
  0.00000000E+00  0.00000000E+00  0.00000000E+00
  0.00000000E+00  0.00000000E+00  0.00000000E+00
  0.00000000E+00  0.00000000E+00  0.00000000E+00
  0.00000000E+00  0.00000000E+00  0.00000000E+00
  0.00000000E+00  0.00000000E+00  0.00000000E+00
  0.00000000E+00  0.00000000E+00  0.00000000E+00
  0.00000000E+00  0.00000000E+00  0.00000000E+00
  0.00000000E+00  0.00000000E+00  0.00000000E+00
  0.00000000E+00  0.00000000E+00  0.00000000E+00
  0.00000000E+00  0.00000000E+00  0.00000000E+00
  0.00000000E+00  0.00000000E+00  0.00000000E+00
  0.00000000E+00  0.00000000E+00  0.00000000E+00
  0.00000000E+00  0.00000000E+00  0.00000000E+00
  0.00000000E+00  0.00000000E+00  0.00000000E+00
  0.00000000E+00  0.00000000E+00  0.00000000E+00
  0.00000000E+00  0.00000000E+00  0.00000000E+00
  0.00000000E+00  0.00000000E+00  0.00000000E+00
  0.00000000E+00  0.00000000E+00  0.00000000E+00
  0.00000000E+00  0.00000000E+00  0.00000000E+00
  0.00000000E+00  0.00000000E+00  0.00000000E+00
  0.00000000E+00  0.00000000E+00  0.00000000E+00
  0.00000000E+00  0.00000000E+00  0.00000000E+00
  0.00000000E+00  0.00000000E+00  0.00000000E+00
  0.00000000E+00  0.00000000E+00  0.00000000E+00
  0.00000000E+00  0.00000000E+00  0.00000000E+00
  0.00000000E+00  0.00000000E+00  0.00000000E+00
  0.00000000E+00  0.00000000E+00  0.00000000E+00
  0.00000000E+00  0.00000000E+00  0.00000000E+00
  0.00000000E+00  0.00000000E+00  0.00000000E+00
  0.00000000E+00  0.00000000E+00  0.00000000E+00
  0.00000000E+00  0.00000000E+00  0.00000000E+00
  0.00000000E+00  0.00000000E+00  0.00000000E+00
  0.00000000E+00  0.00000000E+00  0.00000000E+00
  0.00000000E+00  0.00000000E+00  0.00000000E+00
  0.00000000E+00  0.00000000E+00  0.00000000E+00
  0.00000000E+00  0.00000000E+00  0.00000000E+00
  0.00000000E+00  0.00000000E+00  0.00000000E+00
  0.00000000E+00  0.00000000E+00  0.00000000E+00
  0.00000000E+00  0.00000000E+00  0.00000000E+00
  0.00000000E+00  0.00000000E+00  0.00000000E+00
  0.00000000E+00  0.00000000E+00  0.00000000E+00
  0.00000000E+00  0.00000000E+00  0.00000000E+00
  0.00000000E+00  0.00000000E+00  0.00000000E+00
  0.00000000E+00  0.00000000E+00  0.00000000E+00
  0.00000000E+00  0.00000000E+00  0.00000000E+00
  0.00000000E+00  0.00000000E+00  0.00000000E+00
  0.00000000E+00  0.00000000E+00  0.00000000E+00
  0.00000000E+00  0.00000000E+00  0.00000000E+00
  0.00000000E+00  0.00000000E+00  0.00000000E+00
  0.00000000E+00  0.00000000E+00  0.00000000E+00
  0.00000000E+00  0.00000000E+00  0.00000000E+00
  0.00000000E+00  0.00000000E+00  0.00000000E+00
  0.00000000E+00  0.00000000E+00  0.00000000E+00
  0.00000000E+00  0.00000000E+00  0.00000000E+00
