Au48 C4 N2 F4                           
    1.000000000000000     
    11.7981856999999994    0.0000000000000000    0.0000000000000000
     0.0000000000000000   11.7981856999999994    0.0000000000000000
     0.0000000000000000    0.0000000000000000   17.1712885600000007
   Au   C    N    F 
    48     4     2     4
Selective dynamics
Direct
  0.2497365851831717  0.0000866256598542  0.4125488152748673   T   T   T
  0.2493030238636038  0.2493126621522848  0.4123734524885592   T   T   T
  0.2489688438941897  0.4997537288133884  0.4119538116137420   T   T   T
  0.2493655048220162  0.7506386208200624  0.4121152206935434   T   T   T
  0.5000008556024653  0.9999942357158673  0.4125055117150040   T   T   T
  0.4997612620843981  0.2489770710071326  0.4119466571739565   T   T   T
  0.5000046598371668  0.4999959159345551  0.4114760423549910   T   T   T
  0.5002436704723650  0.7510321832779567  0.4119486675279731   T   T   T
  0.7502626000990489  0.9999041450414552  0.4125404586637487   T   T   T
  0.7506306408845376  0.2493660229169450  0.4121050195881892   T   T   T
  0.7510215373518179  0.5002417397612859  0.4119466106220173   T   T   T
  0.7506911279704838  0.7506954658443803  0.4123675558127005   T   T   T
  0.9999999540288442  0.9999967426086798  0.4125933600498755   T   T   T
  0.0000971906943832  0.2497387073003026  0.4125458819898498   T   T   T
  0.0000051640579528  0.4999984749889137  0.4125099109506891   T   T   T
  0.9999083524625263  0.7502660019834266  0.4125477885203921   T   T   T
  0.1248730880554021  0.1248726222084642  0.5341612040109354   T   T   T
  0.1246597883818055  0.3749007473141788  0.5337678046199272   T   T   T
  0.1251170656107021  0.6251703682473391  0.5334948051232402   T   T   T
  0.1249399397657811  0.8750610581044995  0.5340478265058906   T   T   T
  0.3748981776925504  0.1246565590658548  0.5337731474590370   T   T   T
  0.3744564999900888  0.3744599160764963  0.5317364153383295   T   T   T
  0.3749467525597723  0.6250537284808999  0.5309293793246894   T   T   T
  0.3748275933343521  0.8748833849149520  0.5334929718655275   T   T   T
  0.6251696817365868  0.1251155299058198  0.5334978551908591   T   T   T
  0.6250488285277456  0.3749480169593582  0.5309240244799653   T   T   T
  0.6255401583093771  0.6255411135262889  0.5317377924722635   T   T   T
  0.6250981052322828  0.8753405479316925  0.5337698355460674   T   T   T
  0.8750634008827589  0.1249372811301654  0.5340531747286335   T   T   T
  0.8748860277034325  0.3748304069103270  0.5334974544375157   T   T   T
  0.8753437092306910  0.6251009684018243  0.5337727117953577   T   T   T
  0.8751293003201468  0.8751266647968663  0.5341607678875206   T   T   T
  0.1249999997881019  0.1250000006356942  0.2911837386302736   F   F   F
  0.1250000006356942  0.3750000010594832  0.2911837386302736   F   F   F
  0.1250000006356942  0.6250000006356942  0.2911837386302736   F   F   F
  0.1250000006356942  0.8750000019070754  0.2911837386302736   F   F   F
  0.3750000010594832  0.1250000006356942  0.2911837386302736   F   F   F
  0.3750000010594832  0.3750000010594832  0.2911837386302736   F   F   F
  0.3750000010594832  0.6250000006356942  0.2911837386302736   F   F   F
  0.3750000010594832  0.8750000019070754  0.2911837386302736   F   F   F
  0.6250000006356942  0.1250000006356942  0.2911837386302736   F   F   F
  0.6250000014832793  0.3750000010594832  0.2911837386302736   F   F   F
  0.6250000014832793  0.6250000006356942  0.2911837386302736   F   F   F
  0.6250000014832793  0.8750000019070754  0.2911837386302736   F   F   F
  0.8750000019070754  0.1250000006356942  0.2911837386302736   F   F   F
  0.8750000019070754  0.3750000010594832  0.2911837386302736   F   F   F
  0.8750000019070754  0.6250000006356942  0.2911837386302736   F   F   F
  0.8750000019070754  0.8750000019070754  0.2911837386302736   F   F   F
  0.4744361536692097  0.6095684949226623  0.7109438211600718   T   T   T
  0.3904333168145939  0.5256067033172940  0.7109473675152671   T   T   T
  0.5255557418137826  0.3904298212102333  0.7109458979237928   T   T   T
  0.6095693078252538  0.4743941172602320  0.7109465076300054   T   T   T
  0.4171038555458395  0.4171515983436009  0.7110761180692791   T   T   T
  0.5828873951697560  0.5828469101809404  0.7110729748542113   T   T   T
  0.7197827864660127  0.4463273649615047  0.7121507358461443   T   T   T
  0.5536489679913430  0.2802293164103133  0.7121535457030177   T   T   T
  0.4463347112730602  0.7197613798817599  0.7121486281808984   T   T   T
  0.2802325933331034  0.5536768475531488  0.7121540637042116   T   T   T
 
  0.00000000E+00  0.00000000E+00  0.00000000E+00
  0.00000000E+00  0.00000000E+00  0.00000000E+00
  0.00000000E+00  0.00000000E+00  0.00000000E+00
  0.00000000E+00  0.00000000E+00  0.00000000E+00
  0.00000000E+00  0.00000000E+00  0.00000000E+00
  0.00000000E+00  0.00000000E+00  0.00000000E+00
  0.00000000E+00  0.00000000E+00  0.00000000E+00
  0.00000000E+00  0.00000000E+00  0.00000000E+00
  0.00000000E+00  0.00000000E+00  0.00000000E+00
  0.00000000E+00  0.00000000E+00  0.00000000E+00
  0.00000000E+00  0.00000000E+00  0.00000000E+00
  0.00000000E+00  0.00000000E+00  0.00000000E+00
  0.00000000E+00  0.00000000E+00  0.00000000E+00
  0.00000000E+00  0.00000000E+00  0.00000000E+00
  0.00000000E+00  0.00000000E+00  0.00000000E+00
  0.00000000E+00  0.00000000E+00  0.00000000E+00
  0.00000000E+00  0.00000000E+00  0.00000000E+00
  0.00000000E+00  0.00000000E+00  0.00000000E+00
  0.00000000E+00  0.00000000E+00  0.00000000E+00
  0.00000000E+00  0.00000000E+00  0.00000000E+00
  0.00000000E+00  0.00000000E+00  0.00000000E+00
  0.00000000E+00  0.00000000E+00  0.00000000E+00
  0.00000000E+00  0.00000000E+00  0.00000000E+00
  0.00000000E+00  0.00000000E+00  0.00000000E+00
  0.00000000E+00  0.00000000E+00  0.00000000E+00
  0.00000000E+00  0.00000000E+00  0.00000000E+00
  0.00000000E+00  0.00000000E+00  0.00000000E+00
  0.00000000E+00  0.00000000E+00  0.00000000E+00
  0.00000000E+00  0.00000000E+00  0.00000000E+00
  0.00000000E+00  0.00000000E+00  0.00000000E+00
  0.00000000E+00  0.00000000E+00  0.00000000E+00
  0.00000000E+00  0.00000000E+00  0.00000000E+00
  0.00000000E+00  0.00000000E+00  0.00000000E+00
  0.00000000E+00  0.00000000E+00  0.00000000E+00
  0.00000000E+00  0.00000000E+00  0.00000000E+00
  0.00000000E+00  0.00000000E+00  0.00000000E+00
  0.00000000E+00  0.00000000E+00  0.00000000E+00
  0.00000000E+00  0.00000000E+00  0.00000000E+00
  0.00000000E+00  0.00000000E+00  0.00000000E+00
  0.00000000E+00  0.00000000E+00  0.00000000E+00
  0.00000000E+00  0.00000000E+00  0.00000000E+00
  0.00000000E+00  0.00000000E+00  0.00000000E+00
  0.00000000E+00  0.00000000E+00  0.00000000E+00
  0.00000000E+00  0.00000000E+00  0.00000000E+00
  0.00000000E+00  0.00000000E+00  0.00000000E+00
  0.00000000E+00  0.00000000E+00  0.00000000E+00
  0.00000000E+00  0.00000000E+00  0.00000000E+00
  0.00000000E+00  0.00000000E+00  0.00000000E+00
  0.00000000E+00  0.00000000E+00  0.00000000E+00
  0.00000000E+00  0.00000000E+00  0.00000000E+00
  0.00000000E+00  0.00000000E+00  0.00000000E+00
  0.00000000E+00  0.00000000E+00  0.00000000E+00
  0.00000000E+00  0.00000000E+00  0.00000000E+00
  0.00000000E+00  0.00000000E+00  0.00000000E+00
  0.00000000E+00  0.00000000E+00  0.00000000E+00
  0.00000000E+00  0.00000000E+00  0.00000000E+00
  0.00000000E+00  0.00000000E+00  0.00000000E+00
  0.00000000E+00  0.00000000E+00  0.00000000E+00
