Pt48 C6 H2 Cl4                          
    1.000000000000000     
    11.2480068000000006    0.0000000000000000    0.0000000000000000
     0.0000000000000000   11.2480068000000006    0.0000000000000000
     0.0000000000000000    0.0000000000000000   16.9157626599999986
   Pt   C    H    Cl
    48     6     2     4
Selective dynamics
Direct
  0.2500686991809005  0.0001366585047364  0.4113779120192973   T   T   T
  0.2501025190590056  0.2501245269064611  0.4115931104088588   T   T   T
  0.2493641501155679  0.4993544920442616  0.4110025896934104   T   T   T
  0.2495539606156356  0.7504464727617517  0.4107834783163398   T   T   T
  0.5000029051944637  0.9999915218424533  0.4114759495346902   T   T   T
  0.4993682019705332  0.2493825650616301  0.4109912015129211   T   T   T
  0.4999999011892484  0.4999904841463945  0.4107934855637723   T   T   T
  0.5006347158703761  0.7506352649008079  0.4109874103286799   T   T   T
  0.7499269648435813  0.9998471403280433  0.4113833271561376   T   T   T
  0.7504425991143435  0.2495694714748637  0.4107867532958451   T   T   T
  0.7506316456878963  0.5006229041833805  0.4109952558157346   T   T   T
  0.7498922565312043  0.7498968553491210  0.4115903362112618   T   T   T
  0.0000000327707212  0.9999924857247819  0.4113613645284957   T   T   T
  0.0001462208552638  0.2500869749182044  0.4113914275598205   T   T   T
  0.0000023007804799  0.4999901131318865  0.4114946599361460   T   T   T
  0.9998558479559563  0.7499289957643640  0.4113877016315115   T   T   T
  0.1249296323759168  0.1249359739730878  0.5273552611304524   T   T   T
  0.1251021503611369  0.3748217086877830  0.5271192319800093   T   T   T
  0.1247994042830953  0.6251177592429187  0.5273523965386815   T   T   T
  0.1249102321988502  0.8750872154034468  0.5268862144055575   T   T   T
  0.3748295699296023  0.1251083588607571  0.5271340121293733   T   T   T
  0.3751630840807465  0.3751509021689898  0.5285024544712371   T   T   T
  0.3745730363037083  0.6254314697147905  0.5243740885247092   T   T   T
  0.3748857778937875  0.8751958757460017  0.5273458461371732   T   T   T
  0.6251234815467157  0.1248113842350023  0.5273498174626283   T   T   T
  0.6254368119001086  0.3745641658411927  0.5243443970478907   T   T   T
  0.6248481192162316  0.6248399407471439  0.5285074783580370   T   T   T
  0.6251781997987038  0.8748924883774052  0.5271161952321961   T   T   T
  0.8750805581886425  0.1249166908285133  0.5269036017165618   T   T   T
  0.8751841955220812  0.3748772931950271  0.5273438932307783   T   T   T
  0.8748865154652776  0.6251723543338841  0.5271285053886885   T   T   T
  0.8750595542218917  0.8750655147933983  0.5273496265695528   T   T   T
  0.1250000008890453  0.1250000000000000  0.2955822980316043   F   F   F
  0.1250000008890453  0.3750000008890453  0.2955822980316043   F   F   F
  0.1250000008890453  0.6250000026671358  0.2955822980316043   F   F   F
  0.1250000008890453  0.8750000026671358  0.2955822980316043   F   F   F
  0.3750000017780906  0.1250000000000000  0.2955822980316043   F   F   F
  0.3750000017780906  0.3750000008890453  0.2955822980316043   F   F   F
  0.3750000017780906  0.6250000026671358  0.2955822980316043   F   F   F
  0.3750000017780906  0.8750000026671358  0.2955822980316043   F   F   F
  0.6250000026671358  0.1250000000000000  0.2955822980316043   F   F   F
  0.6250000026671358  0.3750000008890453  0.2955822980316043   F   F   F
  0.6250000026671358  0.6250000026671358  0.2955822980316043   F   F   F
  0.6250000026671358  0.8750000026671358  0.2955822980316043   F   F   F
  0.8750000035561882  0.1250000000000000  0.2955822980316043   F   F   F
  0.8750000026671358  0.3750000008890453  0.2955822980316043   F   F   F
  0.8750000035561882  0.6250000026671358  0.2955822980316043   F   F   F
  0.8750000035561882  0.8750000026671358  0.2955822980316043   F   F   F
  0.4121342589884449  0.4121293747686821  0.7013295858891055   T   T   T
  0.3792111561200429  0.5323684783101683  0.7041219699776136   T   T   T
  0.4676284324562445  0.6207785079054986  0.7041169287692455   T   T   T
  0.5878758590029065  0.5878665477720659  0.7013144501317541   T   T   T
  0.6207805905639532  0.4676235161348217  0.7041044740559173   T   T   T
  0.5323698736232885  0.3792157307023700  0.7041129751378747   T   T   T
  0.3436882854174712  0.3437073574921925  0.7044024575240826   T   T   T
  0.6563166089104868  0.6563102159184453  0.7043791158648744   T   T   T
  0.2310701256858110  0.5678845354819302  0.7106522241946536   T   T   T
  0.4321397588243343  0.7689548491237943  0.7106515271124394   T   T   T
  0.7689328423590709  0.4321241586385014  0.7106222306790713   T   T   T
  0.5678604316739637  0.2310746235777756  0.7106383183555920   T   T   T
 
  0.00000000E+00  0.00000000E+00  0.00000000E+00
  0.00000000E+00  0.00000000E+00  0.00000000E+00
  0.00000000E+00  0.00000000E+00  0.00000000E+00
  0.00000000E+00  0.00000000E+00  0.00000000E+00
  0.00000000E+00  0.00000000E+00  0.00000000E+00
  0.00000000E+00  0.00000000E+00  0.00000000E+00
  0.00000000E+00  0.00000000E+00  0.00000000E+00
  0.00000000E+00  0.00000000E+00  0.00000000E+00
  0.00000000E+00  0.00000000E+00  0.00000000E+00
  0.00000000E+00  0.00000000E+00  0.00000000E+00
  0.00000000E+00  0.00000000E+00  0.00000000E+00
  0.00000000E+00  0.00000000E+00  0.00000000E+00
  0.00000000E+00  0.00000000E+00  0.00000000E+00
  0.00000000E+00  0.00000000E+00  0.00000000E+00
  0.00000000E+00  0.00000000E+00  0.00000000E+00
  0.00000000E+00  0.00000000E+00  0.00000000E+00
  0.00000000E+00  0.00000000E+00  0.00000000E+00
  0.00000000E+00  0.00000000E+00  0.00000000E+00
  0.00000000E+00  0.00000000E+00  0.00000000E+00
  0.00000000E+00  0.00000000E+00  0.00000000E+00
  0.00000000E+00  0.00000000E+00  0.00000000E+00
  0.00000000E+00  0.00000000E+00  0.00000000E+00
  0.00000000E+00  0.00000000E+00  0.00000000E+00
  0.00000000E+00  0.00000000E+00  0.00000000E+00
  0.00000000E+00  0.00000000E+00  0.00000000E+00
  0.00000000E+00  0.00000000E+00  0.00000000E+00
  0.00000000E+00  0.00000000E+00  0.00000000E+00
  0.00000000E+00  0.00000000E+00  0.00000000E+00
  0.00000000E+00  0.00000000E+00  0.00000000E+00
  0.00000000E+00  0.00000000E+00  0.00000000E+00
  0.00000000E+00  0.00000000E+00  0.00000000E+00
  0.00000000E+00  0.00000000E+00  0.00000000E+00
  0.00000000E+00  0.00000000E+00  0.00000000E+00
  0.00000000E+00  0.00000000E+00  0.00000000E+00
  0.00000000E+00  0.00000000E+00  0.00000000E+00
  0.00000000E+00  0.00000000E+00  0.00000000E+00
  0.00000000E+00  0.00000000E+00  0.00000000E+00
  0.00000000E+00  0.00000000E+00  0.00000000E+00
  0.00000000E+00  0.00000000E+00  0.00000000E+00
  0.00000000E+00  0.00000000E+00  0.00000000E+00
  0.00000000E+00  0.00000000E+00  0.00000000E+00
  0.00000000E+00  0.00000000E+00  0.00000000E+00
  0.00000000E+00  0.00000000E+00  0.00000000E+00
  0.00000000E+00  0.00000000E+00  0.00000000E+00
  0.00000000E+00  0.00000000E+00  0.00000000E+00
  0.00000000E+00  0.00000000E+00  0.00000000E+00
  0.00000000E+00  0.00000000E+00  0.00000000E+00
  0.00000000E+00  0.00000000E+00  0.00000000E+00
  0.00000000E+00  0.00000000E+00  0.00000000E+00
  0.00000000E+00  0.00000000E+00  0.00000000E+00
  0.00000000E+00  0.00000000E+00  0.00000000E+00
  0.00000000E+00  0.00000000E+00  0.00000000E+00
  0.00000000E+00  0.00000000E+00  0.00000000E+00
  0.00000000E+00  0.00000000E+00  0.00000000E+00
  0.00000000E+00  0.00000000E+00  0.00000000E+00
  0.00000000E+00  0.00000000E+00  0.00000000E+00
  0.00000000E+00  0.00000000E+00  0.00000000E+00
  0.00000000E+00  0.00000000E+00  0.00000000E+00
  0.00000000E+00  0.00000000E+00  0.00000000E+00
  0.00000000E+00  0.00000000E+00  0.00000000E+00
