Pd  C  H Br                             
    1.000000000000000     
    11.1817229999999999    0.0000000000000000    0.0000000000000000
     0.0000000000000000   15.8133443000000007    0.0000000000000000
     0.0000000000000000    0.0000000000000000   22.1931461100000007
   Pd   C    H    Br
    64     6     4     2
Selective dynamics
Direct
  0.2499999991056825  0.0000000000000000  0.3379421720033022   F   F   F
  0.9999999964227371  0.4999999987352481  0.3379421720033022   F   F   F
  0.2499999991056825  0.2499999996838085  0.3379421720033022   F   F   F
  0.2499999991056825  0.4999999987352481  0.3379421720033022   F   F   F
  0.2499999991056825  0.7499999984190566  0.3379421720033022   F   F   F
  0.4999999982113650  0.0000000000000000  0.3379421720033022   F   F   F
  0.4999999982113650  0.2499999996838085  0.3379421720033022   F   F   F
  0.9999999964227371  0.7499999984190566  0.3379421720033022   F   F   F
  0.4999999982113650  0.4999999987352481  0.3379421720033022   F   F   F
  0.4999999982113650  0.7499999984190566  0.3379421720033022   F   F   F
  0.7499999973170475  0.0000000000000000  0.3379421720033022   F   F   F
  0.7499999973170475  0.2499999996838085  0.3379421720033022   F   F   F
  0.7499999973170475  0.4999999987352481  0.3379421720033022   F   F   F
  0.7499999973170475  0.7499999984190566  0.3379421720033022   F   F   F
  0.0000000000000000  0.0000000000000000  0.3379421720033022   F   F   F
  0.9999999964227371  0.2499999996838085  0.3379421720033022   F   F   F
  0.2495569713538301  0.9998079111992394  0.4654681986114420   T   T   T
  0.2520239964880481  0.2519403718954714  0.4655073419491317   T   T   T
  0.2465153066774639  0.5014271155268549  0.4628199359174577   T   T   T
  0.2482015072279932  0.7488014723468569  0.4653007138617253   T   T   T
  0.4999999108347257 -0.0000407650186155  0.4655585728082512   T   T   T
  0.5002360784748362  0.2506069966184737  0.4648530724790802   T   T   T
  0.4999748435461447  0.5000419587419006  0.4585252443493785   T   T   T
  0.4997704486818068  0.7494361810539190  0.4648372171462493   T   T   T
  0.7503715216014294  0.0001398609590802  0.4654581044249202   T   T   T
  0.7518035526711322  0.2512151457243113  0.4652775176946095   T   T   T
  0.7534535784072559  0.4986011677649483  0.4627990529870640   T   T   T
  0.7480300268318015  0.7481172405100140  0.4654577486006132   T   T   T
 -0.0000383628156400  0.0000057206703325  0.4655021433130002   T   T   T
  0.0028048444538186  0.2529000999160489  0.4663459638269589   T   T   T
 -0.0000135201494816  0.5000065917525935  0.4652970696228932   T   T   T
  0.9972298178984231  0.7470803017146606  0.4663753729936725   T   T   T
  0.1272049091195742  0.1262659867418521  0.5234992738709489   T   T   T
  0.1340004642070931  0.3770190332011487  0.5281263595105470   T   T   T
  0.1209164891160966  0.6248280659958038  0.5251208470305813   T   T   T
  0.1228685980108950  0.8732784512512671  0.5231370098308659   T   T   T
  0.3758851095994783  0.1252297590872659  0.5239374383859599   T   T   T
  0.3844481214463661  0.3860999595944781  0.5257078676877223   T   T   T
  0.3702385452200074  0.6227916816660991  0.5241490318096116   T   T   T
  0.3737742645461350  0.8740596844768910  0.5234186563975838   T   T   T
  0.6262014882318671  0.1259575409322708  0.5234073193369778   T   T   T
  0.6297694727384379  0.3772528056200242  0.5241562018969252   T   T   T
  0.6156020256260012  0.6139237121034889  0.5257383294075465   T   T   T
  0.6241810409117222  0.8747770826132879  0.5239773885751958   T   T   T
  0.8771033391221438  0.1267148280883458  0.5231743732609594   T   T   T
  0.8790256102990078  0.3751507991895286  0.5251076732497909   T   T   T
  0.8659849863409250  0.6229471553938727  0.5281486171817188   T   T   T
  0.8727894371760783  0.8737145579579801  0.5235117364486033   T   T   T
  0.1249999995528412  0.1249999995257198  0.4009217677339905   F   F   F
  0.1249999995528412  0.3749999992095283  0.4009217677339905   F   F   F
  0.1249999995528412  0.6249999982609609  0.4009217677339905   F   F   F
  0.1249999995528412  0.8749999979447765  0.4009217677339905   F   F   F
  0.3749999986585237  0.1249999995257198  0.4009217677339905   F   F   F
  0.3749999986585237  0.3749999992095283  0.4009217677339905   F   F   F
  0.3749999986585237  0.6249999982609609  0.4009217677339905   F   F   F
  0.3749999986585237  0.8749999979447765  0.4009217677339905   F   F   F
  0.6249999977642062  0.1249999995257198  0.4009217677339905   F   F   F
  0.6249999977642062  0.3749999992095283  0.4009217677339905   F   F   F
  0.6249999977642062  0.6249999982609609  0.4009217677339905   F   F   F
  0.6249999977642062  0.8749999979447765  0.4009217677339905   F   F   F
  0.8749999968698887  0.1249999995257198  0.4009217677339905   F   F   F
  0.8749999968698887  0.3749999992095283  0.4009217677339905   F   F   F
  0.8749999968698887  0.6249999982609609  0.4009217677339905   F   F   F
  0.8749999968698887  0.8749999979447765  0.4009217677339905   F   F   F
  0.6199067012256706  0.5326533465136597  0.6033014769306158   T   T   T
  0.6006923059470881  0.4407330059233124  0.6052529725601133   T   T   T
  0.4778922397945553  0.4097893219026169  0.6112947851942978   T   T   T
  0.3801307011309450  0.4673411914502521  0.6033257139397319   T   T   T
  0.3992501462379390  0.5592747841968836  0.6052287417463428   T   T   T
  0.5221409140313935  0.5902264529139276  0.6112948783692085   T   T   T
  0.6682714430975626  0.4054699108566493  0.6308874604074033   T   T   T
  0.4650941284007322  0.3491031806767432  0.6338428837412269   T   T   T
  0.3317112584225940  0.5945912664603474  0.6308896920703085   T   T   T
  0.5349392054112091  0.6509669654403284  0.6338268825821557   T   T   T
  0.7841956904786274  0.5656655251608907  0.6287018046706725   T   T   T
  0.2158381948753095  0.4341715890271412  0.6287195703043524   T   T   T
 
  0.00000000E+00  0.00000000E+00  0.00000000E+00
  0.00000000E+00  0.00000000E+00  0.00000000E+00
  0.00000000E+00  0.00000000E+00  0.00000000E+00
  0.00000000E+00  0.00000000E+00  0.00000000E+00
  0.00000000E+00  0.00000000E+00  0.00000000E+00
  0.00000000E+00  0.00000000E+00  0.00000000E+00
  0.00000000E+00  0.00000000E+00  0.00000000E+00
  0.00000000E+00  0.00000000E+00  0.00000000E+00
  0.00000000E+00  0.00000000E+00  0.00000000E+00
  0.00000000E+00  0.00000000E+00  0.00000000E+00
  0.00000000E+00  0.00000000E+00  0.00000000E+00
  0.00000000E+00  0.00000000E+00  0.00000000E+00
  0.00000000E+00  0.00000000E+00  0.00000000E+00
  0.00000000E+00  0.00000000E+00  0.00000000E+00
  0.00000000E+00  0.00000000E+00  0.00000000E+00
  0.00000000E+00  0.00000000E+00  0.00000000E+00
  0.00000000E+00  0.00000000E+00  0.00000000E+00
  0.00000000E+00  0.00000000E+00  0.00000000E+00
  0.00000000E+00  0.00000000E+00  0.00000000E+00
  0.00000000E+00  0.00000000E+00  0.00000000E+00
  0.00000000E+00  0.00000000E+00  0.00000000E+00
  0.00000000E+00  0.00000000E+00  0.00000000E+00
  0.00000000E+00  0.00000000E+00  0.00000000E+00
  0.00000000E+00  0.00000000E+00  0.00000000E+00
  0.00000000E+00  0.00000000E+00  0.00000000E+00
  0.00000000E+00  0.00000000E+00  0.00000000E+00
  0.00000000E+00  0.00000000E+00  0.00000000E+00
  0.00000000E+00  0.00000000E+00  0.00000000E+00
  0.00000000E+00  0.00000000E+00  0.00000000E+00
  0.00000000E+00  0.00000000E+00  0.00000000E+00
  0.00000000E+00  0.00000000E+00  0.00000000E+00
  0.00000000E+00  0.00000000E+00  0.00000000E+00
  0.00000000E+00  0.00000000E+00  0.00000000E+00
  0.00000000E+00  0.00000000E+00  0.00000000E+00
  0.00000000E+00  0.00000000E+00  0.00000000E+00
  0.00000000E+00  0.00000000E+00  0.00000000E+00
  0.00000000E+00  0.00000000E+00  0.00000000E+00
  0.00000000E+00  0.00000000E+00  0.00000000E+00
  0.00000000E+00  0.00000000E+00  0.00000000E+00
  0.00000000E+00  0.00000000E+00  0.00000000E+00
  0.00000000E+00  0.00000000E+00  0.00000000E+00
  0.00000000E+00  0.00000000E+00  0.00000000E+00
  0.00000000E+00  0.00000000E+00  0.00000000E+00
  0.00000000E+00  0.00000000E+00  0.00000000E+00
  0.00000000E+00  0.00000000E+00  0.00000000E+00
  0.00000000E+00  0.00000000E+00  0.00000000E+00
  0.00000000E+00  0.00000000E+00  0.00000000E+00
  0.00000000E+00  0.00000000E+00  0.00000000E+00
  0.00000000E+00  0.00000000E+00  0.00000000E+00
  0.00000000E+00  0.00000000E+00  0.00000000E+00
  0.00000000E+00  0.00000000E+00  0.00000000E+00
  0.00000000E+00  0.00000000E+00  0.00000000E+00
  0.00000000E+00  0.00000000E+00  0.00000000E+00
  0.00000000E+00  0.00000000E+00  0.00000000E+00
  0.00000000E+00  0.00000000E+00  0.00000000E+00
  0.00000000E+00  0.00000000E+00  0.00000000E+00
  0.00000000E+00  0.00000000E+00  0.00000000E+00
  0.00000000E+00  0.00000000E+00  0.00000000E+00
  0.00000000E+00  0.00000000E+00  0.00000000E+00
  0.00000000E+00  0.00000000E+00  0.00000000E+00
  0.00000000E+00  0.00000000E+00  0.00000000E+00
  0.00000000E+00  0.00000000E+00  0.00000000E+00
  0.00000000E+00  0.00000000E+00  0.00000000E+00
  0.00000000E+00  0.00000000E+00  0.00000000E+00
  0.00000000E+00  0.00000000E+00  0.00000000E+00
  0.00000000E+00  0.00000000E+00  0.00000000E+00
  0.00000000E+00  0.00000000E+00  0.00000000E+00
  0.00000000E+00  0.00000000E+00  0.00000000E+00
  0.00000000E+00  0.00000000E+00  0.00000000E+00
  0.00000000E+00  0.00000000E+00  0.00000000E+00
  0.00000000E+00  0.00000000E+00  0.00000000E+00
  0.00000000E+00  0.00000000E+00  0.00000000E+00
  0.00000000E+00  0.00000000E+00  0.00000000E+00
  0.00000000E+00  0.00000000E+00  0.00000000E+00
  0.00000000E+00  0.00000000E+00  0.00000000E+00
  0.00000000E+00  0.00000000E+00  0.00000000E+00
