Cu48 C6 Cl2 H4                          
    1.000000000000000     
    10.2424774999999997    0.0000000000000000    0.0000000000000000
     0.0000000000000000   14.4850505999999992    0.0000000000000000
     0.0000000000000000    0.0000000000000000   15.4662314599999995
   Cu   C    Cl   H 
    48     6     2     4
Selective dynamics
Direct
  0.2500090847589789  0.2500488177646005  0.4024902538099653   T   T   T
  0.2502288111098778  0.4999504447340897  0.4029244662522444   T   T   T
  0.2502586918758922  0.7496890465107739  0.4031126985013316   T   T   T
  0.2500388450591799  0.0000097705850592  0.4027945093798664   T   T   T
  0.5001840788950886  0.2502477993167673  0.4028984773383968   T   T   T
  0.4999873769206644  0.4999853818755255  0.4025558712414607   T   T   T
  0.4998034788410095  0.7497675797269068  0.4029080940795140   T   T   T
  0.5000008581906243  0.9999992345321189  0.4028217047970841   T   T   T
  0.7497381134380632  0.2503118690636299  0.4031121012569088   T   T   T
  0.7497784126575482  0.5000308167671506  0.4029344401516397   T   T   T
  0.7499998226802091  0.7499697058027763  0.4025019719737273   T   T   T
  0.7499595859190862  0.9999895505727849  0.4027960655138187   T   T   T
  0.9999950717836654  0.2500501627060672  0.4028171594300218   T   T   T
  0.0000054232848825  0.4999958856666780  0.4029553308395890   T   T   T
  0.0000117163944111  0.7499537963450038  0.4028201866334413   T   T   T
  0.0000007437096841  0.0000001342285358  0.4026899304485099   T   T   T
  0.1250441570074230  0.1250544030215934  0.4820904547807174   T   T   T
  0.1247838801510426  0.3750920854640540  0.4823943527997798   T   T   T
  0.1251220197711405  0.6248578385331669  0.4820980562511181   T   T   T
  0.1250446600308592  0.8749179227858974  0.4821603012772755   T   T   T
  0.3750368470547230  0.1251372194695790  0.4821797875826661   T   T   T
  0.3749653529544901  0.3749897903020027  0.4824252269649207   T   T   T
  0.3751618616093140  0.6242575670163362  0.4834112864950555   T   T   T
  0.3750292584825843  0.8748515709871540  0.4821224420028329   T   T   T
  0.6249695265684494  0.1251488342303091  0.4821245500443396   T   T   T
  0.6248369738520694  0.3757411866127569  0.4834134096604785   T   T   T
  0.6250336501124067  0.6250099233880562  0.4824407946648392   T   T   T
  0.6249621398431913  0.8748638848043626  0.4821824227846818   T   T   T
  0.8749563302762056  0.1250826278125814  0.4821612952212888   T   T   T
  0.8748790173618275  0.3751414353909226  0.4820998825861764   T   T   T
  0.8752173273048030  0.6249074212119794  0.4823996598494702   T   T   T
  0.8749570829181863  0.8749461792540671  0.4820902499128934   T   T   T
  0.1250000002440785  0.1249999996548183  0.3232849587781885   F   F   F
  0.1250000002440785  0.3749999989644479  0.3232849587781885   F   F   F
  0.1250000002440785  0.6249999982740846  0.3232849587781885   F   F   F
  0.1250000002440785  0.8749999975837142  0.3232849587781885   F   F   F
  0.3749999997559215  0.1249999996548183  0.3232849587781885   F   F   F
  0.3749999997559215  0.3749999989644479  0.3232849587781885   F   F   F
  0.3749999997559215  0.6249999982740846  0.3232849587781885   F   F   F
  0.3749999997559215  0.8749999975837142  0.3232849587781885   F   F   F
  0.6249999982914289  0.1249999996548183  0.3232849587781885   F   F   F
  0.6249999992677573  0.3749999989644479  0.3232849587781885   F   F   F
  0.6249999992677573  0.6249999982740846  0.3232849587781885   F   F   F
  0.6249999992677573  0.8749999975837142  0.3232849587781885   F   F   F
  0.8749999987795931  0.1249999996548183  0.3232849587781885   F   F   F
  0.8749999978032648  0.3749999989644479  0.3232849587781885   F   F   F
  0.8749999987795931  0.6249999982740846  0.3232849587781885   F   F   F
  0.8749999987795931  0.8749999975837142  0.3232849587781885   F   F   F
  0.5783773777067012  0.5780030762495301  0.6762781459321374   T   T   T
  0.6363342659853615  0.4907984427484564  0.6759601203101013   T   T   T
  0.5576095952478184  0.4120935539630537  0.6753560387845496   T   T   T
  0.4216221947355194  0.4219966270912536  0.6762931344819947   T   T   T
  0.3636674019783186  0.5092019465438469  0.6759686715073556   T   T   T
  0.4423895018728530  0.5879078283887793  0.6753491578866004   T   T   T
  0.6764226892341938  0.6755147958528269  0.6763599010075509   T   T   T
  0.3235807924422431  0.3244883763469772  0.6763971174612138   T   T   T
  0.7423026381640980  0.4842286856800371  0.6759146241393097   T   T   T
  0.6016863273619819  0.3435045042801050  0.6763364214088412   T   T   T
  0.2576993949501016  0.5157707661378552  0.6759296277019047   T   T   T
  0.3983137391693319  0.6564973273903902  0.6763211582861430   T   T   T
 
  0.00000000E+00  0.00000000E+00  0.00000000E+00
  0.00000000E+00  0.00000000E+00  0.00000000E+00
  0.00000000E+00  0.00000000E+00  0.00000000E+00
  0.00000000E+00  0.00000000E+00  0.00000000E+00
  0.00000000E+00  0.00000000E+00  0.00000000E+00
  0.00000000E+00  0.00000000E+00  0.00000000E+00
  0.00000000E+00  0.00000000E+00  0.00000000E+00
  0.00000000E+00  0.00000000E+00  0.00000000E+00
  0.00000000E+00  0.00000000E+00  0.00000000E+00
  0.00000000E+00  0.00000000E+00  0.00000000E+00
  0.00000000E+00  0.00000000E+00  0.00000000E+00
  0.00000000E+00  0.00000000E+00  0.00000000E+00
  0.00000000E+00  0.00000000E+00  0.00000000E+00
  0.00000000E+00  0.00000000E+00  0.00000000E+00
  0.00000000E+00  0.00000000E+00  0.00000000E+00
  0.00000000E+00  0.00000000E+00  0.00000000E+00
  0.00000000E+00  0.00000000E+00  0.00000000E+00
  0.00000000E+00  0.00000000E+00  0.00000000E+00
  0.00000000E+00  0.00000000E+00  0.00000000E+00
  0.00000000E+00  0.00000000E+00  0.00000000E+00
  0.00000000E+00  0.00000000E+00  0.00000000E+00
  0.00000000E+00  0.00000000E+00  0.00000000E+00
  0.00000000E+00  0.00000000E+00  0.00000000E+00
  0.00000000E+00  0.00000000E+00  0.00000000E+00
  0.00000000E+00  0.00000000E+00  0.00000000E+00
  0.00000000E+00  0.00000000E+00  0.00000000E+00
  0.00000000E+00  0.00000000E+00  0.00000000E+00
  0.00000000E+00  0.00000000E+00  0.00000000E+00
  0.00000000E+00  0.00000000E+00  0.00000000E+00
  0.00000000E+00  0.00000000E+00  0.00000000E+00
  0.00000000E+00  0.00000000E+00  0.00000000E+00
  0.00000000E+00  0.00000000E+00  0.00000000E+00
  0.00000000E+00  0.00000000E+00  0.00000000E+00
  0.00000000E+00  0.00000000E+00  0.00000000E+00
  0.00000000E+00  0.00000000E+00  0.00000000E+00
  0.00000000E+00  0.00000000E+00  0.00000000E+00
  0.00000000E+00  0.00000000E+00  0.00000000E+00
  0.00000000E+00  0.00000000E+00  0.00000000E+00
  0.00000000E+00  0.00000000E+00  0.00000000E+00
  0.00000000E+00  0.00000000E+00  0.00000000E+00
  0.00000000E+00  0.00000000E+00  0.00000000E+00
  0.00000000E+00  0.00000000E+00  0.00000000E+00
  0.00000000E+00  0.00000000E+00  0.00000000E+00
  0.00000000E+00  0.00000000E+00  0.00000000E+00
  0.00000000E+00  0.00000000E+00  0.00000000E+00
  0.00000000E+00  0.00000000E+00  0.00000000E+00
  0.00000000E+00  0.00000000E+00  0.00000000E+00
  0.00000000E+00  0.00000000E+00  0.00000000E+00
  0.00000000E+00  0.00000000E+00  0.00000000E+00
  0.00000000E+00  0.00000000E+00  0.00000000E+00
  0.00000000E+00  0.00000000E+00  0.00000000E+00
  0.00000000E+00  0.00000000E+00  0.00000000E+00
  0.00000000E+00  0.00000000E+00  0.00000000E+00
  0.00000000E+00  0.00000000E+00  0.00000000E+00
  0.00000000E+00  0.00000000E+00  0.00000000E+00
  0.00000000E+00  0.00000000E+00  0.00000000E+00
  0.00000000E+00  0.00000000E+00  0.00000000E+00
  0.00000000E+00  0.00000000E+00  0.00000000E+00
  0.00000000E+00  0.00000000E+00  0.00000000E+00
  0.00000000E+00  0.00000000E+00  0.00000000E+00
