Rh  C  H  F                             
   1.00000000000000     
    10.8721879999999995    0.0000000000000000    0.0000000000000000
    -5.4360939999999998    9.4155909999999992    0.0000000000000000
     0.0000000000000000    0.0000000000000000   24.6578279400000042
   Rh   C    H    F 
    64     6     4     2
Selective dynamics
Direct
  0.9999999559446024  0.7499999670758868  0.3041630438110658   F   F   F
  0.2499999889626636  0.0000000000000000  0.3041630438110658   F   F   F
  0.2499999891709876  0.2499999893793188  0.3041630438110658   F   F   F
  0.2499999888482805  0.4999999776965680  0.3041630438110658   F   F   F
  0.2499999890566116  0.7499999670758868  0.3041630438110658   F   F   F
  0.4999999779253272  0.0000000000000000  0.3041630438110658   F   F   F
  0.4999999781336513  0.2499999893793188  0.3041630438110658   F   F   F
  0.4999999778109441  0.4999999776965680  0.3041630438110658   F   F   F
  0.7499999668879909  0.0000000000000000  0.3041630438110658   F   F   F
  0.7499999670963149  0.2499999893793188  0.3041630438110658   F   F   F
  0.7499999667736077  0.4999999776965680  0.3041630438110658   F   F   F
  0.7499999669819388  0.7499999670758868  0.3041630438110658   F   F   F
  0.0000000000000000  0.0000000000000000  0.3041630438110658   F   F   F
  0.9999999560589785  0.2499999893793188  0.3041630438110658   F   F   F
  0.9999999998856168  0.4999999776965680  0.3041630438110658   F   F   F
  0.4999999780192752  0.7499999670758868  0.3041630438110658   F   F   F
  0.0833330000000032  0.1666669999999968  0.3941659420955475   F   F   F
  0.0833330000000032  0.4166669999999968  0.3941659420955475   F   F   F
  0.0833330000000032  0.6666669999999968  0.3941659420955475   F   F   F
  0.0833330000000032  0.9166669999999968  0.3941659420955475   F   F   F
  0.3333330000000032  0.1666669999999968  0.3941659420955475   F   F   F
  0.3333330000000032  0.4166669999999968  0.3941659420955475   F   F   F
  0.3333330000000032  0.6666669999999968  0.3941659420955475   F   F   F
  0.3333330000000032  0.9166669999999968  0.3941659420955475   F   F   F
  0.5833330000000032  0.1666669999999968  0.3941659420955475   F   F   F
  0.5833330000000032  0.4166669999999968  0.3941659420955475   F   F   F
  0.5833330000000032  0.6666669999999968  0.3941659420955475   F   F   F
  0.5833330000000032  0.9166669999999968  0.3941659420955475   F   F   F
  0.8333330000000032  0.1666669999999968  0.3941659420955475   F   F   F
  0.8333330000000032  0.4166669999999968  0.3941659420955475   F   F   F
  0.8333330000000032  0.6666669999999968  0.3941659420955475   F   F   F
  0.8333330000000032  0.9166669999999968  0.3941659420955475   F   F   F
  0.9967899849458235  0.9967312423848396  0.5654643069747792   T   T   T
  0.9955591420603465  0.2487587977355371  0.5658750157908460   T   T   T
  0.0002317120841735  0.4996796064049407  0.5660007027040280   T   T   T
  0.0011549939491868  0.7495490036112965  0.5656114013684767   T   T   T
  0.2476746655186727  0.9953252809613327  0.5657212019128444   T   T   T
  0.2420815347365960  0.2415051000228417  0.5694361602533308   T   T   T
  0.2512025192520583  0.4985442057114675  0.5692154307352754   T   T   T
  0.2506323170291102  0.7493401731792142  0.5659274933029603   T   T   T
  0.5001585153924093  0.0004918447728364  0.5659775368643710   T   T   T
  0.4987410068668519  0.2509695554997760  0.5697760271110165   T   T   T
  0.5085036846638498  0.5078157725668737  0.5691389168879990   T   T   T
  0.5012907522588723  0.7543154549261194  0.5658441495993221   T   T   T
  0.7499085398092582  0.0001536057167888  0.5656068054993011   T   T   T
  0.7486421622412263  0.2496318742800727  0.5659777673515298   T   T   T
  0.7545727254016205  0.5026225695392836  0.5657833906652711   T   T   T
  0.7537875159026520  0.7535969709434512  0.5655551850959377   T   T   T
  0.1669810522658404  0.0842285718299021  0.4800478754611713   T   T   T
  0.1676136222222817  0.3337061246278177  0.4805265034254582   T   T   T
  0.1677753973242649  0.5820405891139780  0.4803926588297801   T   T   T
  0.1676612012285449  0.8334214038211205  0.4796514239272912   T   T   T
  0.4168076871321438  0.0851467216770901  0.4803618687269123   T   T   T
  0.4156641204841632  0.3339059243046213  0.4809523275627278   T   T   T
  0.4161322995688576  0.5822388617980859  0.4803839028075902   T   T   T
  0.4166931999897245  0.8334243010208937  0.4798409866273005   T   T   T
  0.6663413719744351  0.0837714571553280  0.4798620985388678   T   T   T
  0.6643995531449228  0.3331559413852478  0.4803975369509974   T   T   T
  0.6657856080157154  0.5830577467971790  0.4799818053970107   T   T   T
  0.6661059785910950  0.8328020111834948  0.4794992569927638   T   T   T
  0.9168955702807103  0.0837880076391769  0.4796579262051123   T   T   T
  0.9162785914354590  0.3333506731034124  0.4799086486833195   T   T   T
  0.9164004572663231  0.5824120039179006  0.4797961029673517   T   T   T
  0.9169559479594553  0.8329992879765861  0.4793716525041352   T   T   T
  0.2955715554613686  0.4546336872547133  0.6491539645561495   T   T   T
  0.4518008432103883  0.5277061662789763  0.6511291385567775   T   T   T
  0.5279830618428583  0.4513246834105831  0.6511234439671107   T   T   T
  0.4548866093625062  0.2949375362460772  0.6494058356884808   T   T   T
  0.2985115446187615  0.2220564698283103  0.6512466596564234   T   T   T
  0.2223645933394977  0.2984241813633640  0.6512509659699062   T   T   T
  0.5040978254195104  0.6363566600042245  0.6667368012167477   T   T   T
  0.6364719941727113  0.5038547456329571  0.6668949140150450   T   T   T
  0.2459315838741369  0.1135954731620250  0.6670292097440614   T   T   T
  0.1137249179766743  0.2463655741017566  0.6668769207211012   T   T   T
  0.2383399000806446  0.5121197376854099  0.6854017350531215   T   T   T
  0.5114522098366172  0.2383786279640124  0.6863493135212485   T   T   T
 
  0.00000000E+00  0.00000000E+00  0.00000000E+00
  0.00000000E+00  0.00000000E+00  0.00000000E+00
  0.00000000E+00  0.00000000E+00  0.00000000E+00
  0.00000000E+00  0.00000000E+00  0.00000000E+00
  0.00000000E+00  0.00000000E+00  0.00000000E+00
  0.00000000E+00  0.00000000E+00  0.00000000E+00
  0.00000000E+00  0.00000000E+00  0.00000000E+00
  0.00000000E+00  0.00000000E+00  0.00000000E+00
  0.00000000E+00  0.00000000E+00  0.00000000E+00
  0.00000000E+00  0.00000000E+00  0.00000000E+00
  0.00000000E+00  0.00000000E+00  0.00000000E+00
  0.00000000E+00  0.00000000E+00  0.00000000E+00
  0.00000000E+00  0.00000000E+00  0.00000000E+00
  0.00000000E+00  0.00000000E+00  0.00000000E+00
  0.00000000E+00  0.00000000E+00  0.00000000E+00
  0.00000000E+00  0.00000000E+00  0.00000000E+00
  0.00000000E+00  0.00000000E+00  0.00000000E+00
  0.00000000E+00  0.00000000E+00  0.00000000E+00
  0.00000000E+00  0.00000000E+00  0.00000000E+00
  0.00000000E+00  0.00000000E+00  0.00000000E+00
  0.00000000E+00  0.00000000E+00  0.00000000E+00
  0.00000000E+00  0.00000000E+00  0.00000000E+00
  0.00000000E+00  0.00000000E+00  0.00000000E+00
  0.00000000E+00  0.00000000E+00  0.00000000E+00
  0.00000000E+00  0.00000000E+00  0.00000000E+00
  0.00000000E+00  0.00000000E+00  0.00000000E+00
  0.00000000E+00  0.00000000E+00  0.00000000E+00
  0.00000000E+00  0.00000000E+00  0.00000000E+00
  0.00000000E+00  0.00000000E+00  0.00000000E+00
  0.00000000E+00  0.00000000E+00  0.00000000E+00
  0.00000000E+00  0.00000000E+00  0.00000000E+00
  0.00000000E+00  0.00000000E+00  0.00000000E+00
  0.00000000E+00  0.00000000E+00  0.00000000E+00
  0.00000000E+00  0.00000000E+00  0.00000000E+00
  0.00000000E+00  0.00000000E+00  0.00000000E+00
  0.00000000E+00  0.00000000E+00  0.00000000E+00
  0.00000000E+00  0.00000000E+00  0.00000000E+00
  0.00000000E+00  0.00000000E+00  0.00000000E+00
  0.00000000E+00  0.00000000E+00  0.00000000E+00
  0.00000000E+00  0.00000000E+00  0.00000000E+00
  0.00000000E+00  0.00000000E+00  0.00000000E+00
  0.00000000E+00  0.00000000E+00  0.00000000E+00
  0.00000000E+00  0.00000000E+00  0.00000000E+00
  0.00000000E+00  0.00000000E+00  0.00000000E+00
  0.00000000E+00  0.00000000E+00  0.00000000E+00
  0.00000000E+00  0.00000000E+00  0.00000000E+00
  0.00000000E+00  0.00000000E+00  0.00000000E+00
  0.00000000E+00  0.00000000E+00  0.00000000E+00
  0.00000000E+00  0.00000000E+00  0.00000000E+00
  0.00000000E+00  0.00000000E+00  0.00000000E+00
  0.00000000E+00  0.00000000E+00  0.00000000E+00
  0.00000000E+00  0.00000000E+00  0.00000000E+00
  0.00000000E+00  0.00000000E+00  0.00000000E+00
  0.00000000E+00  0.00000000E+00  0.00000000E+00
  0.00000000E+00  0.00000000E+00  0.00000000E+00
  0.00000000E+00  0.00000000E+00  0.00000000E+00
  0.00000000E+00  0.00000000E+00  0.00000000E+00
  0.00000000E+00  0.00000000E+00  0.00000000E+00
  0.00000000E+00  0.00000000E+00  0.00000000E+00
  0.00000000E+00  0.00000000E+00  0.00000000E+00
  0.00000000E+00  0.00000000E+00  0.00000000E+00
  0.00000000E+00  0.00000000E+00  0.00000000E+00
  0.00000000E+00  0.00000000E+00  0.00000000E+00
  0.00000000E+00  0.00000000E+00  0.00000000E+00
  0.00000000E+00  0.00000000E+00  0.00000000E+00
  0.00000000E+00  0.00000000E+00  0.00000000E+00
  0.00000000E+00  0.00000000E+00  0.00000000E+00
  0.00000000E+00  0.00000000E+00  0.00000000E+00
  0.00000000E+00  0.00000000E+00  0.00000000E+00
  0.00000000E+00  0.00000000E+00  0.00000000E+00
  0.00000000E+00  0.00000000E+00  0.00000000E+00
  0.00000000E+00  0.00000000E+00  0.00000000E+00
  0.00000000E+00  0.00000000E+00  0.00000000E+00
  0.00000000E+00  0.00000000E+00  0.00000000E+00
  0.00000000E+00  0.00000000E+00  0.00000000E+00
  0.00000000E+00  0.00000000E+00  0.00000000E+00
