Ag  C  H Br                             
    1.000000000000000     
    11.7702790000000004    0.0000000000000000    0.0000000000000000
     0.0000000000000000   11.7702790000000004    0.0000000000000000
     0.0000000000000000    0.0000000000000000   24.2421330600000005
   Ag   C    H    Br
    64     6     4     2
Selective dynamics
Direct
  0.0000000000000000  0.2499999991504041  0.3093787160328390   F   F   F
  0.7499999974512050  0.7499999974512050  0.3093787160328390   F   F   F
  0.0000000000000000  0.4999999983008081  0.3093787160328390   F   F   F
  0.0000000000000000  0.7499999974512050  0.3093787160328390   F   F   F
  0.0000000000000000  0.0000000000000000  0.3093787160328390   F   F   F
  0.2499999991504041  0.2499999991504041  0.3093787160328390   F   F   F
  0.2499999991504041  0.4999999983008081  0.3093787160328390   F   F   F
  0.7499999974512050  0.0000000000000000  0.3093787160328390   F   F   F
  0.2499999991504041  0.7499999974512050  0.3093787160328390   F   F   F
  0.2499999991504041  0.0000000000000000  0.3093787160328390   F   F   F
  0.4999999983008081  0.2499999991504041  0.3093787160328390   F   F   F
  0.4999999983008081  0.4999999983008081  0.3093787160328390   F   F   F
  0.4999999983008081  0.7499999974512050  0.3093787160328390   F   F   F
  0.4999999983008081  0.0000000000000000  0.3093787160328390   F   F   F
  0.7499999974512050  0.2499999991504041  0.3093787160328390   F   F   F
  0.7499999974512050  0.4999999983008081  0.3093787160328390   F   F   F
  0.0000162064108962  0.2500263138440095  0.4740756920258329   T   T   T
  0.0000000684536290  0.4999992550372359  0.4740615626487515   T   T   T
 -0.0000164261035752  0.7499728538321051  0.4740756735984581   T   T   T
  0.0000000445934435 -0.0000000926959353  0.4739884722170845   T   T   T
  0.2496375167331071  0.2496373060447326  0.4738748956944056   T   T   T
  0.2496149054125788  0.5002427710363568  0.4739393001241054   T   T   T
  0.2499634825449803  0.7500352900557564  0.4740142700813195   T   T   T
  0.2500262094776650  0.0000160420657102  0.4740758256912407   T   T   T
  0.5002428558320254  0.2496147723485278  0.4739393105986994   T   T   T
  0.4999980468681961  0.4999977098023157  0.4737268899950918   T   T   T
  0.4997553468265207  0.7503844542123752  0.4739389389329966   T   T   T
  0.4999991742300854  0.0000003705887482  0.4740615724346920   T   T   T
  0.7500346562798516  0.2499637024381488  0.4740141480345667   T   T   T
  0.7503839877220106  0.4997551678771045  0.4739388069430304   T   T   T
  0.7503612394639825  0.7503613431117686  0.4738749117844862   T   T   T
  0.7499726101736547 -0.0000161151166181  0.4740756093341860   T   T   T
  0.1247188664602854  0.1247187889022343  0.5521712391173279   T   T   T
  0.1249463616509327  0.3752050467193034  0.5522864578302805   T   T   T
  0.1250757822868173  0.6250620343259642  0.5522864563943969   T   T   T
  0.1252002261277534  0.8747989117086155  0.5522980031859778   T   T   T
  0.3752048107144382  0.1249465231993071  0.5522858105715273   T   T   T
  0.3752450744785846  0.3752440765855283  0.5508399218867689   T   T   T
  0.3749195135664998  0.6250785672875496  0.5520815644754687   T   T   T
  0.3749366015503709  0.8749235435961031  0.5522860050219863   T   T   T
  0.6250616643400463  0.1250758560180949  0.5522862475622635   T   T   T
  0.6250779147086110  0.3749200573045158  0.5520823866802703   T   T   T
  0.6247507980405126  0.6247520171048786  0.5508365484227963   T   T   T
  0.6247932388560445  0.8750530003576087  0.5522847999583496   T   T   T
  0.8747989667495583  0.1252004026640427  0.5522978979796969   T   T   T
  0.8749234180523416  0.3749367800799995  0.5522862149956650   T   T   T
  0.8750530605660594  0.6247932637613557  0.5522853349034431   T   T   T
  0.8752810097450964  0.8752808949954108  0.5521702097063155   T   T   T
  0.1249999995752020  0.1249999995752020  0.3952090765398992   F   F   F
  0.1249999995752020  0.3749999987256061  0.3952090765398992   F   F   F
  0.1249999995752020  0.6249999978760030  0.3952090765398992   F   F   F
  0.1249999995752020  0.8749999970264071  0.3952090765398992   F   F   F
  0.3749999987256061  0.1249999995752020  0.3952090765398992   F   F   F
  0.3749999987256061  0.3749999987256061  0.3952090765398992   F   F   F
  0.3749999987256061  0.6249999978760030  0.3952090765398992   F   F   F
  0.3749999987256061  0.8749999970264071  0.3952090765398992   F   F   F
  0.6249999978760030  0.1249999995752020  0.3952090765398992   F   F   F
  0.6249999978760030  0.3749999987256061  0.3952090765398992   F   F   F
  0.6249999978760030  0.6249999978760030  0.3952090765398992   F   F   F
  0.6249999978760030  0.8749999970264071  0.3952090765398992   F   F   F
  0.8749999970264071  0.1249999995752020  0.3952090765398992   F   F   F
  0.8749999970264071  0.3749999987256061  0.3952090765398992   F   F   F
  0.8749999970264071  0.6249999978760030  0.3952090765398992   F   F   F
  0.8749999970264071  0.8749999970264071  0.3952090765398992   F   F   F
  0.5832783336484816  0.5832250205092175  0.6763263784475716   T   T   T
  0.6150560767577150  0.4690195526544396  0.6755700687737324   T   T   T
  0.5309549083665271  0.3849235446569614  0.6755834729070175   T   T   T
  0.4167354481171346  0.4167832361713172  0.6763515833003098   T   T   T
  0.3849550457969230  0.5309879088041657  0.6755922592089402   T   T   T
  0.4690565739164755  0.6150839521217657  0.6755734678211966   T   T   T
  0.7044444539957473  0.4449138880808517  0.6749952158197883   T   T   T
  0.5550367516246472  0.2955459539348794  0.6750142754257240   T   T   T
  0.2955622000067278  0.5550898874555804  0.6750194018541301   T   T   T
  0.4449681339742281  0.7044573077103680  0.6749982838666633   T   T   T
  0.6982535227731949  0.6980209069054488  0.6766526955905248   T   T   T
  0.3017580987673389  0.3019975682250543  0.6766088363788627   T   T   T
 
  0.00000000E+00  0.00000000E+00  0.00000000E+00
  0.00000000E+00  0.00000000E+00  0.00000000E+00
  0.00000000E+00  0.00000000E+00  0.00000000E+00
  0.00000000E+00  0.00000000E+00  0.00000000E+00
  0.00000000E+00  0.00000000E+00  0.00000000E+00
  0.00000000E+00  0.00000000E+00  0.00000000E+00
  0.00000000E+00  0.00000000E+00  0.00000000E+00
  0.00000000E+00  0.00000000E+00  0.00000000E+00
  0.00000000E+00  0.00000000E+00  0.00000000E+00
  0.00000000E+00  0.00000000E+00  0.00000000E+00
  0.00000000E+00  0.00000000E+00  0.00000000E+00
  0.00000000E+00  0.00000000E+00  0.00000000E+00
  0.00000000E+00  0.00000000E+00  0.00000000E+00
  0.00000000E+00  0.00000000E+00  0.00000000E+00
  0.00000000E+00  0.00000000E+00  0.00000000E+00
  0.00000000E+00  0.00000000E+00  0.00000000E+00
  0.00000000E+00  0.00000000E+00  0.00000000E+00
  0.00000000E+00  0.00000000E+00  0.00000000E+00
  0.00000000E+00  0.00000000E+00  0.00000000E+00
  0.00000000E+00  0.00000000E+00  0.00000000E+00
  0.00000000E+00  0.00000000E+00  0.00000000E+00
  0.00000000E+00  0.00000000E+00  0.00000000E+00
  0.00000000E+00  0.00000000E+00  0.00000000E+00
  0.00000000E+00  0.00000000E+00  0.00000000E+00
  0.00000000E+00  0.00000000E+00  0.00000000E+00
  0.00000000E+00  0.00000000E+00  0.00000000E+00
  0.00000000E+00  0.00000000E+00  0.00000000E+00
  0.00000000E+00  0.00000000E+00  0.00000000E+00
  0.00000000E+00  0.00000000E+00  0.00000000E+00
  0.00000000E+00  0.00000000E+00  0.00000000E+00
  0.00000000E+00  0.00000000E+00  0.00000000E+00
  0.00000000E+00  0.00000000E+00  0.00000000E+00
  0.00000000E+00  0.00000000E+00  0.00000000E+00
  0.00000000E+00  0.00000000E+00  0.00000000E+00
  0.00000000E+00  0.00000000E+00  0.00000000E+00
  0.00000000E+00  0.00000000E+00  0.00000000E+00
  0.00000000E+00  0.00000000E+00  0.00000000E+00
  0.00000000E+00  0.00000000E+00  0.00000000E+00
  0.00000000E+00  0.00000000E+00  0.00000000E+00
  0.00000000E+00  0.00000000E+00  0.00000000E+00
  0.00000000E+00  0.00000000E+00  0.00000000E+00
  0.00000000E+00  0.00000000E+00  0.00000000E+00
  0.00000000E+00  0.00000000E+00  0.00000000E+00
  0.00000000E+00  0.00000000E+00  0.00000000E+00
  0.00000000E+00  0.00000000E+00  0.00000000E+00
  0.00000000E+00  0.00000000E+00  0.00000000E+00
  0.00000000E+00  0.00000000E+00  0.00000000E+00
  0.00000000E+00  0.00000000E+00  0.00000000E+00
  0.00000000E+00  0.00000000E+00  0.00000000E+00
  0.00000000E+00  0.00000000E+00  0.00000000E+00
  0.00000000E+00  0.00000000E+00  0.00000000E+00
  0.00000000E+00  0.00000000E+00  0.00000000E+00
  0.00000000E+00  0.00000000E+00  0.00000000E+00
  0.00000000E+00  0.00000000E+00  0.00000000E+00
  0.00000000E+00  0.00000000E+00  0.00000000E+00
  0.00000000E+00  0.00000000E+00  0.00000000E+00
  0.00000000E+00  0.00000000E+00  0.00000000E+00
  0.00000000E+00  0.00000000E+00  0.00000000E+00
  0.00000000E+00  0.00000000E+00  0.00000000E+00
  0.00000000E+00  0.00000000E+00  0.00000000E+00
  0.00000000E+00  0.00000000E+00  0.00000000E+00
  0.00000000E+00  0.00000000E+00  0.00000000E+00
  0.00000000E+00  0.00000000E+00  0.00000000E+00
  0.00000000E+00  0.00000000E+00  0.00000000E+00
  0.00000000E+00  0.00000000E+00  0.00000000E+00
  0.00000000E+00  0.00000000E+00  0.00000000E+00
  0.00000000E+00  0.00000000E+00  0.00000000E+00
  0.00000000E+00  0.00000000E+00  0.00000000E+00
  0.00000000E+00  0.00000000E+00  0.00000000E+00
  0.00000000E+00  0.00000000E+00  0.00000000E+00
  0.00000000E+00  0.00000000E+00  0.00000000E+00
  0.00000000E+00  0.00000000E+00  0.00000000E+00
  0.00000000E+00  0.00000000E+00  0.00000000E+00
  0.00000000E+00  0.00000000E+00  0.00000000E+00
  0.00000000E+00  0.00000000E+00  0.00000000E+00
  0.00000000E+00  0.00000000E+00  0.00000000E+00
