Pd  C Br                                
    1.000000000000000     
    11.1817229999999999    0.0000000000000000    0.0000000000000000
     0.0000000000000000   11.1817229999999999    0.0000000000000000
     0.0000000000000000    0.0000000000000000   23.9300040900000006
   Pd   C    Br
    64     6     6
Selective dynamics
Direct
  0.0000000000000000  0.2499999991056825  0.3134140709626578   F   F   F
  0.7499999973170475  0.7499999973170475  0.3134140709626578   F   F   F
  0.0000000000000000  0.4999999982113650  0.3134140709626578   F   F   F
  0.0000000000000000  0.7499999973170475  0.3134140709626578   F   F   F
  0.0000000000000000  0.0000000000000000  0.3134140709626578   F   F   F
  0.2499999991056825  0.2499999991056825  0.3134140709626578   F   F   F
  0.2499999991056825  0.4999999982113650  0.3134140709626578   F   F   F
  0.7499999973170475  0.0000000000000000  0.3134140709626578   F   F   F
  0.2499999991056825  0.7499999973170475  0.3134140709626578   F   F   F
  0.2499999991056825  0.0000000000000000  0.3134140709626578   F   F   F
  0.4999999982113650  0.2499999991056825  0.3134140709626578   F   F   F
  0.4999999982113650  0.4999999982113650  0.3134140709626578   F   F   F
  0.4999999982113650  0.7499999973170475  0.3134140709626578   F   F   F
  0.4999999982113650  0.0000000000000000  0.3134140709626578   F   F   F
  0.7499999973170475  0.2499999991056825  0.3134140709626578   F   F   F
  0.7499999973170475  0.4999999982113650  0.3134140709626578   F   F   F
  0.9953372921667353  0.2536901501895896  0.4780412827072933   T   T   T
  0.9999987882921418  0.4999922984873676  0.4810785460337419   T   T   T
  0.0046498837789504  0.7463339011343975  0.4780469118859762   T   T   T
  0.0000026105014658  0.0000126052989038  0.4748593583893803   T   T   T
  0.2467440466959808  0.2467845110053534  0.4770700690773997   T   T   T
  0.2465593174212779  0.4991763519491488  0.4770968701995283   T   T   T
  0.2535559996069270  0.7464464486806313  0.4776873679848297   T   T   T
  0.2536319896637428  0.9953508753453574  0.4780497174689242   T   T   T
  0.4991528293803297  0.2465558102233317  0.4770957829595791   T   T   T
  0.4999906955934179  0.4999983860444570  0.4755686867136695   T   T   T
  0.5008232186952399  0.7534495742888360  0.4771053712212112   T   T   T
  0.4999924367991960  0.0000093973399178  0.4810786313891326   T   T   T
  0.7464528139197472  0.2535498770699659  0.4776732423325106   T   T   T
  0.7534402341875113  0.5008248326316120  0.4771088989644985   T   T   T
  0.7532191780812723  0.7532035968497399  0.4770938041445031   T   T   T
  0.7463518581250516  0.0046462619205763  0.4780522135727353   T   T   T
  0.1079345090198778  0.1079340104760025  0.5581487152546937   T   T   T
  0.1217630494038351  0.3681050044396538  0.5627159849461287   T   T   T
  0.1255311332940632  0.6236505339912483  0.5657674762853538   T   T   T
  0.1316539124153042  0.8683571229823153  0.5585292774629129   T   T   T
  0.3680870571600163  0.1217471632670083  0.5627179801039340   T   T   T
  0.3678710003411591  0.3678672696026681  0.5579338578418439   T   T   T
  0.3773462045130477  0.6226419524259056  0.5596518874273863   T   T   T
  0.3763626277391398  0.8744609556517856  0.5657744657042533   T   T   T
  0.6236318845616606  0.1255452405682238  0.5657785227520264   T   T   T
  0.6226925903763932  0.3773240417180296  0.5596421347433669   T   T   T
  0.6321447856609745  0.6321708217982795  0.5579551122189247   T   T   T
  0.6319077992196210  0.8782238049305336  0.5627131342144209   T   T   T
  0.8683373883427808  0.1316535918584893  0.5585239260371018   T   T   T
  0.8744882900201433  0.3763638524545272  0.5657767808000659   T   T   T
  0.8782062074028720  0.6319363738294210  0.5627214812836233   T   T   T
  0.8920704247328833  0.8920823918052150  0.5581497505539202   T   T   T
  0.1249999995528412  0.1249999995528412  0.3960161475258630   F   F   F
  0.1249999995528412  0.3749999986585237  0.3960161475258630   F   F   F
  0.1249999995528412  0.6249999977642062  0.3960161475258630   F   F   F
  0.1249999995528412  0.8749999968698887  0.3960161475258630   F   F   F
  0.3749999986585237  0.1249999995528412  0.3960161475258630   F   F   F
  0.3749999986585237  0.3749999986585237  0.3960161475258630   F   F   F
  0.3749999986585237  0.6249999977642062  0.3960161475258630   F   F   F
  0.3749999986585237  0.8749999968698887  0.3960161475258630   F   F   F
  0.6249999977642062  0.1249999995528412  0.3960161475258630   F   F   F
  0.6249999977642062  0.3749999986585237  0.3960161475258630   F   F   F
  0.6249999977642062  0.6249999977642062  0.3960161475258630   F   F   F
  0.6249999977642062  0.8749999968698887  0.3960161475258630   F   F   F
  0.8749999968698887  0.1249999995528412  0.3960161475258630   F   F   F
  0.8749999968698887  0.3749999986585237  0.3960161475258630   F   F   F
  0.8749999968698887  0.6249999977642062  0.3960161475258630   F   F   F
  0.8749999968698887  0.8749999968698887  0.3960161475258630   F   F   F
  0.3781198117256728  0.5319899928068851  0.6413416795675807   T   T   T
  0.4680151647084674  0.6219030756385846  0.6413620976452913   T   T   T
  0.5883378114034065  0.5882970179061753  0.6366140692509810   T   T   T
  0.6219371043591272  0.4679787553738085  0.6413332214557698   T   T   T
  0.5319843467560799  0.3780250348799827  0.6413574079400912   T   T   T
  0.4116565216202662  0.4116852494114864  0.6366171234071241   T   T   T
  0.2018044441544071  0.5715226383251482  0.6615910531090967   T   T   T
  0.4285975936737837  0.7981329190455202  0.6616510211527215   T   T   T
  0.7946676052515929  0.7947597699035748  0.6373952115370201   T   T   T
  0.7982662914879436  0.4284480570652404  0.6616167011074754   T   T   T
  0.5714152601636920  0.2018465232729378  0.6616447553002537   T   T   T
  0.2053259286483318  0.2053110857365785  0.6373797711587932   T   T   T
 
  0.00000000E+00  0.00000000E+00  0.00000000E+00
  0.00000000E+00  0.00000000E+00  0.00000000E+00
  0.00000000E+00  0.00000000E+00  0.00000000E+00
  0.00000000E+00  0.00000000E+00  0.00000000E+00
  0.00000000E+00  0.00000000E+00  0.00000000E+00
  0.00000000E+00  0.00000000E+00  0.00000000E+00
  0.00000000E+00  0.00000000E+00  0.00000000E+00
  0.00000000E+00  0.00000000E+00  0.00000000E+00
  0.00000000E+00  0.00000000E+00  0.00000000E+00
  0.00000000E+00  0.00000000E+00  0.00000000E+00
  0.00000000E+00  0.00000000E+00  0.00000000E+00
  0.00000000E+00  0.00000000E+00  0.00000000E+00
  0.00000000E+00  0.00000000E+00  0.00000000E+00
  0.00000000E+00  0.00000000E+00  0.00000000E+00
  0.00000000E+00  0.00000000E+00  0.00000000E+00
  0.00000000E+00  0.00000000E+00  0.00000000E+00
  0.00000000E+00  0.00000000E+00  0.00000000E+00
  0.00000000E+00  0.00000000E+00  0.00000000E+00
  0.00000000E+00  0.00000000E+00  0.00000000E+00
  0.00000000E+00  0.00000000E+00  0.00000000E+00
  0.00000000E+00  0.00000000E+00  0.00000000E+00
  0.00000000E+00  0.00000000E+00  0.00000000E+00
  0.00000000E+00  0.00000000E+00  0.00000000E+00
  0.00000000E+00  0.00000000E+00  0.00000000E+00
  0.00000000E+00  0.00000000E+00  0.00000000E+00
  0.00000000E+00  0.00000000E+00  0.00000000E+00
  0.00000000E+00  0.00000000E+00  0.00000000E+00
  0.00000000E+00  0.00000000E+00  0.00000000E+00
  0.00000000E+00  0.00000000E+00  0.00000000E+00
  0.00000000E+00  0.00000000E+00  0.00000000E+00
  0.00000000E+00  0.00000000E+00  0.00000000E+00
  0.00000000E+00  0.00000000E+00  0.00000000E+00
  0.00000000E+00  0.00000000E+00  0.00000000E+00
  0.00000000E+00  0.00000000E+00  0.00000000E+00
  0.00000000E+00  0.00000000E+00  0.00000000E+00
  0.00000000E+00  0.00000000E+00  0.00000000E+00
  0.00000000E+00  0.00000000E+00  0.00000000E+00
  0.00000000E+00  0.00000000E+00  0.00000000E+00
  0.00000000E+00  0.00000000E+00  0.00000000E+00
  0.00000000E+00  0.00000000E+00  0.00000000E+00
  0.00000000E+00  0.00000000E+00  0.00000000E+00
  0.00000000E+00  0.00000000E+00  0.00000000E+00
  0.00000000E+00  0.00000000E+00  0.00000000E+00
  0.00000000E+00  0.00000000E+00  0.00000000E+00
  0.00000000E+00  0.00000000E+00  0.00000000E+00
  0.00000000E+00  0.00000000E+00  0.00000000E+00
  0.00000000E+00  0.00000000E+00  0.00000000E+00
  0.00000000E+00  0.00000000E+00  0.00000000E+00
  0.00000000E+00  0.00000000E+00  0.00000000E+00
  0.00000000E+00  0.00000000E+00  0.00000000E+00
  0.00000000E+00  0.00000000E+00  0.00000000E+00
  0.00000000E+00  0.00000000E+00  0.00000000E+00
  0.00000000E+00  0.00000000E+00  0.00000000E+00
  0.00000000E+00  0.00000000E+00  0.00000000E+00
  0.00000000E+00  0.00000000E+00  0.00000000E+00
  0.00000000E+00  0.00000000E+00  0.00000000E+00
  0.00000000E+00  0.00000000E+00  0.00000000E+00
  0.00000000E+00  0.00000000E+00  0.00000000E+00
  0.00000000E+00  0.00000000E+00  0.00000000E+00
  0.00000000E+00  0.00000000E+00  0.00000000E+00
  0.00000000E+00  0.00000000E+00  0.00000000E+00
  0.00000000E+00  0.00000000E+00  0.00000000E+00
  0.00000000E+00  0.00000000E+00  0.00000000E+00
  0.00000000E+00  0.00000000E+00  0.00000000E+00
  0.00000000E+00  0.00000000E+00  0.00000000E+00
  0.00000000E+00  0.00000000E+00  0.00000000E+00
  0.00000000E+00  0.00000000E+00  0.00000000E+00
  0.00000000E+00  0.00000000E+00  0.00000000E+00
  0.00000000E+00  0.00000000E+00  0.00000000E+00
  0.00000000E+00  0.00000000E+00  0.00000000E+00
  0.00000000E+00  0.00000000E+00  0.00000000E+00
  0.00000000E+00  0.00000000E+00  0.00000000E+00
  0.00000000E+00  0.00000000E+00  0.00000000E+00
  0.00000000E+00  0.00000000E+00  0.00000000E+00
  0.00000000E+00  0.00000000E+00  0.00000000E+00
  0.00000000E+00  0.00000000E+00  0.00000000E+00
