Au48 C6 Cl6                             
    1.000000000000000     
    11.7981856999999994    0.0000000000000000    0.0000000000000000
     0.0000000000000000   11.7981856999999994    0.0000000000000000
     0.0000000000000000    0.0000000000000000   17.1724300499999991
   Au   C    Cl
    48     6     6
Selective dynamics
Direct
  0.2498227063788079  0.0000534071128513  0.4129920911080447   T   T   T
  0.2502052027738060  0.2502011590286557  0.4126178263559410   T   T   T
  0.2498174103437520  0.5003320471514527  0.4125988412231152   T   T   T
  0.2497464967552645  0.7502556373492411  0.4129452441785446   T   T   T
  0.4999988512890923  0.0000015365528014  0.4129122909720735   T   T   T
  0.5003325108936281  0.2498144278136323  0.4126015393975280   T   T   T
  0.5000024227840782  0.4999983805003794  0.4121787553261385   T   T   T
  0.4996692395213458  0.7501843234035661  0.4125981140868475   T   T   T
  0.7501747543324129  0.9999482899994732  0.4129959989965286   T   T   T
  0.7502497678175928  0.2497471114910184  0.4129506148650890   T   T   T
  0.7501822404048681  0.4996669707065564  0.4125994710807888   T   T   T
  0.7497944867028608  0.7497947315341733  0.4126181990198035   T   T   T
  0.0000002143147668  0.0000003073566219  0.4129858340436172   T   T   T
  0.0000517328336329  0.2498213438194341  0.4129938549625294   T   T   T
  0.9999971480292018  0.4999999623950089  0.4129100058247346   T   T   T
  0.9999444571823872  0.7501782778779145  0.4129918084961943   T   T   T
  0.1253304241496878  0.1253316198737267  0.5344921063212382   T   T   T
  0.1256476344687414  0.3751507227517479  0.5341435814793272   T   T   T
  0.1248346274926391  0.6250825906453912  0.5343690792058524   T   T   T
  0.1248569359967533  0.8751421313772809  0.5347733486037782   T   T   T
  0.3751466375146464  0.1256451475214106  0.5341469040115356   T   T   T
  0.3758930799362048  0.3759010958593549  0.5332932182015000   T   T   T
  0.3751282902810544  0.6248724132935166  0.5334997857659829   T   T   T
  0.3749168442484248  0.8751632042315478  0.5343743045630944   T   T   T
  0.6250805948075495  0.1248302767955209  0.5343748111330839   T   T   T
  0.6248649396200747  0.3751304560060902  0.5334971569791165   T   T   T
  0.6240966614643284  0.6241037759112658  0.5332913136918904   T   T   T
  0.6248475489041496  0.8743537922493303  0.5341449397386455   T   T   T
  0.8751435126868330  0.1248552852719769  0.5347775217952631   T   T   T
  0.8751682602443793  0.3749159105843844  0.5343708751853384   T   T   T
  0.8743530724181667  0.6248510636454228  0.5341427906656122   T   T   T
  0.8746674585116025  0.8746705149778720  0.5344917675504348   T   T   T
  0.1249999997881019  0.1250000006356942  0.2911643829930739   F   F   F
  0.1250000006356942  0.3750000010594832  0.2911643829930739   F   F   F
  0.1250000006356942  0.6250000006356942  0.2911643829930739   F   F   F
  0.1250000006356942  0.8750000019070754  0.2911643829930739   F   F   F
  0.3750000010594832  0.1250000006356942  0.2911643829930739   F   F   F
  0.3750000010594832  0.3750000010594832  0.2911643829930739   F   F   F
  0.3750000010594832  0.6250000006356942  0.2911643829930739   F   F   F
  0.3750000010594832  0.8750000019070754  0.2911643829930739   F   F   F
  0.6250000006356942  0.1250000006356942  0.2911643829930739   F   F   F
  0.6250000014832793  0.3750000010594832  0.2911643829930739   F   F   F
  0.6250000014832793  0.6250000006356942  0.2911643829930739   F   F   F
  0.6250000014832793  0.8750000019070754  0.2911643829930739   F   F   F
  0.8750000019070754  0.1250000006356942  0.2911643829930739   F   F   F
  0.8750000019070754  0.3750000010594832  0.2911643829930739   F   F   F
  0.8750000019070754  0.6250000006356942  0.2911643829930739   F   F   F
  0.8750000019070754  0.8750000019070754  0.2911643829930739   F   F   F
  0.6152684307527849  0.4691292110988954  0.7261654503244515   T   T   T
  0.5309334072518936  0.3847873248486096  0.7261676864396662   T   T   T
  0.4157483051300801  0.4157072434193765  0.7268524998094179   T   T   T
  0.3848120342472967  0.5309338342949914  0.7261710918687569   T   T   T
  0.4691740955634600  0.6152518032820424  0.7261758926963822   T   T   T
  0.5843256478876171  0.5842898259163505  0.7268594064094174   T   T   T
  0.7552345565608221  0.4317967899476685  0.7260367800371981   T   T   T
  0.5681253496562348  0.2447194922153884  0.7260314928560447   T   T   T
  0.3131020678033920  0.3131703789338900  0.7286075598564068   T   T   T
  0.2447005021940498  0.5682209845922372  0.7260333425462164   T   T   T
  0.4318749085854350  0.7552953811928944  0.7260641029882322   T   T   T
  0.6868236159382235  0.6867499711477336  0.7286035237119890   T   T   T
 
  0.00000000E+00  0.00000000E+00  0.00000000E+00
  0.00000000E+00  0.00000000E+00  0.00000000E+00
  0.00000000E+00  0.00000000E+00  0.00000000E+00
  0.00000000E+00  0.00000000E+00  0.00000000E+00
  0.00000000E+00  0.00000000E+00  0.00000000E+00
  0.00000000E+00  0.00000000E+00  0.00000000E+00
  0.00000000E+00  0.00000000E+00  0.00000000E+00
  0.00000000E+00  0.00000000E+00  0.00000000E+00
  0.00000000E+00  0.00000000E+00  0.00000000E+00
  0.00000000E+00  0.00000000E+00  0.00000000E+00
  0.00000000E+00  0.00000000E+00  0.00000000E+00
  0.00000000E+00  0.00000000E+00  0.00000000E+00
  0.00000000E+00  0.00000000E+00  0.00000000E+00
  0.00000000E+00  0.00000000E+00  0.00000000E+00
  0.00000000E+00  0.00000000E+00  0.00000000E+00
  0.00000000E+00  0.00000000E+00  0.00000000E+00
  0.00000000E+00  0.00000000E+00  0.00000000E+00
  0.00000000E+00  0.00000000E+00  0.00000000E+00
  0.00000000E+00  0.00000000E+00  0.00000000E+00
  0.00000000E+00  0.00000000E+00  0.00000000E+00
  0.00000000E+00  0.00000000E+00  0.00000000E+00
  0.00000000E+00  0.00000000E+00  0.00000000E+00
  0.00000000E+00  0.00000000E+00  0.00000000E+00
  0.00000000E+00  0.00000000E+00  0.00000000E+00
  0.00000000E+00  0.00000000E+00  0.00000000E+00
  0.00000000E+00  0.00000000E+00  0.00000000E+00
  0.00000000E+00  0.00000000E+00  0.00000000E+00
  0.00000000E+00  0.00000000E+00  0.00000000E+00
  0.00000000E+00  0.00000000E+00  0.00000000E+00
  0.00000000E+00  0.00000000E+00  0.00000000E+00
  0.00000000E+00  0.00000000E+00  0.00000000E+00
  0.00000000E+00  0.00000000E+00  0.00000000E+00
  0.00000000E+00  0.00000000E+00  0.00000000E+00
  0.00000000E+00  0.00000000E+00  0.00000000E+00
  0.00000000E+00  0.00000000E+00  0.00000000E+00
  0.00000000E+00  0.00000000E+00  0.00000000E+00
  0.00000000E+00  0.00000000E+00  0.00000000E+00
  0.00000000E+00  0.00000000E+00  0.00000000E+00
  0.00000000E+00  0.00000000E+00  0.00000000E+00
  0.00000000E+00  0.00000000E+00  0.00000000E+00
  0.00000000E+00  0.00000000E+00  0.00000000E+00
  0.00000000E+00  0.00000000E+00  0.00000000E+00
  0.00000000E+00  0.00000000E+00  0.00000000E+00
  0.00000000E+00  0.00000000E+00  0.00000000E+00
  0.00000000E+00  0.00000000E+00  0.00000000E+00
  0.00000000E+00  0.00000000E+00  0.00000000E+00
  0.00000000E+00  0.00000000E+00  0.00000000E+00
  0.00000000E+00  0.00000000E+00  0.00000000E+00
  0.00000000E+00  0.00000000E+00  0.00000000E+00
  0.00000000E+00  0.00000000E+00  0.00000000E+00
  0.00000000E+00  0.00000000E+00  0.00000000E+00
  0.00000000E+00  0.00000000E+00  0.00000000E+00
  0.00000000E+00  0.00000000E+00  0.00000000E+00
  0.00000000E+00  0.00000000E+00  0.00000000E+00
  0.00000000E+00  0.00000000E+00  0.00000000E+00
  0.00000000E+00  0.00000000E+00  0.00000000E+00
  0.00000000E+00  0.00000000E+00  0.00000000E+00
  0.00000000E+00  0.00000000E+00  0.00000000E+00
  0.00000000E+00  0.00000000E+00  0.00000000E+00
  0.00000000E+00  0.00000000E+00  0.00000000E+00
