Ag48 C6 H2 F4                           
    1.000000000000000     
    11.7702790000000004    0.0000000000000000    0.0000000000000000
     0.0000000000000000   16.6456881000000010    0.0000000000000000
     0.0000000000000000    0.0000000000000000   15.7057399100000001
   Ag   C    H    F 
    48     6     2     4
Selective dynamics
Direct
  0.9999967926779618  0.2500691022477710  0.4044745844977413   T   T   T
  0.9999999779919264  0.4999998707881232  0.4044741343796474   T   T   T
  0.0000035561576084  0.7499307684733054  0.4044748910147220   T   T   T
  0.0000003415546672  0.9999997418558522  0.4044094662615265   T   T   T
  0.2500779784197391  0.2500920925462182  0.4047219102328796   T   T   T
  0.2500908456309503  0.5000053773575317  0.4046046353745325   T   T   T
  0.2499401917030895  0.7500309868018178  0.4044751156394426   T   T   T
  0.2499865204130245  0.9999869282773233  0.4045279747028943   T   T   T
  0.4999181874152541  0.2499616962060500  0.4044552957897238   T   T   T
  0.5000001081576997  0.4999999893033049  0.4043474579103048   T   T   T
  0.5000816705911717  0.7500377189785112  0.4044551914366394   T   T   T
  0.5000002350450217  0.9999996796103545  0.4044888948238707   T   T   T
  0.7500610870947497  0.2499681608846060  0.4044741309203417   T   T   T
  0.7499099815667876  0.4999949644775299  0.4046039223577154   T   T   T
  0.7499221296659613  0.7499076092009105  0.4047212941131448   T   T   T
  0.7500135313373733  0.0000124857449961  0.4045274071706970   T   T   T
  0.1250197563753659  0.1250177100868157  0.4905972648884287   T   T   T
  0.1251901727837534  0.3750594276384902  0.4906801812757990   T   T   T
  0.1250037632690066  0.6248997686107813  0.4907251134613020   T   T   T
  0.1249891688015836  0.8749692835327068  0.4905845200703141   T   T   T
  0.3750329618014945  0.1251032740734104  0.4906221665613018   T   T   T
  0.3750972333543174  0.3753629189425283  0.4907588292857668   T   T   T
  0.3747018634035442  0.6251162410203577  0.4898429768909836   T   T   T
  0.3750630712201826  0.8749123951902291  0.4906121774089556   T   T   T
  0.6249372489927936  0.1250870238685309  0.4906126621698448   T   T   T
  0.6253028201273736  0.3748829104906548  0.4898313037301847   T   T   T
  0.6249011496490482  0.6246374968640964  0.4907575516480307   T   T   T
  0.6249674187464862  0.8748962416680257  0.4906207673571998   T   T   T
  0.8750110750501747  0.1250303789115677  0.4905846656986910   T   T   T
  0.8749983069186413  0.3750997954691115  0.4907237996228417   T   T   T
  0.8748099732449433  0.6249402271394615  0.4906800028937468   T   T   T
  0.8749807506184055  0.8749819530013525  0.4905972756219654   T   T   T
  0.1249999995752020  0.1250000004505694  0.3183549472136917   F   F   F
  0.1249999995752020  0.3750000007509442  0.3183549472136917   F   F   F
  0.1249999995752020  0.6250000016520829  0.3183549472136917   F   F   F
  0.1249999995752020  0.8750000019524578  0.3183549472136917   F   F   F
  0.3749999987256061  0.1250000004505694  0.3183549472136917   F   F   F
  0.3749999987256061  0.3750000007509442  0.3183549472136917   F   F   F
  0.3749999987256061  0.6250000016520829  0.3183549472136917   F   F   F
  0.3749999987256061  0.8750000019524578  0.3183549472136917   F   F   F
  0.6249999978760030  0.1250000004505694  0.3183549472136917   F   F   F
  0.6249999978760030  0.3750000007509442  0.3183549472136917   F   F   F
  0.6249999978760030  0.6250000016520829  0.3183549472136917   F   F   F
  0.6249999978760030  0.8750000019524578  0.3183549472136917   F   F   F
  0.8749999970264071  0.1250000004505694  0.3183549472136917   F   F   F
  0.8749999970264071  0.3750000007509442  0.3183549472136917   F   F   F
  0.8749999970264071  0.6250000016520829  0.3183549472136917   F   F   F
  0.8749999970264071  0.8750000019524578  0.3183549472136917   F   F   F
  0.4308598402048318  0.4309651589347823  0.6806960143610041   T   T   T
  0.3824952539549855  0.5072505419766244  0.6813231765028931   T   T   T
  0.4511083984398283  0.5755598394843631  0.6815022258609602   T   T   T
  0.5691162759540944  0.5690094094959264  0.6807182493364223   T   T   T
  0.6174770417247757  0.4927315706570710  0.6812878736328116   T   T   T
  0.5488782965116386  0.4244182372111851  0.6814275630223889   T   T   T
  0.3775439057650303  0.3774584245849155  0.6820409378671854   T   T   T
  0.6224208012507404  0.6225077608356031  0.6820486480977621   T   T   T
  0.2682114709906571  0.5153686775571700  0.6814348558283001   T   T   T
  0.4020832241472974  0.6492752103145278  0.6823699035889632   T   T   T
  0.7317535218698694  0.4846205890022617  0.6813699184979498   T   T   T
  0.5979037575378214  0.3506984298015041  0.6821966643950859   T   T   T
 
  0.00000000E+00  0.00000000E+00  0.00000000E+00
  0.00000000E+00  0.00000000E+00  0.00000000E+00
  0.00000000E+00  0.00000000E+00  0.00000000E+00
  0.00000000E+00  0.00000000E+00  0.00000000E+00
  0.00000000E+00  0.00000000E+00  0.00000000E+00
  0.00000000E+00  0.00000000E+00  0.00000000E+00
  0.00000000E+00  0.00000000E+00  0.00000000E+00
  0.00000000E+00  0.00000000E+00  0.00000000E+00
  0.00000000E+00  0.00000000E+00  0.00000000E+00
  0.00000000E+00  0.00000000E+00  0.00000000E+00
  0.00000000E+00  0.00000000E+00  0.00000000E+00
  0.00000000E+00  0.00000000E+00  0.00000000E+00
  0.00000000E+00  0.00000000E+00  0.00000000E+00
  0.00000000E+00  0.00000000E+00  0.00000000E+00
  0.00000000E+00  0.00000000E+00  0.00000000E+00
  0.00000000E+00  0.00000000E+00  0.00000000E+00
  0.00000000E+00  0.00000000E+00  0.00000000E+00
  0.00000000E+00  0.00000000E+00  0.00000000E+00
  0.00000000E+00  0.00000000E+00  0.00000000E+00
  0.00000000E+00  0.00000000E+00  0.00000000E+00
  0.00000000E+00  0.00000000E+00  0.00000000E+00
  0.00000000E+00  0.00000000E+00  0.00000000E+00
  0.00000000E+00  0.00000000E+00  0.00000000E+00
  0.00000000E+00  0.00000000E+00  0.00000000E+00
  0.00000000E+00  0.00000000E+00  0.00000000E+00
  0.00000000E+00  0.00000000E+00  0.00000000E+00
  0.00000000E+00  0.00000000E+00  0.00000000E+00
  0.00000000E+00  0.00000000E+00  0.00000000E+00
  0.00000000E+00  0.00000000E+00  0.00000000E+00
  0.00000000E+00  0.00000000E+00  0.00000000E+00
  0.00000000E+00  0.00000000E+00  0.00000000E+00
  0.00000000E+00  0.00000000E+00  0.00000000E+00
  0.00000000E+00  0.00000000E+00  0.00000000E+00
  0.00000000E+00  0.00000000E+00  0.00000000E+00
  0.00000000E+00  0.00000000E+00  0.00000000E+00
  0.00000000E+00  0.00000000E+00  0.00000000E+00
  0.00000000E+00  0.00000000E+00  0.00000000E+00
  0.00000000E+00  0.00000000E+00  0.00000000E+00
  0.00000000E+00  0.00000000E+00  0.00000000E+00
  0.00000000E+00  0.00000000E+00  0.00000000E+00
  0.00000000E+00  0.00000000E+00  0.00000000E+00
  0.00000000E+00  0.00000000E+00  0.00000000E+00
  0.00000000E+00  0.00000000E+00  0.00000000E+00
  0.00000000E+00  0.00000000E+00  0.00000000E+00
  0.00000000E+00  0.00000000E+00  0.00000000E+00
  0.00000000E+00  0.00000000E+00  0.00000000E+00
  0.00000000E+00  0.00000000E+00  0.00000000E+00
  0.00000000E+00  0.00000000E+00  0.00000000E+00
  0.00000000E+00  0.00000000E+00  0.00000000E+00
  0.00000000E+00  0.00000000E+00  0.00000000E+00
  0.00000000E+00  0.00000000E+00  0.00000000E+00
  0.00000000E+00  0.00000000E+00  0.00000000E+00
  0.00000000E+00  0.00000000E+00  0.00000000E+00
  0.00000000E+00  0.00000000E+00  0.00000000E+00
  0.00000000E+00  0.00000000E+00  0.00000000E+00
  0.00000000E+00  0.00000000E+00  0.00000000E+00
  0.00000000E+00  0.00000000E+00  0.00000000E+00
  0.00000000E+00  0.00000000E+00  0.00000000E+00
  0.00000000E+00  0.00000000E+00  0.00000000E+00
  0.00000000E+00  0.00000000E+00  0.00000000E+00
