Pd48 C4 N2 F4                           
    1.000000000000000     
    11.1817229999999999    0.0000000000000000    0.0000000000000000
     0.0000000000000000   11.1817229999999999    0.0000000000000000
     0.0000000000000000    0.0000000000000000   16.9003602499999985
   Pd   C    N    F 
    48     4     2     4
Selective dynamics
Direct
  0.9969676330629156  0.2491513468667819  0.4101662560243682   T   T   T
  0.0000061972071350  0.4999998233865881  0.4095590692004976   T   T   T
  0.0030517336208788  0.7508480576884651  0.4101558238599452   T   T   T
  0.0000125436470455  0.0000098445339418  0.4101615756253381   T   T   T
  0.2488693192006153  0.2488576905929420  0.4108515892098552   T   T   T
  0.2528410121645877  0.4983129302069429  0.4126482863392269   T   T   T
  0.2543624796415926  0.7456431087268243  0.4130176369345762   T   T   T
  0.2491586561660100  0.9969610861223472  0.4101673189109292   T   T   T
  0.4983168870216375  0.2528372255886282  0.4126575345926113   T   T   T
  0.5000061017148596  0.4999970912318688  0.4134056145143745   T   T   T
  0.5016747453345403  0.7471681612437422  0.4126465544294504   T   T   T
  0.4999969265230320  0.0000136250556437  0.4095632534274714   T   T   T
  0.7456358978917237  0.2543651763384744  0.4130211686069529   T   T   T
  0.7471692416078142  0.5016737765803683  0.4126467640490432   T   T   T
  0.7511305310640282  0.7511318103661537  0.4108296403026941   T   T   T
  0.7508488560198856  0.0030481553569999  0.4101543656435496   T   T   T
  0.1226381751969683  0.1226330279558141  0.5257749545130039   T   T   T
  0.1177684031354218  0.3725967422089909  0.5251887412791589   T   T   T
  0.1266014050686692  0.6222154963788569  0.5261509400317337   T   T   T
  0.1265546551406587  0.8734444105797436  0.5263912175585901   T   T   T
  0.3725933324922153  0.1177616178651562  0.5252218167638745   T   T   T
  0.3600003845179529  0.3599932898819063  0.5333566823783755   T   T   T
  0.3797620706097149  0.6202284476993114  0.5367027890806142   T   T   T
  0.3777862763028423  0.8733876666202391  0.5261578406827070   T   T   T
  0.6222358075026975  0.1266117254388632  0.5261633172318838   T   T   T
  0.6202358282864111  0.3797581181307947  0.5367048896579121   T   T   T
  0.6399789647186651  0.6399819651027414  0.5333428119791748   T   T   T
  0.6274085130872535  0.8822290716771448  0.5251826378350160   T   T   T
  0.8734513597469231  0.1265510565657593  0.5263731224034061   T   T   T
  0.8733889904684631  0.3777767150712990  0.5261458090663567   T   T   T
  0.8822260339760959  0.6274084959890232  0.5251669451433472   T   T   T
  0.8773597103331952  0.8773675036212083  0.5257469567799049   T   T   T
  0.1249999995528412  0.1249999995528412  0.2958516816231764   F   F   F
  0.1249999995528412  0.3749999986585237  0.2958516816231764   F   F   F
  0.1249999995528412  0.6249999977642062  0.2958516816231764   F   F   F
  0.1249999995528412  0.8749999968698887  0.2958516816231764   F   F   F
  0.3749999986585237  0.1249999995528412  0.2958516816231764   F   F   F
  0.3749999986585237  0.3749999986585237  0.2958516816231764   F   F   F
  0.3749999986585237  0.6249999977642062  0.2958516816231764   F   F   F
  0.3749999986585237  0.8749999968698887  0.2958516816231764   F   F   F
  0.6249999977642062  0.1249999995528412  0.2958516816231764   F   F   F
  0.6249999977642062  0.3749999986585237  0.2958516816231764   F   F   F
  0.6249999977642062  0.6249999977642062  0.2958516816231764   F   F   F
  0.6249999977642062  0.8749999968698887  0.2958516816231764   F   F   F
  0.8749999968698887  0.1249999995528412  0.2958516816231764   F   F   F
  0.8749999968698887  0.3749999986585237  0.2958516816231764   F   F   F
  0.8749999968698887  0.6249999977642062  0.2958516816231764   F   F   F
  0.8749999968698887  0.8749999968698887  0.2958516816231764   F   F   F
  0.5283450930715148  0.3803301727835233  0.6508009000668906   T   T   T
  0.6196669562163208  0.4716415453681435  0.6508005092936742   T   T   T
  0.4716111035017647  0.6196415077985122  0.6507894718194578   T   T   T
  0.3803398200087784  0.5283943616912836  0.6507968775963775   T   T   T
  0.5902977661483249  0.5903443127296129  0.6482599125982702   T   T   T
  0.4096240478419304  0.4096775934675136  0.6482832762070245   T   T   T
  0.2740959171749395  0.5516379143738916  0.6878188703534747   T   T   T
  0.4483527116189023  0.7258859763824361  0.6878032532213325   T   T   T
  0.5516364322217342  0.2740963717172065  0.6878259506347746   T   T   T
  0.7258783410407190  0.4483368530911562  0.6878214471125546   T   T   T
 
  0.00000000E+00  0.00000000E+00  0.00000000E+00
  0.00000000E+00  0.00000000E+00  0.00000000E+00
  0.00000000E+00  0.00000000E+00  0.00000000E+00
  0.00000000E+00  0.00000000E+00  0.00000000E+00
  0.00000000E+00  0.00000000E+00  0.00000000E+00
  0.00000000E+00  0.00000000E+00  0.00000000E+00
  0.00000000E+00  0.00000000E+00  0.00000000E+00
  0.00000000E+00  0.00000000E+00  0.00000000E+00
  0.00000000E+00  0.00000000E+00  0.00000000E+00
  0.00000000E+00  0.00000000E+00  0.00000000E+00
  0.00000000E+00  0.00000000E+00  0.00000000E+00
  0.00000000E+00  0.00000000E+00  0.00000000E+00
  0.00000000E+00  0.00000000E+00  0.00000000E+00
  0.00000000E+00  0.00000000E+00  0.00000000E+00
  0.00000000E+00  0.00000000E+00  0.00000000E+00
  0.00000000E+00  0.00000000E+00  0.00000000E+00
  0.00000000E+00  0.00000000E+00  0.00000000E+00
  0.00000000E+00  0.00000000E+00  0.00000000E+00
  0.00000000E+00  0.00000000E+00  0.00000000E+00
  0.00000000E+00  0.00000000E+00  0.00000000E+00
  0.00000000E+00  0.00000000E+00  0.00000000E+00
  0.00000000E+00  0.00000000E+00  0.00000000E+00
  0.00000000E+00  0.00000000E+00  0.00000000E+00
  0.00000000E+00  0.00000000E+00  0.00000000E+00
  0.00000000E+00  0.00000000E+00  0.00000000E+00
  0.00000000E+00  0.00000000E+00  0.00000000E+00
  0.00000000E+00  0.00000000E+00  0.00000000E+00
  0.00000000E+00  0.00000000E+00  0.00000000E+00
  0.00000000E+00  0.00000000E+00  0.00000000E+00
  0.00000000E+00  0.00000000E+00  0.00000000E+00
  0.00000000E+00  0.00000000E+00  0.00000000E+00
  0.00000000E+00  0.00000000E+00  0.00000000E+00
  0.00000000E+00  0.00000000E+00  0.00000000E+00
  0.00000000E+00  0.00000000E+00  0.00000000E+00
  0.00000000E+00  0.00000000E+00  0.00000000E+00
  0.00000000E+00  0.00000000E+00  0.00000000E+00
  0.00000000E+00  0.00000000E+00  0.00000000E+00
  0.00000000E+00  0.00000000E+00  0.00000000E+00
  0.00000000E+00  0.00000000E+00  0.00000000E+00
  0.00000000E+00  0.00000000E+00  0.00000000E+00
  0.00000000E+00  0.00000000E+00  0.00000000E+00
  0.00000000E+00  0.00000000E+00  0.00000000E+00
  0.00000000E+00  0.00000000E+00  0.00000000E+00
  0.00000000E+00  0.00000000E+00  0.00000000E+00
  0.00000000E+00  0.00000000E+00  0.00000000E+00
  0.00000000E+00  0.00000000E+00  0.00000000E+00
  0.00000000E+00  0.00000000E+00  0.00000000E+00
  0.00000000E+00  0.00000000E+00  0.00000000E+00
  0.00000000E+00  0.00000000E+00  0.00000000E+00
  0.00000000E+00  0.00000000E+00  0.00000000E+00
  0.00000000E+00  0.00000000E+00  0.00000000E+00
  0.00000000E+00  0.00000000E+00  0.00000000E+00
  0.00000000E+00  0.00000000E+00  0.00000000E+00
  0.00000000E+00  0.00000000E+00  0.00000000E+00
  0.00000000E+00  0.00000000E+00  0.00000000E+00
  0.00000000E+00  0.00000000E+00  0.00000000E+00
  0.00000000E+00  0.00000000E+00  0.00000000E+00
  0.00000000E+00  0.00000000E+00  0.00000000E+00
