Au48 C4 N2 F4                           
    1.000000000000000     
    11.7981856999999994    0.0000000000000000    0.0000000000000000
     0.0000000000000000   16.6851543000000007    0.0000000000000000
     0.0000000000000000    0.0000000000000000   15.8893076700000009
   Au   C    N    F 
    48     4     2     4
Selective dynamics
Direct
  0.0001085737075925  0.2500122128654070  0.4056037584351060   T   T   T
  0.9999143053467776  0.4999865202475036  0.4056184332132631   T   T   T
  0.9998221910097271  0.7500047752809849  0.4056174360050520   T   T   T
  0.9999966380543341  0.9999969443933878  0.4054409842034445   T   T   T
  0.2496989053128402  0.2498649779720878  0.4057144970435616   T   T   T
  0.2494634504094364  0.4994308398066707  0.4055758789908808   T   T   T
  0.2494276368448354  0.7505160370660278  0.4052423589762455   T   T   T
  0.2500294161796859  0.0000016238282328  0.4056766549437469   T   T   T
  0.4998879628091188  0.2496232359843304  0.4052998385720699   T   T   T
  0.5001085956788529  0.5000032253710458  0.4060040730017676   T   T   T
  0.5001993614444800  0.7503753333063088  0.4052977420811033   T   T   T
  0.4999994559675400  0.9999994769435148  0.4056300600385754   T   T   T
  0.7505675776881304  0.2495680401234992  0.4051769113305355   T   T   T
  0.7505136114091329  0.5005526547023820  0.4054638027223092   T   T   T
  0.7502861209977070  0.7500668056515707  0.4056605237342623   T   T   T
  0.7499743617635133  0.9999947560269362  0.4056788140075227   T   T   T
  0.1249576039960232  0.1249389536945529  0.4964702617349204   T   T   T
  0.1247499064882120  0.3748765699273449  0.4968690192761329   T   T   T
  0.1246643089925641  0.6249001854288991  0.4965112345118783   T   T   T
  0.1248492938849921  0.8751671335239308  0.4965859510626274   T   T   T
  0.3749350437534531  0.1250164323908578  0.4965418408367199   T   T   T
  0.3748954854804083  0.3743846964378221  0.4963847603076559   T   T   T
  0.3739780340010697  0.6250700395379667  0.4945499119819985   T   T   T
  0.3750215624494757  0.8749688812043459  0.4964811437320407   T   T   T
  0.6249763765626355  0.1250325038332036  0.4964821031407070   T   T   T
  0.6260187479326902  0.3749359246617558  0.4945219708517996   T   T   T
  0.6251006434532087  0.6256027066739023  0.4963326533592252   T   T   T
  0.6250662471686184  0.8749849514634391  0.4965415311977921   T   T   T
  0.8751492093882476  0.1248351616960264  0.4965884550986317   T   T   T
  0.8753387836449065  0.3751075558843624  0.4964667958766285   T   T   T
  0.8752548213515112  0.6251113392898731  0.4968354929811838   T   T   T
  0.8750443511485813  0.8750637102269891  0.4964656480372582   T   T   T
  0.1250000006356942  0.1249999995504965  0.3146770207892899   F   F   F
  0.1250000006356942  0.3749999992508322  0.3146770207892899   F   F   F
  0.1250000006356942  0.6249999983518251  0.3146770207892899   F   F   F
  0.1250000006356942  0.8749999974528251  0.3146770207892899   F   F   F
  0.3750000002118981  0.1249999995504965  0.3146770207892899   F   F   F
  0.3750000002118981  0.3749999992508322  0.3146770207892899   F   F   F
  0.3750000010594832  0.6249999983518251  0.3146770207892899   F   F   F
  0.3750000010594832  0.8749999974528251  0.3146770207892899   F   F   F
  0.6250000006356942  0.1249999995504965  0.3146770207892899   F   F   F
  0.6250000006356942  0.3749999992508322  0.3146770207892899   F   F   F
  0.6250000014832793  0.6249999983518251  0.3146770207892899   F   F   F
  0.6250000006356942  0.8749999974528251  0.3146770207892899   F   F   F
  0.8750000010594832  0.1249999995504965  0.3146770207892899   F   F   F
  0.8750000010594832  0.3749999992508322  0.3146770207892899   F   F   F
  0.8750000019070754  0.6249999983518251  0.3146770207892899   F   F   F
  0.8750000010594832  0.8749999974528251  0.3146770207892899   F   F   F
  0.5433507334857737  0.4266521364107518  0.6865144768879148   T   T   T
  0.6123656189904807  0.4950203819381329  0.6856246370201475   T   T   T
  0.4566607463222070  0.5733521197030313  0.6865116297366001   T   T   T
  0.3876351253313075  0.5049748918407104  0.6856219219175443   T   T   T
  0.5680370930395213  0.5675044132509370  0.6857247997532809   T   T   T
  0.4319747140032035  0.4324930454839020  0.6857245367327067   T   T   T
  0.2743122951614936  0.5115847441840913  0.6853364977370688   T   T   T
  0.4108798690554067  0.6470794402099926  0.6903914768111079   T   T   T
  0.5891213060830651  0.3529323087172571  0.6903874948452611   T   T   T
  0.7256755854356030  0.4884167421858479  0.6853397699040329   T   T   T
 
  0.00000000E+00  0.00000000E+00  0.00000000E+00
  0.00000000E+00  0.00000000E+00  0.00000000E+00
  0.00000000E+00  0.00000000E+00  0.00000000E+00
  0.00000000E+00  0.00000000E+00  0.00000000E+00
  0.00000000E+00  0.00000000E+00  0.00000000E+00
  0.00000000E+00  0.00000000E+00  0.00000000E+00
  0.00000000E+00  0.00000000E+00  0.00000000E+00
  0.00000000E+00  0.00000000E+00  0.00000000E+00
  0.00000000E+00  0.00000000E+00  0.00000000E+00
  0.00000000E+00  0.00000000E+00  0.00000000E+00
  0.00000000E+00  0.00000000E+00  0.00000000E+00
  0.00000000E+00  0.00000000E+00  0.00000000E+00
  0.00000000E+00  0.00000000E+00  0.00000000E+00
  0.00000000E+00  0.00000000E+00  0.00000000E+00
  0.00000000E+00  0.00000000E+00  0.00000000E+00
  0.00000000E+00  0.00000000E+00  0.00000000E+00
  0.00000000E+00  0.00000000E+00  0.00000000E+00
  0.00000000E+00  0.00000000E+00  0.00000000E+00
  0.00000000E+00  0.00000000E+00  0.00000000E+00
  0.00000000E+00  0.00000000E+00  0.00000000E+00
  0.00000000E+00  0.00000000E+00  0.00000000E+00
  0.00000000E+00  0.00000000E+00  0.00000000E+00
  0.00000000E+00  0.00000000E+00  0.00000000E+00
  0.00000000E+00  0.00000000E+00  0.00000000E+00
  0.00000000E+00  0.00000000E+00  0.00000000E+00
  0.00000000E+00  0.00000000E+00  0.00000000E+00
  0.00000000E+00  0.00000000E+00  0.00000000E+00
  0.00000000E+00  0.00000000E+00  0.00000000E+00
  0.00000000E+00  0.00000000E+00  0.00000000E+00
  0.00000000E+00  0.00000000E+00  0.00000000E+00
  0.00000000E+00  0.00000000E+00  0.00000000E+00
  0.00000000E+00  0.00000000E+00  0.00000000E+00
  0.00000000E+00  0.00000000E+00  0.00000000E+00
  0.00000000E+00  0.00000000E+00  0.00000000E+00
  0.00000000E+00  0.00000000E+00  0.00000000E+00
  0.00000000E+00  0.00000000E+00  0.00000000E+00
  0.00000000E+00  0.00000000E+00  0.00000000E+00
  0.00000000E+00  0.00000000E+00  0.00000000E+00
  0.00000000E+00  0.00000000E+00  0.00000000E+00
  0.00000000E+00  0.00000000E+00  0.00000000E+00
  0.00000000E+00  0.00000000E+00  0.00000000E+00
  0.00000000E+00  0.00000000E+00  0.00000000E+00
  0.00000000E+00  0.00000000E+00  0.00000000E+00
  0.00000000E+00  0.00000000E+00  0.00000000E+00
  0.00000000E+00  0.00000000E+00  0.00000000E+00
  0.00000000E+00  0.00000000E+00  0.00000000E+00
  0.00000000E+00  0.00000000E+00  0.00000000E+00
  0.00000000E+00  0.00000000E+00  0.00000000E+00
  0.00000000E+00  0.00000000E+00  0.00000000E+00
  0.00000000E+00  0.00000000E+00  0.00000000E+00
  0.00000000E+00  0.00000000E+00  0.00000000E+00
  0.00000000E+00  0.00000000E+00  0.00000000E+00
  0.00000000E+00  0.00000000E+00  0.00000000E+00
  0.00000000E+00  0.00000000E+00  0.00000000E+00
  0.00000000E+00  0.00000000E+00  0.00000000E+00
  0.00000000E+00  0.00000000E+00  0.00000000E+00
  0.00000000E+00  0.00000000E+00  0.00000000E+00
  0.00000000E+00  0.00000000E+00  0.00000000E+00
