H2 Pt48 C6 F4                           
    1.000000000000000     
    11.2480069999999994    0.0000000000000000    0.0000000000000000
    -5.6240030000000001    9.7410599999999992    0.0000000000000000
     0.0000000000000000    0.0000000000000000   16.8162860000000016
   H    Pt   C    F 
     2    48     6     4
Selective dynamics
Direct
  0.7472455419992130  0.5021906070449020  0.7956655733098188   T   T   T
  0.5023344812584654  0.7473375619652742  0.7965048633461294   T   T   T
  0.0833330000000032  0.1666669999999968  0.3567970000000003   F   F   F
  0.0833330000000032  0.4166669999999968  0.3567970000000003   F   F   F
  0.0833330000000032  0.6666669999999968  0.3567970000000003   F   F   F
  0.0833330000000032  0.9166669999999968  0.3567970000000003   F   F   F
  0.3333330000000032  0.1666669999999968  0.3567970000000003   F   F   F
  0.3333330000000032  0.4166669999999968  0.3567970000000003   F   F   F
  0.3333330000000032  0.6666669999999968  0.3567970000000003   F   F   F
  0.3333330000000032  0.9166669999999968  0.3567970000000003   F   F   F
  0.5833330000000032  0.1666669999999968  0.3567970000000003   F   F   F
  0.5833330000000032  0.4166669999999968  0.3567970000000003   F   F   F
  0.5833330000000032  0.6666669999999968  0.3567970000000003   F   F   F
  0.5833330000000032  0.9166669999999968  0.3567970000000003   F   F   F
  0.8333330000000032  0.1666669999999968  0.3567970000000003   F   F   F
  0.8333330000000032  0.4166669999999968  0.3567970000000003   F   F   F
  0.8333330000000032  0.6666669999999968  0.3567970000000003   F   F   F
  0.8333330000000032  0.9166669999999968  0.3567970000000003   F   F   F
  0.2435078514366253  0.2432307791283179  0.6277348318674072   T   T   T
  0.2411090412632007  0.4973013456021818  0.6261190168627380   T   T   T
  0.2517386156948476  0.7493270061667232  0.6297710414928801   T   T   T
  0.2519049420238417  0.9983563639491067  0.6291372053855966   T   T   T
  0.4972812346690816  0.2411216494481820  0.6260713173742616   T   T   T
  0.4859525178686752  0.4866080255767216  0.6391312769879463   T   T   T
  0.5006795113440745  0.7494565458909008  0.6389852295500802   T   T   T
  0.5011143467262826  0.9985626937674894  0.6298018334184761   T   T   T
  0.7497032374835655  0.2520618888763977  0.6298107191258566   T   T   T
  0.7479662748039857  0.5020997769425790  0.6378790774296235   T   T   T
  0.7633795912135000  0.7639415874968947  0.6391287068428895   T   T   T
  0.7530101582360302  0.0090486341550715  0.6261729461182455   T   T   T
  0.9983100938096072  0.2519871385709394  0.6287700294939356   T   T   T
  0.9981962768410355  0.5006972913014422  0.6298499650904006   T   T   T
  0.0090224164934014  0.7530374386787457  0.6261225156800805   T   T   T
  0.0068130798043029  0.0064995434062638  0.6277683996567163   T   T   T
  0.1685266858754915  0.0815563608098344  0.4908472184301189   T   T   T
  0.1670530641436443  0.3330368366947383  0.4915618007979106   T   T   T
  0.1656201041164138  0.5841280727978244  0.4915222315294656   T   T   T
  0.1684555222015405  0.8325408835814585  0.4910256820915109   T   T   T
  0.4176852004698901  0.0817442672286290  0.4910438481616310   T   T   T
  0.4180022613695797  0.3362556352615655  0.4950503743944523   T   T   T
  0.4186015323674823  0.5836509335412714  0.4964994484551255   T   T   T
  0.4198616624333127  0.8303126004962635  0.4961863241433164   T   T   T
  0.6661671535857749  0.0845932184380089  0.4915104451782284   T   T   T
  0.6674133867496082  0.3370039011704051  0.4945814703555556   T   T   T
  0.6658575802838342  0.5841956753521416  0.4973751676480447   T   T   T
  0.6664686269164264  0.8315096761875438  0.4965396082198836   T   T   T
  0.9171839815508136  0.0831218364727846  0.4915822962290264   T   T   T
  0.9161741286331875  0.3341396027333943  0.4923426839157941   T   T   T
  0.9130499174602633  0.5827283011662487  0.4946514082670603   T   T   T
  0.9137061899742278  0.8320578246608648  0.4951386564497255   T   T   T
  0.7041617877731738  0.5453178799344300  0.7534033599858745   T   T   T
  0.5526171409416420  0.4785349892289972  0.7578341555125263   T   T   T
  0.4786135332381605  0.5530119050550226  0.7581250594205144   T   T   T
  0.5451772121348100  0.7043894117053426  0.7540467312256283   T   T   T
  0.6966829955823712  0.7710402715310636  0.7581964739331397   T   T   T
  0.7710436360023039  0.6969071249012657  0.7579223616960249   T   T   T
  0.4899763912632622  0.3551854678539996  0.7959833084657006   T   T   T
  0.3549075892741911  0.4898298168886157  0.7958580380078217   T   T   T
  0.7598773628714994  0.8946625363585312  0.7959901251762247   T   T   T
  0.8943609941523363  0.7594991399598996  0.7961237820608460   T   T   T
 
  0.00000000E+00  0.00000000E+00  0.00000000E+00
  0.00000000E+00  0.00000000E+00  0.00000000E+00
  0.00000000E+00  0.00000000E+00  0.00000000E+00
  0.00000000E+00  0.00000000E+00  0.00000000E+00
  0.00000000E+00  0.00000000E+00  0.00000000E+00
  0.00000000E+00  0.00000000E+00  0.00000000E+00
  0.00000000E+00  0.00000000E+00  0.00000000E+00
  0.00000000E+00  0.00000000E+00  0.00000000E+00
  0.00000000E+00  0.00000000E+00  0.00000000E+00
  0.00000000E+00  0.00000000E+00  0.00000000E+00
  0.00000000E+00  0.00000000E+00  0.00000000E+00
  0.00000000E+00  0.00000000E+00  0.00000000E+00
  0.00000000E+00  0.00000000E+00  0.00000000E+00
  0.00000000E+00  0.00000000E+00  0.00000000E+00
  0.00000000E+00  0.00000000E+00  0.00000000E+00
  0.00000000E+00  0.00000000E+00  0.00000000E+00
  0.00000000E+00  0.00000000E+00  0.00000000E+00
  0.00000000E+00  0.00000000E+00  0.00000000E+00
  0.00000000E+00  0.00000000E+00  0.00000000E+00
  0.00000000E+00  0.00000000E+00  0.00000000E+00
  0.00000000E+00  0.00000000E+00  0.00000000E+00
  0.00000000E+00  0.00000000E+00  0.00000000E+00
  0.00000000E+00  0.00000000E+00  0.00000000E+00
  0.00000000E+00  0.00000000E+00  0.00000000E+00
  0.00000000E+00  0.00000000E+00  0.00000000E+00
  0.00000000E+00  0.00000000E+00  0.00000000E+00
  0.00000000E+00  0.00000000E+00  0.00000000E+00
  0.00000000E+00  0.00000000E+00  0.00000000E+00
  0.00000000E+00  0.00000000E+00  0.00000000E+00
  0.00000000E+00  0.00000000E+00  0.00000000E+00
  0.00000000E+00  0.00000000E+00  0.00000000E+00
  0.00000000E+00  0.00000000E+00  0.00000000E+00
  0.00000000E+00  0.00000000E+00  0.00000000E+00
  0.00000000E+00  0.00000000E+00  0.00000000E+00
  0.00000000E+00  0.00000000E+00  0.00000000E+00
  0.00000000E+00  0.00000000E+00  0.00000000E+00
  0.00000000E+00  0.00000000E+00  0.00000000E+00
  0.00000000E+00  0.00000000E+00  0.00000000E+00
  0.00000000E+00  0.00000000E+00  0.00000000E+00
  0.00000000E+00  0.00000000E+00  0.00000000E+00
  0.00000000E+00  0.00000000E+00  0.00000000E+00
  0.00000000E+00  0.00000000E+00  0.00000000E+00
  0.00000000E+00  0.00000000E+00  0.00000000E+00
  0.00000000E+00  0.00000000E+00  0.00000000E+00
  0.00000000E+00  0.00000000E+00  0.00000000E+00
  0.00000000E+00  0.00000000E+00  0.00000000E+00
  0.00000000E+00  0.00000000E+00  0.00000000E+00
  0.00000000E+00  0.00000000E+00  0.00000000E+00
  0.00000000E+00  0.00000000E+00  0.00000000E+00
  0.00000000E+00  0.00000000E+00  0.00000000E+00
  0.00000000E+00  0.00000000E+00  0.00000000E+00
  0.00000000E+00  0.00000000E+00  0.00000000E+00
  0.00000000E+00  0.00000000E+00  0.00000000E+00
  0.00000000E+00  0.00000000E+00  0.00000000E+00
  0.00000000E+00  0.00000000E+00  0.00000000E+00
  0.00000000E+00  0.00000000E+00  0.00000000E+00
  0.00000000E+00  0.00000000E+00  0.00000000E+00
  0.00000000E+00  0.00000000E+00  0.00000000E+00
  0.00000000E+00  0.00000000E+00  0.00000000E+00
  0.00000000E+00  0.00000000E+00  0.00000000E+00
