Ag  C  H  F                             
    1.000000000000000     
    11.7702790000000004    0.0000000000000000    0.0000000000000000
     0.0000000000000000   11.7702790000000004    0.0000000000000000
     0.0000000000000000    0.0000000000000000   24.2421330600000005
   Ag   C    H    F 
    64     6     4     2
Selective dynamics
Direct
  0.0000000000000000  0.2499999991504041  0.3093787160328390   F   F   F
  0.7499999974512050  0.7499999974512050  0.3093787160328390   F   F   F
  0.0000000000000000  0.4999999983008081  0.3093787160328390   F   F   F
  0.0000000000000000  0.7499999974512050  0.3093787160328390   F   F   F
  0.0000000000000000  0.0000000000000000  0.3093787160328390   F   F   F
  0.2499999991504041  0.2499999991504041  0.3093787160328390   F   F   F
  0.2499999991504041  0.4999999983008081  0.3093787160328390   F   F   F
  0.7499999974512050  0.0000000000000000  0.3093787160328390   F   F   F
  0.2499999991504041  0.7499999974512050  0.3093787160328390   F   F   F
  0.2499999991504041  0.0000000000000000  0.3093787160328390   F   F   F
  0.4999999983008081  0.2499999991504041  0.3093787160328390   F   F   F
  0.4999999983008081  0.4999999983008081  0.3093787160328390   F   F   F
  0.4999999983008081  0.7499999974512050  0.3093787160328390   F   F   F
  0.4999999983008081  0.0000000000000000  0.3093787160328390   F   F   F
  0.7499999974512050  0.2499999991504041  0.3093787160328390   F   F   F
  0.7499999974512050  0.4999999983008081  0.3093787160328390   F   F   F
  0.9999397017098910  0.2499036500139465  0.4739898588858437   T   T   T
  0.0000020222326532  0.5000014470650663  0.4739127185192516   T   T   T
  0.0000645899986990  0.7501001426296519  0.4739900537498053   T   T   T
  0.0000019333754038  0.0000019877057627  0.4740483689310372   T   T   T
  0.2497228102594078  0.2497228523455846  0.4738917335718925   T   T   T
  0.2499212719927044  0.5002718841636994  0.4739560659699078   T   T   T
  0.2500903831657770  0.7499126959483239  0.4740732928062610   T   T   T
  0.2499036884861940  0.9999397129768031  0.4739899453000865   T   T   T
  0.5002713530433524  0.2499210888269052  0.4739560050908506   T   T   T
  0.4999993033730807  0.4999999487657827  0.4739221566728063   T   T   T
  0.4997285838446807  0.7500839187096389  0.4739543410736179   T   T   T
  0.5000011203294948  0.0000020088640231  0.4739125670336333   T   T   T
  0.7499131118817470  0.2500900073869308  0.4740730973634711   T   T   T
  0.7500841525615410  0.4997291480253236  0.4739544326911084   T   T   T
  0.7502831633458624  0.7502831704220675  0.4738896386570659   T   T   T
  0.7501002047879600  0.0000646535884357  0.4739898319078035   T   T   T
  0.1249327568731097  0.1249328062825591  0.5521298679722040   T   T   T
  0.1248727262078905  0.3752361268784115  0.5520058190107183   T   T   T
  0.1249275819363079  0.6249350905803521  0.5521366355296400   T   T   T
  0.1251560721224280  0.8748490468127141  0.5521895274005091   T   T   T
  0.3752360867879602  0.1248728000457239  0.5520059499246124   T   T   T
  0.3746809633280650  0.3746807992606652  0.5512154409265113   T   T   T
  0.3750289038131555  0.6249762282083554  0.5522384386466515   T   T   T
  0.3750691289575269  0.8750759500295293  0.5521364499885867   T   T   T
  0.6249348647069765  0.1249277671080620  0.5521373837635712   T   T   T
  0.6249764429143293  0.3750284713361275  0.5522378408851897   T   T   T
  0.6253256805956436  0.6253258676121072  0.5512077761053801   T   T   T
  0.6247674766032708  0.8751301891260608  0.5520052728249530   T   T   T
  0.8748489887652777  0.1251560986796311  0.5521897485065886   T   T   T
  0.8750759119827881  0.3750692415557143  0.5521366988205134   T   T   T
  0.8751301033766785  0.6247676645459272  0.5520051391128661   T   T   T
  0.8750713197368422  0.8750714126380985  0.5521300578710583   T   T   T
  0.1249999995752020  0.1249999995752020  0.3952090765398992   F   F   F
  0.1249999995752020  0.3749999987256061  0.3952090765398992   F   F   F
  0.1249999995752020  0.6249999978760030  0.3952090765398992   F   F   F
  0.1249999995752020  0.8749999970264071  0.3952090765398992   F   F   F
  0.3749999987256061  0.1249999995752020  0.3952090765398992   F   F   F
  0.3749999987256061  0.3749999987256061  0.3952090765398992   F   F   F
  0.3749999987256061  0.6249999978760030  0.3952090765398992   F   F   F
  0.3749999987256061  0.8749999970264071  0.3952090765398992   F   F   F
  0.6249999978760030  0.1249999995752020  0.3952090765398992   F   F   F
  0.6249999978760030  0.3749999987256061  0.3952090765398992   F   F   F
  0.6249999978760030  0.6249999978760030  0.3952090765398992   F   F   F
  0.6249999978760030  0.8749999970264071  0.3952090765398992   F   F   F
  0.8749999970264071  0.1249999995752020  0.3952090765398992   F   F   F
  0.8749999970264071  0.3749999987256061  0.3952090765398992   F   F   F
  0.8749999970264071  0.6249999978760030  0.3952090765398992   F   F   F
  0.8749999970264071  0.8749999970264071  0.3952090765398992   F   F   F
  0.5821747475931892  0.5821670004621492  0.6757289202960394   T   T   T
  0.6152991954209509  0.4686962627798317  0.6751048907839310   T   T   T
  0.5311943772335959  0.3846233480581525  0.6751211368939040   T   T   T
  0.4177643556458894  0.4177589004743246  0.6757635721848948   T   T   T
  0.3846204559525996  0.5312001622170539  0.6751156942502405   T   T   T
  0.4687120010758981  0.6153007309772188  0.6750992378332096   T   T   T
  0.7052539167502556  0.4466574144459934  0.6751379227250152   T   T   T
  0.5532845290462421  0.2947038254504412  0.6751645943587494   T   T   T
  0.2946956643221345  0.5532960145995705  0.6751595066411418   T   T   T
  0.4466623165527808  0.7052676854552371  0.6751323196197526   T   T   T
  0.6642498760903898  0.6642360031887935  0.6769687657552097   T   T   T
  0.3357255900274300  0.3357352365597044  0.6770251269373180   T   T   T
 
  0.00000000E+00  0.00000000E+00  0.00000000E+00
  0.00000000E+00  0.00000000E+00  0.00000000E+00
  0.00000000E+00  0.00000000E+00  0.00000000E+00
  0.00000000E+00  0.00000000E+00  0.00000000E+00
  0.00000000E+00  0.00000000E+00  0.00000000E+00
  0.00000000E+00  0.00000000E+00  0.00000000E+00
  0.00000000E+00  0.00000000E+00  0.00000000E+00
  0.00000000E+00  0.00000000E+00  0.00000000E+00
  0.00000000E+00  0.00000000E+00  0.00000000E+00
  0.00000000E+00  0.00000000E+00  0.00000000E+00
  0.00000000E+00  0.00000000E+00  0.00000000E+00
  0.00000000E+00  0.00000000E+00  0.00000000E+00
  0.00000000E+00  0.00000000E+00  0.00000000E+00
  0.00000000E+00  0.00000000E+00  0.00000000E+00
  0.00000000E+00  0.00000000E+00  0.00000000E+00
  0.00000000E+00  0.00000000E+00  0.00000000E+00
  0.00000000E+00  0.00000000E+00  0.00000000E+00
  0.00000000E+00  0.00000000E+00  0.00000000E+00
  0.00000000E+00  0.00000000E+00  0.00000000E+00
  0.00000000E+00  0.00000000E+00  0.00000000E+00
  0.00000000E+00  0.00000000E+00  0.00000000E+00
  0.00000000E+00  0.00000000E+00  0.00000000E+00
  0.00000000E+00  0.00000000E+00  0.00000000E+00
  0.00000000E+00  0.00000000E+00  0.00000000E+00
  0.00000000E+00  0.00000000E+00  0.00000000E+00
  0.00000000E+00  0.00000000E+00  0.00000000E+00
  0.00000000E+00  0.00000000E+00  0.00000000E+00
  0.00000000E+00  0.00000000E+00  0.00000000E+00
  0.00000000E+00  0.00000000E+00  0.00000000E+00
  0.00000000E+00  0.00000000E+00  0.00000000E+00
  0.00000000E+00  0.00000000E+00  0.00000000E+00
  0.00000000E+00  0.00000000E+00  0.00000000E+00
  0.00000000E+00  0.00000000E+00  0.00000000E+00
  0.00000000E+00  0.00000000E+00  0.00000000E+00
  0.00000000E+00  0.00000000E+00  0.00000000E+00
  0.00000000E+00  0.00000000E+00  0.00000000E+00
  0.00000000E+00  0.00000000E+00  0.00000000E+00
  0.00000000E+00  0.00000000E+00  0.00000000E+00
  0.00000000E+00  0.00000000E+00  0.00000000E+00
  0.00000000E+00  0.00000000E+00  0.00000000E+00
  0.00000000E+00  0.00000000E+00  0.00000000E+00
  0.00000000E+00  0.00000000E+00  0.00000000E+00
  0.00000000E+00  0.00000000E+00  0.00000000E+00
  0.00000000E+00  0.00000000E+00  0.00000000E+00
  0.00000000E+00  0.00000000E+00  0.00000000E+00
  0.00000000E+00  0.00000000E+00  0.00000000E+00
  0.00000000E+00  0.00000000E+00  0.00000000E+00
  0.00000000E+00  0.00000000E+00  0.00000000E+00
  0.00000000E+00  0.00000000E+00  0.00000000E+00
  0.00000000E+00  0.00000000E+00  0.00000000E+00
  0.00000000E+00  0.00000000E+00  0.00000000E+00
  0.00000000E+00  0.00000000E+00  0.00000000E+00
  0.00000000E+00  0.00000000E+00  0.00000000E+00
  0.00000000E+00  0.00000000E+00  0.00000000E+00
  0.00000000E+00  0.00000000E+00  0.00000000E+00
  0.00000000E+00  0.00000000E+00  0.00000000E+00
  0.00000000E+00  0.00000000E+00  0.00000000E+00
  0.00000000E+00  0.00000000E+00  0.00000000E+00
  0.00000000E+00  0.00000000E+00  0.00000000E+00
  0.00000000E+00  0.00000000E+00  0.00000000E+00
  0.00000000E+00  0.00000000E+00  0.00000000E+00
  0.00000000E+00  0.00000000E+00  0.00000000E+00
  0.00000000E+00  0.00000000E+00  0.00000000E+00
  0.00000000E+00  0.00000000E+00  0.00000000E+00
  0.00000000E+00  0.00000000E+00  0.00000000E+00
  0.00000000E+00  0.00000000E+00  0.00000000E+00
  0.00000000E+00  0.00000000E+00  0.00000000E+00
  0.00000000E+00  0.00000000E+00  0.00000000E+00
  0.00000000E+00  0.00000000E+00  0.00000000E+00
  0.00000000E+00  0.00000000E+00  0.00000000E+00
  0.00000000E+00  0.00000000E+00  0.00000000E+00
  0.00000000E+00  0.00000000E+00  0.00000000E+00
  0.00000000E+00  0.00000000E+00  0.00000000E+00
  0.00000000E+00  0.00000000E+00  0.00000000E+00
  0.00000000E+00  0.00000000E+00  0.00000000E+00
  0.00000000E+00  0.00000000E+00  0.00000000E+00
