Ag  C  H Cl                             
   1.00000000000000     
    11.7678089999999997    0.0000000000000000    0.0000000000000000
    -5.8839040000000002   10.1912210000000005    0.0000000000000000
     0.0000000000000000    0.0000000000000000   25.2062817300000006
   Ag   C    H    Cl
    64     6     4     2
Selective dynamics
Direct
  0.7499999754973956  0.7500000274746270  0.2975448771198046   F   F   F
  0.9999999830044857  0.0000000000000000  0.2975448771198046   F   F   F
  0.9999999789222898  0.2500000088311296  0.2975448771198046   F   F   F
  0.9999999748400938  0.5000000176622592  0.2975448771198046   F   F   F
  0.9999999882440349  0.7500000274746270  0.2975448771198046   F   F   F
  0.2499999957511179  0.0000000000000000  0.2975448771198046   F   F   F
  0.2499999916689291  0.2500000088311296  0.2975448771198046   F   F   F
  0.2499999875867331  0.5000000176622592  0.2975448771198046   F   F   F
  0.4999999915022428  0.0000000000000000  0.2975448771198046   F   F   F
  0.4999999874200469  0.2500000088311296  0.2975448771198046   F   F   F
  0.4999999833378510  0.5000000176622592  0.2975448771198046   F   F   F
  0.4999999797462777  0.7500000274746270  0.2975448771198046   F   F   F
  0.7499999872533607  0.0000000000000000  0.2975448771198046   F   F   F
  0.7499999831711648  0.2500000088311296  0.2975448771198046   F   F   F
  0.7499999790889760  0.5000000176622592  0.2975448771198046   F   F   F
  0.2499999839951599  0.7500000274746270  0.2975448771198046   F   F   F
  0.0833330000000032  0.1666669999999968  0.3928423087572952   F   F   F
  0.0833330000000032  0.4166669999999968  0.3928423087572952   F   F   F
  0.0833330000000032  0.6666669999999968  0.3928423087572952   F   F   F
  0.0833330000000032  0.9166669999999968  0.3928423087572952   F   F   F
  0.3333330000000032  0.1666669999999968  0.3928423087572952   F   F   F
  0.3333330000000032  0.4166669999999968  0.3928423087572952   F   F   F
  0.3333330000000032  0.6666669999999968  0.3928423087572952   F   F   F
  0.3333330000000032  0.9166669999999968  0.3928423087572952   F   F   F
  0.5833330000000032  0.1666669999999968  0.3928423087572952   F   F   F
  0.5833330000000032  0.4166669999999968  0.3928423087572952   F   F   F
  0.5833330000000032  0.6666669999999968  0.3928423087572952   F   F   F
  0.5833330000000032  0.9166669999999968  0.3928423087572952   F   F   F
  0.8333330000000032  0.1666669999999968  0.3928423087572952   F   F   F
  0.8333330000000032  0.4166669999999968  0.3928423087572952   F   F   F
  0.8333330000000032  0.6666669999999968  0.3928423087572952   F   F   F
  0.8333330000000032  0.9166669999999968  0.3928423087572952   F   F   F
  0.2484959852047480  0.2487538241760898  0.5704453684861407   T   T   T
  0.2493882422501459  0.5004543405611529  0.5694206062033990   T   T   T
  0.2498939620394431  0.7504178961972849  0.5710304909331566   T   T   T
  0.2493244360720871  0.9992707479960636  0.5708372305932099   T   T   T
  0.5002801971600568  0.2495320414522006  0.5694540937415662   T   T   T
  0.5012094173876793  0.5014799085120788  0.5704455894318579   T   T   T
  0.5003085783330135  0.7508621687926782  0.5708615590169228   T   T   T
  0.4997759677665641  0.9995532620861762  0.5710207411677958   T   T   T
  0.7502908279399556  0.2500113841680375  0.5710254971862572   T   T   T
  0.7506141460557462  0.5005525356638307  0.5708424267149567   T   T   T
  0.7504680901980579  0.7505796956983044  0.5709632532538137   T   T   T
  0.7499871675216896  0.9999586928002611  0.5710910948243134   T   T   T
  0.9989565667174076  0.2495293868372590  0.5708693807746283   T   T   T
  0.9993370224108186  0.4998907372532190  0.5710341639736658   T   T   T
  0.9998766261625787  0.7499120264935341  0.5710876232195037   T   T   T
  0.9993783504189048  0.9994966914772616  0.5709353889034475   T   T   T
  0.1662487640310103  0.0826246497427694  0.4816240650408772   T   T   T
  0.1661939607986884  0.3328861350066142  0.4815654151621155   T   T   T
  0.1659633052396293  0.5839750594774118  0.4814638484770246   T   T   T
  0.1662565351100072  0.8330140399400213  0.4816125618918132   T   T   T
  0.4162906017277662  0.0825091216418801  0.4814987504905346   T   T   T
  0.4162927576579509  0.3336483889749676  0.4817273538243010   T   T   T
  0.4170297015097881  0.5837340990359127  0.4815563134299493   T   T   T
  0.4165615484311874  0.8331482689285356  0.4816420314540890   T   T   T
  0.6665799693567236  0.0833219083388956  0.4817409563833829   T   T   T
  0.6673924342573696  0.3335938359251096  0.4815143510527608   T   T   T
  0.6673183718435480  0.5837181902491916  0.4816323459214819   T   T   T
  0.6669195522242974  0.8334950379841347  0.4816533317118819   T   T   T
  0.9164305714506424  0.0830156103159876  0.4816295629617242   T   T   T
  0.9167533706321055  0.3333225738385843  0.4816382869791778   T   T   T
  0.9169018027609012  0.5836651299314248  0.4816007303854122   T   T   T
  0.9166348263384378  0.8332866466584680  0.4815608804720594   T   T   T
  0.3080664059899481  0.4441371817314639  0.6908284157886814   T   T   T
  0.4450737474110093  0.5136527343008491  0.6884886685301301   T   T   T
  0.5137124602922215  0.4449832079051871  0.6885186800214274   T   T   T
  0.4441729660333958  0.3078951382969690  0.6908785477029871   T   T   T
  0.3072347390686032  0.2385131127668331  0.6886089142226507   T   T   T
  0.2386497102313510  0.3071253797410049  0.6885582057724464   T   T   T
  0.4983278191497968  0.6205035428124140  0.6870583459185330   T   T   T
  0.6206748662439191  0.4982149960941535  0.6871146943781686   T   T   T
  0.2540104469333745  0.1316643772810980  0.6871915821021868   T   T   T
  0.1317384947605138  0.2538692317845220  0.6871194431414993   T   T   T
  0.2226466555746029  0.5281181030553048  0.6949276721433315   T   T   T
  0.5283020003540105  0.2226218051091374  0.6949842421012769   T   T   T
 
  0.00000000E+00  0.00000000E+00  0.00000000E+00
  0.00000000E+00  0.00000000E+00  0.00000000E+00
  0.00000000E+00  0.00000000E+00  0.00000000E+00
  0.00000000E+00  0.00000000E+00  0.00000000E+00
  0.00000000E+00  0.00000000E+00  0.00000000E+00
  0.00000000E+00  0.00000000E+00  0.00000000E+00
  0.00000000E+00  0.00000000E+00  0.00000000E+00
  0.00000000E+00  0.00000000E+00  0.00000000E+00
  0.00000000E+00  0.00000000E+00  0.00000000E+00
  0.00000000E+00  0.00000000E+00  0.00000000E+00
  0.00000000E+00  0.00000000E+00  0.00000000E+00
  0.00000000E+00  0.00000000E+00  0.00000000E+00
  0.00000000E+00  0.00000000E+00  0.00000000E+00
  0.00000000E+00  0.00000000E+00  0.00000000E+00
  0.00000000E+00  0.00000000E+00  0.00000000E+00
  0.00000000E+00  0.00000000E+00  0.00000000E+00
  0.00000000E+00  0.00000000E+00  0.00000000E+00
  0.00000000E+00  0.00000000E+00  0.00000000E+00
  0.00000000E+00  0.00000000E+00  0.00000000E+00
  0.00000000E+00  0.00000000E+00  0.00000000E+00
  0.00000000E+00  0.00000000E+00  0.00000000E+00
  0.00000000E+00  0.00000000E+00  0.00000000E+00
  0.00000000E+00  0.00000000E+00  0.00000000E+00
  0.00000000E+00  0.00000000E+00  0.00000000E+00
  0.00000000E+00  0.00000000E+00  0.00000000E+00
  0.00000000E+00  0.00000000E+00  0.00000000E+00
  0.00000000E+00  0.00000000E+00  0.00000000E+00
  0.00000000E+00  0.00000000E+00  0.00000000E+00
  0.00000000E+00  0.00000000E+00  0.00000000E+00
  0.00000000E+00  0.00000000E+00  0.00000000E+00
  0.00000000E+00  0.00000000E+00  0.00000000E+00
  0.00000000E+00  0.00000000E+00  0.00000000E+00
  0.00000000E+00  0.00000000E+00  0.00000000E+00
  0.00000000E+00  0.00000000E+00  0.00000000E+00
  0.00000000E+00  0.00000000E+00  0.00000000E+00
  0.00000000E+00  0.00000000E+00  0.00000000E+00
  0.00000000E+00  0.00000000E+00  0.00000000E+00
  0.00000000E+00  0.00000000E+00  0.00000000E+00
  0.00000000E+00  0.00000000E+00  0.00000000E+00
  0.00000000E+00  0.00000000E+00  0.00000000E+00
  0.00000000E+00  0.00000000E+00  0.00000000E+00
  0.00000000E+00  0.00000000E+00  0.00000000E+00
  0.00000000E+00  0.00000000E+00  0.00000000E+00
  0.00000000E+00  0.00000000E+00  0.00000000E+00
  0.00000000E+00  0.00000000E+00  0.00000000E+00
  0.00000000E+00  0.00000000E+00  0.00000000E+00
  0.00000000E+00  0.00000000E+00  0.00000000E+00
  0.00000000E+00  0.00000000E+00  0.00000000E+00
  0.00000000E+00  0.00000000E+00  0.00000000E+00
  0.00000000E+00  0.00000000E+00  0.00000000E+00
  0.00000000E+00  0.00000000E+00  0.00000000E+00
  0.00000000E+00  0.00000000E+00  0.00000000E+00
  0.00000000E+00  0.00000000E+00  0.00000000E+00
  0.00000000E+00  0.00000000E+00  0.00000000E+00
  0.00000000E+00  0.00000000E+00  0.00000000E+00
  0.00000000E+00  0.00000000E+00  0.00000000E+00
  0.00000000E+00  0.00000000E+00  0.00000000E+00
  0.00000000E+00  0.00000000E+00  0.00000000E+00
  0.00000000E+00  0.00000000E+00  0.00000000E+00
  0.00000000E+00  0.00000000E+00  0.00000000E+00
  0.00000000E+00  0.00000000E+00  0.00000000E+00
  0.00000000E+00  0.00000000E+00  0.00000000E+00
  0.00000000E+00  0.00000000E+00  0.00000000E+00
  0.00000000E+00  0.00000000E+00  0.00000000E+00
  0.00000000E+00  0.00000000E+00  0.00000000E+00
  0.00000000E+00  0.00000000E+00  0.00000000E+00
  0.00000000E+00  0.00000000E+00  0.00000000E+00
  0.00000000E+00  0.00000000E+00  0.00000000E+00
  0.00000000E+00  0.00000000E+00  0.00000000E+00
  0.00000000E+00  0.00000000E+00  0.00000000E+00
  0.00000000E+00  0.00000000E+00  0.00000000E+00
  0.00000000E+00  0.00000000E+00  0.00000000E+00
  0.00000000E+00  0.00000000E+00  0.00000000E+00
  0.00000000E+00  0.00000000E+00  0.00000000E+00
  0.00000000E+00  0.00000000E+00  0.00000000E+00
  0.00000000E+00  0.00000000E+00  0.00000000E+00
