Ag  C  H Br                             
   1.00000000000000     
    11.7678089999999997    0.0000000000000000    0.0000000000000000
    -5.8839040000000002   10.1912210000000005    0.0000000000000000
     0.0000000000000000    0.0000000000000000   25.2062817300000006
   Ag   C    H    Br
    64     6     2     4
Selective dynamics
Direct
  0.7499999754973956  0.7500000274746270  0.2975448771198046   F   F   F
  0.9999999830044857  0.0000000000000000  0.2975448771198046   F   F   F
  0.9999999789222898  0.2500000088311296  0.2975448771198046   F   F   F
  0.9999999748400938  0.5000000176622592  0.2975448771198046   F   F   F
  0.9999999882440349  0.7500000274746270  0.2975448771198046   F   F   F
  0.2499999957511179  0.0000000000000000  0.2975448771198046   F   F   F
  0.2499999916689291  0.2500000088311296  0.2975448771198046   F   F   F
  0.2499999875867331  0.5000000176622592  0.2975448771198046   F   F   F
  0.4999999915022428  0.0000000000000000  0.2975448771198046   F   F   F
  0.4999999874200469  0.2500000088311296  0.2975448771198046   F   F   F
  0.4999999833378510  0.5000000176622592  0.2975448771198046   F   F   F
  0.4999999797462777  0.7500000274746270  0.2975448771198046   F   F   F
  0.7499999872533607  0.0000000000000000  0.2975448771198046   F   F   F
  0.7499999831711648  0.2500000088311296  0.2975448771198046   F   F   F
  0.7499999790889760  0.5000000176622592  0.2975448771198046   F   F   F
  0.2499999839951599  0.7500000274746270  0.2975448771198046   F   F   F
  0.0833330000000032  0.1666669999999968  0.3928423087572952   F   F   F
  0.0833330000000032  0.4166669999999968  0.3928423087572952   F   F   F
  0.0833330000000032  0.6666669999999968  0.3928423087572952   F   F   F
  0.0833330000000032  0.9166669999999968  0.3928423087572952   F   F   F
  0.3333330000000032  0.1666669999999968  0.3928423087572952   F   F   F
  0.3333330000000032  0.4166669999999968  0.3928423087572952   F   F   F
  0.3333330000000032  0.6666669999999968  0.3928423087572952   F   F   F
  0.3333330000000032  0.9166669999999968  0.3928423087572952   F   F   F
  0.5833330000000032  0.1666669999999968  0.3928423087572952   F   F   F
  0.5833330000000032  0.4166669999999968  0.3928423087572952   F   F   F
  0.5833330000000032  0.6666669999999968  0.3928423087572952   F   F   F
  0.5833330000000032  0.9166669999999968  0.3928423087572952   F   F   F
  0.8333330000000032  0.1666669999999968  0.3928423087572952   F   F   F
  0.8333330000000032  0.4166669999999968  0.3928423087572952   F   F   F
  0.8333330000000032  0.6666669999999968  0.3928423087572952   F   F   F
  0.8333330000000032  0.9166669999999968  0.3928423087572952   F   F   F
  0.2503184023904141  0.2504871934858397  0.5705825011216333   T   T   T
  0.2500155863713149  0.5000624680486745  0.5712765900124668   T   T   T
  0.2499219497689407  0.7497271828658432  0.5711492075611803   T   T   T
  0.2501061770534573  0.9998309081380382  0.5712349172143796   T   T   T
  0.4998626575503733  0.2501304474669275  0.5712434876090983   T   T   T
  0.4994531687041502  0.4996019663979164  0.5706247255297987   T   T   T
  0.4998707927103668  0.7502122112971524  0.5712187604735230   T   T   T
  0.5000624184812292  0.0003839049642242  0.5711335349096428   T   T   T
  0.7496594694047657  0.2499656323870830  0.5711415144018774   T   T   T
  0.7501764913010670  0.4998946922396107  0.5712314076608339   T   T   T
  0.7501025374227506  0.7501910027595746  0.5711891949038228   T   T   T
  0.7497811262645676  0.0002391875556429  0.5710708721113651   T   T   T
 -0.0001841849600978  0.2501750792314830  0.5712035370409497   T   T   T
  0.0003148254220838  0.5001178877832030  0.5711360192347172   T   T   T
  0.0001425376079382  0.7499196043188220  0.5710813430631477   T   T   T
 -0.0001930853131141 -0.0000959685154271  0.5711694333218258   T   T   T
  0.1666441786253681  0.0832433467423131  0.4818627028120373   T   T   T
  0.1664910078359761  0.3334671326871100  0.4818230996796732   T   T   T
  0.1667871612520177  0.5832583406689589  0.4817944379241949   T   T   T
  0.1668068428673642  0.8334465276652624  0.4818179054027207   T   T   T
  0.4165792894793010  0.0834719110484918  0.4818529499552855   T   T   T
  0.4168290012482189  0.3331900150373235  0.4816908503613462   T   T   T
  0.4165738091166682  0.5835333008838856  0.4818288233037612   T   T   T
  0.4166730849098516  0.8334144683736900  0.4818471476919228   T   T   T
  0.6666514658854675  0.0833738620315153  0.4817261959203821   T   T   T
  0.6665562687854952  0.3334255315946213  0.4818589400191880   T   T   T
  0.6667857304794844  0.5834116577073936  0.4818834632239445   T   T   T
  0.6665481589043630  0.8332552977403008  0.4818572153629389   T   T   T
  0.9167376700807270  0.0834808245714183  0.4818513131044736   T   T   T
  0.9165487115680724  0.3333031361193705  0.4818478537232225   T   T   T
  0.9165501433029873  0.5832413180200771  0.4818120098017207   T   T   T
  0.9166826859230718  0.8332815853520886  0.4818444299858756   T   T   T
  0.3067464802131107  0.4434857738689100  0.6982737983434641   T   T   T
  0.4438078775473955  0.5122750599196728  0.6994878932475292   T   T   T
  0.5123907423694009  0.4433381314827732  0.6994647745038252   T   T   T
  0.4432820478341669  0.3062687689991921  0.6983508869226580   T   T   T
  0.3062793713229719  0.2375021720806409  0.6995334296638464   T   T   T
  0.2376082518915716  0.3064575976687604  0.6994502944999145   T   T   T
  0.2535452030113671  0.4971734828422618  0.6976632357628670   T   T   T
  0.4967613562204094  0.2527943070323853  0.6978476515800950   T   T   T
  0.5301647399168560  0.6978269702134920  0.7008037964354139   T   T   T
  0.6979483718906950  0.5293313476063957  0.7006550390064049   T   T   T
  0.2198733742462512  0.0518907109389175  0.7006173167351872   T   T   T
  0.0521848385663863  0.2205210047496466  0.7006015328893892   T   T   T
 
  0.00000000E+00  0.00000000E+00  0.00000000E+00
  0.00000000E+00  0.00000000E+00  0.00000000E+00
  0.00000000E+00  0.00000000E+00  0.00000000E+00
  0.00000000E+00  0.00000000E+00  0.00000000E+00
  0.00000000E+00  0.00000000E+00  0.00000000E+00
  0.00000000E+00  0.00000000E+00  0.00000000E+00
  0.00000000E+00  0.00000000E+00  0.00000000E+00
  0.00000000E+00  0.00000000E+00  0.00000000E+00
  0.00000000E+00  0.00000000E+00  0.00000000E+00
  0.00000000E+00  0.00000000E+00  0.00000000E+00
  0.00000000E+00  0.00000000E+00  0.00000000E+00
  0.00000000E+00  0.00000000E+00  0.00000000E+00
  0.00000000E+00  0.00000000E+00  0.00000000E+00
  0.00000000E+00  0.00000000E+00  0.00000000E+00
  0.00000000E+00  0.00000000E+00  0.00000000E+00
  0.00000000E+00  0.00000000E+00  0.00000000E+00
  0.00000000E+00  0.00000000E+00  0.00000000E+00
  0.00000000E+00  0.00000000E+00  0.00000000E+00
  0.00000000E+00  0.00000000E+00  0.00000000E+00
  0.00000000E+00  0.00000000E+00  0.00000000E+00
  0.00000000E+00  0.00000000E+00  0.00000000E+00
  0.00000000E+00  0.00000000E+00  0.00000000E+00
  0.00000000E+00  0.00000000E+00  0.00000000E+00
  0.00000000E+00  0.00000000E+00  0.00000000E+00
  0.00000000E+00  0.00000000E+00  0.00000000E+00
  0.00000000E+00  0.00000000E+00  0.00000000E+00
  0.00000000E+00  0.00000000E+00  0.00000000E+00
  0.00000000E+00  0.00000000E+00  0.00000000E+00
  0.00000000E+00  0.00000000E+00  0.00000000E+00
  0.00000000E+00  0.00000000E+00  0.00000000E+00
  0.00000000E+00  0.00000000E+00  0.00000000E+00
  0.00000000E+00  0.00000000E+00  0.00000000E+00
  0.00000000E+00  0.00000000E+00  0.00000000E+00
  0.00000000E+00  0.00000000E+00  0.00000000E+00
  0.00000000E+00  0.00000000E+00  0.00000000E+00
  0.00000000E+00  0.00000000E+00  0.00000000E+00
  0.00000000E+00  0.00000000E+00  0.00000000E+00
  0.00000000E+00  0.00000000E+00  0.00000000E+00
  0.00000000E+00  0.00000000E+00  0.00000000E+00
  0.00000000E+00  0.00000000E+00  0.00000000E+00
  0.00000000E+00  0.00000000E+00  0.00000000E+00
  0.00000000E+00  0.00000000E+00  0.00000000E+00
  0.00000000E+00  0.00000000E+00  0.00000000E+00
  0.00000000E+00  0.00000000E+00  0.00000000E+00
  0.00000000E+00  0.00000000E+00  0.00000000E+00
  0.00000000E+00  0.00000000E+00  0.00000000E+00
  0.00000000E+00  0.00000000E+00  0.00000000E+00
  0.00000000E+00  0.00000000E+00  0.00000000E+00
  0.00000000E+00  0.00000000E+00  0.00000000E+00
  0.00000000E+00  0.00000000E+00  0.00000000E+00
  0.00000000E+00  0.00000000E+00  0.00000000E+00
  0.00000000E+00  0.00000000E+00  0.00000000E+00
  0.00000000E+00  0.00000000E+00  0.00000000E+00
  0.00000000E+00  0.00000000E+00  0.00000000E+00
  0.00000000E+00  0.00000000E+00  0.00000000E+00
  0.00000000E+00  0.00000000E+00  0.00000000E+00
  0.00000000E+00  0.00000000E+00  0.00000000E+00
  0.00000000E+00  0.00000000E+00  0.00000000E+00
  0.00000000E+00  0.00000000E+00  0.00000000E+00
  0.00000000E+00  0.00000000E+00  0.00000000E+00
  0.00000000E+00  0.00000000E+00  0.00000000E+00
  0.00000000E+00  0.00000000E+00  0.00000000E+00
  0.00000000E+00  0.00000000E+00  0.00000000E+00
  0.00000000E+00  0.00000000E+00  0.00000000E+00
  0.00000000E+00  0.00000000E+00  0.00000000E+00
  0.00000000E+00  0.00000000E+00  0.00000000E+00
  0.00000000E+00  0.00000000E+00  0.00000000E+00
  0.00000000E+00  0.00000000E+00  0.00000000E+00
  0.00000000E+00  0.00000000E+00  0.00000000E+00
  0.00000000E+00  0.00000000E+00  0.00000000E+00
  0.00000000E+00  0.00000000E+00  0.00000000E+00
  0.00000000E+00  0.00000000E+00  0.00000000E+00
  0.00000000E+00  0.00000000E+00  0.00000000E+00
  0.00000000E+00  0.00000000E+00  0.00000000E+00
  0.00000000E+00  0.00000000E+00  0.00000000E+00
  0.00000000E+00  0.00000000E+00  0.00000000E+00
