Pt  C Br                                
   1.00000000000000     
    11.2480069999999994    0.0000000000000000    0.0000000000000000
    -5.6240030000000001    9.7410599999999992    0.0000000000000000
     0.0000000000000000    0.0000000000000000   24.8879693399999979
   Pt   C    Br
    64     6     6
Selective dynamics
Direct
  0.9999999587182344  0.7499999743354451  0.3013504194553178   F   F   F
  0.2499999964438118  0.0000000000000000  0.3013504194553178   F   F   F
  0.2499999825579735  0.2499999917873410  0.3013504194553178   F   F   F
  0.2499999690478916  0.4999999825481041  0.3013504194553178   F   F   F
  0.2499999551620533  0.7499999743354451  0.3013504194553178   F   F   F
  0.4999999928876306  0.0000000000000000  0.3013504194553178   F   F   F
  0.4999999790017924  0.2499999917873410  0.3013504194553178   F   F   F
  0.4999999654917033  0.4999999825481041  0.3013504194553178   F   F   F
  0.7499999893314424  0.0000000000000000  0.3013504194553178   F   F   F
  0.7499999754456042  0.2499999917873410  0.3013504194553178   F   F   F
  0.7499999619355222  0.4999999825481041  0.3013504194553178   F   F   F
  0.7499999480496840  0.7499999743354451  0.3013504194553178   F   F   F
  0.0000000000000000  0.0000000000000000  0.3013504194553178   F   F   F
  0.9999999861141617  0.2499999917873410  0.3013504194553178   F   F   F
  0.9999999583793340  0.4999999825481041  0.3013504194553178   F   F   F
  0.4999999516058651  0.7499999743354451  0.3013504194553178   F   F   F
  0.0833330000000032  0.1666669999999968  0.3936034172243978   F   F   F
  0.0833330000000032  0.4166669999999968  0.3936034172243978   F   F   F
  0.0833330000000032  0.6666669999999968  0.3936034172243978   F   F   F
  0.0833330000000032  0.9166669999999968  0.3936034172243978   F   F   F
  0.3333330000000032  0.1666669999999968  0.3936034172243978   F   F   F
  0.3333330000000032  0.4166669999999968  0.3936034172243978   F   F   F
  0.3333330000000032  0.6666669999999968  0.3936034172243978   F   F   F
  0.3333330000000032  0.9166669999999968  0.3936034172243978   F   F   F
  0.5833330000000032  0.1666669999999968  0.3936034172243978   F   F   F
  0.5833330000000032  0.4166669999999968  0.3936034172243978   F   F   F
  0.5833330000000032  0.6666669999999968  0.3936034172243978   F   F   F
  0.5833330000000032  0.9166669999999968  0.3936034172243978   F   F   F
  0.8333330000000032  0.1666669999999968  0.3936034172243978   F   F   F
  0.8333330000000032  0.4166669999999968  0.3936034172243978   F   F   F
  0.8333330000000032  0.6666669999999968  0.3936034172243978   F   F   F
  0.8333330000000032  0.9166669999999968  0.3936034172243978   F   F   F
  0.2496820183310361  0.2499316625748645  0.5786201675601733   T   T   T
  0.2495497994907758  0.4999887886309203  0.5793028326704021   T   T   T
  0.2499079328522558  0.7502778077465299  0.5791928480732800   T   T   T
  0.2498825864592585  0.0001320380593750  0.5793287239211985   T   T   T
  0.4997546431604861  0.2497614548322692  0.5790719667290883   T   T   T
  0.5001384834835365  0.5003966037248060  0.5770504580153184   T   T   T
  0.4995327387339801  0.7504975971191357  0.5775373183177710   T   T   T
  0.4997291264151553  0.0001069933582434  0.5791912262924014   T   T   T
  0.7500573978295814  0.2502386678227742  0.5792089951926349   T   T   T
  0.7500285999050121  0.4999739658303590  0.5777805340660928   T   T   T
  0.7496149733784500  0.7498808011207493  0.5770485361121206   T   T   T
  0.7500345374564367  0.0004730482958972  0.5793017242868808   T   T   T
  0.9998151211708617  0.2502000840791523  0.5791740344008398   T   T   T
  0.9997665951657529  0.4999465150417097  0.5792113829074546   T   T   T
  0.0002463827204020  0.7502528535490212  0.5790805771316080   T   T   T
  0.0000940399292328  0.0003502367947752  0.5786191632223008   T   T   T
  0.1666439165320825  0.0833687402976040  0.4854894839307789   T   T   T
  0.1664038271568525  0.3334260514555755  0.4854714564130124   T   T   T
  0.1666978814794347  0.5834877953723463  0.4857362175625668   T   T   T
  0.1664621444983456  0.8334280147330632  0.4856098191908194   T   T   T
  0.4165788064338881  0.0835430310222506  0.4856074218781149   T   T   T
  0.4162402830340262  0.3325850686782595  0.4851084387243788   T   T   T
  0.4158457434341755  0.5834410324800392  0.4849455553854345   T   T   T
  0.4159698989486149  0.8340494855052134  0.4851863394234071   T   T   T
  0.6665207845199483  0.0833081866714053  0.4857355292966949   T   T   T
  0.6662446026907874  0.3325229041359971  0.4853193668727240   T   T   T
  0.6667771613661543  0.5832289581330140  0.4845095879219147   T   T   T
  0.6665742711219027  0.8341752606431370  0.4849438633233345   T   T   T
  0.9165955596670117  0.0836119134246028  0.4854672401506635   T   T   T
  0.9165226136967133  0.3335088518036254  0.4856329375632608   T   T   T
  0.9174836682798735  0.5837667891584375  0.4853211637496743   T   T   T
  0.9174314789617615  0.8337813898974447  0.4851108046764832   T   T   T
  0.6970029338067637  0.7694727852678520  0.7088308958893630   T   T   T
  0.7691655940917651  0.6971915647880649  0.7088956076023888   T   T   T
  0.6969107608013486  0.5528353263774162  0.7100346754765283   T   T   T
  0.5526173971397580  0.4806963378503383  0.7089120119039738   T   T   T
  0.4804418534463576  0.5530283671821054  0.7088309116946107   T   T   T
  0.5527207207498853  0.6972101579189680  0.7098280489778814   T   T   T
  0.7934853409467666  0.9631886161901827  0.7057351941495893   T   T   T
  0.9628813154202062  0.7935443814256782  0.7059312170897408   T   T   T
  0.7936507495433036  0.4560645343924961  0.7114366721555231   T   T   T
  0.4560931818377127  0.2871675055186546  0.7060282290745148   T   T   T
  0.2868274515339694  0.4566656377820764  0.7057299201265501   T   T   T
  0.4560913372369385  0.7941721164245988  0.7105917749681722   T   T   T
 
  0.00000000E+00  0.00000000E+00  0.00000000E+00
  0.00000000E+00  0.00000000E+00  0.00000000E+00
  0.00000000E+00  0.00000000E+00  0.00000000E+00
  0.00000000E+00  0.00000000E+00  0.00000000E+00
  0.00000000E+00  0.00000000E+00  0.00000000E+00
  0.00000000E+00  0.00000000E+00  0.00000000E+00
  0.00000000E+00  0.00000000E+00  0.00000000E+00
  0.00000000E+00  0.00000000E+00  0.00000000E+00
  0.00000000E+00  0.00000000E+00  0.00000000E+00
  0.00000000E+00  0.00000000E+00  0.00000000E+00
  0.00000000E+00  0.00000000E+00  0.00000000E+00
  0.00000000E+00  0.00000000E+00  0.00000000E+00
  0.00000000E+00  0.00000000E+00  0.00000000E+00
  0.00000000E+00  0.00000000E+00  0.00000000E+00
  0.00000000E+00  0.00000000E+00  0.00000000E+00
  0.00000000E+00  0.00000000E+00  0.00000000E+00
  0.00000000E+00  0.00000000E+00  0.00000000E+00
  0.00000000E+00  0.00000000E+00  0.00000000E+00
  0.00000000E+00  0.00000000E+00  0.00000000E+00
  0.00000000E+00  0.00000000E+00  0.00000000E+00
  0.00000000E+00  0.00000000E+00  0.00000000E+00
  0.00000000E+00  0.00000000E+00  0.00000000E+00
  0.00000000E+00  0.00000000E+00  0.00000000E+00
  0.00000000E+00  0.00000000E+00  0.00000000E+00
  0.00000000E+00  0.00000000E+00  0.00000000E+00
  0.00000000E+00  0.00000000E+00  0.00000000E+00
  0.00000000E+00  0.00000000E+00  0.00000000E+00
  0.00000000E+00  0.00000000E+00  0.00000000E+00
  0.00000000E+00  0.00000000E+00  0.00000000E+00
  0.00000000E+00  0.00000000E+00  0.00000000E+00
  0.00000000E+00  0.00000000E+00  0.00000000E+00
  0.00000000E+00  0.00000000E+00  0.00000000E+00
  0.00000000E+00  0.00000000E+00  0.00000000E+00
  0.00000000E+00  0.00000000E+00  0.00000000E+00
  0.00000000E+00  0.00000000E+00  0.00000000E+00
  0.00000000E+00  0.00000000E+00  0.00000000E+00
  0.00000000E+00  0.00000000E+00  0.00000000E+00
  0.00000000E+00  0.00000000E+00  0.00000000E+00
  0.00000000E+00  0.00000000E+00  0.00000000E+00
  0.00000000E+00  0.00000000E+00  0.00000000E+00
  0.00000000E+00  0.00000000E+00  0.00000000E+00
  0.00000000E+00  0.00000000E+00  0.00000000E+00
  0.00000000E+00  0.00000000E+00  0.00000000E+00
  0.00000000E+00  0.00000000E+00  0.00000000E+00
  0.00000000E+00  0.00000000E+00  0.00000000E+00
  0.00000000E+00  0.00000000E+00  0.00000000E+00
  0.00000000E+00  0.00000000E+00  0.00000000E+00
  0.00000000E+00  0.00000000E+00  0.00000000E+00
  0.00000000E+00  0.00000000E+00  0.00000000E+00
  0.00000000E+00  0.00000000E+00  0.00000000E+00
  0.00000000E+00  0.00000000E+00  0.00000000E+00
  0.00000000E+00  0.00000000E+00  0.00000000E+00
  0.00000000E+00  0.00000000E+00  0.00000000E+00
  0.00000000E+00  0.00000000E+00  0.00000000E+00
  0.00000000E+00  0.00000000E+00  0.00000000E+00
  0.00000000E+00  0.00000000E+00  0.00000000E+00
  0.00000000E+00  0.00000000E+00  0.00000000E+00
  0.00000000E+00  0.00000000E+00  0.00000000E+00
  0.00000000E+00  0.00000000E+00  0.00000000E+00
  0.00000000E+00  0.00000000E+00  0.00000000E+00
  0.00000000E+00  0.00000000E+00  0.00000000E+00
  0.00000000E+00  0.00000000E+00  0.00000000E+00
  0.00000000E+00  0.00000000E+00  0.00000000E+00
  0.00000000E+00  0.00000000E+00  0.00000000E+00
  0.00000000E+00  0.00000000E+00  0.00000000E+00
  0.00000000E+00  0.00000000E+00  0.00000000E+00
  0.00000000E+00  0.00000000E+00  0.00000000E+00
  0.00000000E+00  0.00000000E+00  0.00000000E+00
  0.00000000E+00  0.00000000E+00  0.00000000E+00
  0.00000000E+00  0.00000000E+00  0.00000000E+00
  0.00000000E+00  0.00000000E+00  0.00000000E+00
  0.00000000E+00  0.00000000E+00  0.00000000E+00
  0.00000000E+00  0.00000000E+00  0.00000000E+00
  0.00000000E+00  0.00000000E+00  0.00000000E+00
  0.00000000E+00  0.00000000E+00  0.00000000E+00
  0.00000000E+00  0.00000000E+00  0.00000000E+00
