Cu48 C4 Br4 N2                          
    1.000000000000000     
    10.2424769999999992    0.0000000000000000    0.0000000000000000
    -5.1212390000000001    8.8702459999999999    0.0000000000000000
     0.0000000000000000    0.0000000000000000   16.1814740000000015
   Cu   C    Br   N 
    48     4     4     2
Selective dynamics
Direct
  0.0833330000000032  0.1666669999999968  0.3707939999999965   F   F   F
  0.0833330000000032  0.4166669999999968  0.3707939999999965   F   F   F
  0.0833330000000032  0.6666669999999968  0.3707939999999965   F   F   F
  0.0833330000000032  0.9166669999999968  0.3707939999999965   F   F   F
  0.3333330000000032  0.1666669999999968  0.3707939999999965   F   F   F
  0.3333330000000032  0.4166669999999968  0.3707939999999965   F   F   F
  0.3333330000000032  0.6666669999999968  0.3707939999999965   F   F   F
  0.3333330000000032  0.9166669999999968  0.3707939999999965   F   F   F
  0.5833330000000032  0.1666669999999968  0.3707939999999965   F   F   F
  0.5833330000000032  0.4166669999999968  0.3707939999999965   F   F   F
  0.5833330000000032  0.6666669999999968  0.3707939999999965   F   F   F
  0.5833330000000032  0.9166669999999968  0.3707939999999965   F   F   F
  0.8333330000000032  0.1666669999999968  0.3707939999999965   F   F   F
  0.8333330000000032  0.4166669999999968  0.3707939999999965   F   F   F
  0.8333330000000032  0.6666669999999968  0.3707939999999965   F   F   F
  0.8333330000000032  0.9166669999999968  0.3707939999999965   F   F   F
  0.9964982944615528  0.9977417567255671  0.6237207178853978   T   T   T
  0.9945952144367567  0.2487938638664815  0.6248541159681196   T   T   T
  0.9997257197229246  0.5005573271436958  0.6248642963361775   T   T   T
  0.0001030625341230  0.7498843400340576  0.6242342279656725   T   T   T
  0.2473681704941413  0.9962063860792654  0.6247247573175585   T   T   T
  0.2427114653442786  0.2442717078163454  0.6235390002006227   T   T   T
  0.2489398797287024  0.5010611944106387  0.6293254268781325   T   T   T
  0.2494363116921576  0.7502629434934747  0.6248764771460387   T   T   T
  0.4994736817036838  0.0014505771967350  0.6254294779835021   T   T   T
  0.4995241250765190  0.2504877168078252  0.6292665707683796   T   T   T
  0.5057378082231665  0.5072929447346581  0.6235384749950938   T   T   T
  0.5012102035303840  0.7554041295144458  0.6248636800277581   T   T   T
  0.7485325924154651  0.0014652890872853  0.6249666698571872   T   T   T
  0.7485509751994499  0.2505305987592692  0.6254182611598935   T   T   T
  0.7537929340901428  0.5026330006589248  0.6247096024474246   T   T   T
  0.7522518209238598  0.7534935904173352  0.6237198369543293   T   T   T
  0.1664179979075584  0.0830146528277496  0.4976866142118368   T   T   T
  0.1664538581771922  0.3339195728207542  0.4990541997304589   T   T   T
  0.1674518259185263  0.5825489354101308  0.4990380400911647   T   T   T
  0.1668420016371996  0.8330502389308023  0.4973479889834280   T   T   T
  0.4164903148606314  0.0848779096249572  0.4992179998162172   T   T   T
  0.4163961767145565  0.3336081432742830  0.4996046405878687   T   T   T
  0.4160836157529459  0.5835486711275948  0.4990577201230906   T   T   T
  0.4163846997877130  0.8339215452672306  0.4980024829323426   T   T   T
  0.6657937175435578  0.0842041650460743  0.4981595722774870   T   T   T
  0.6651252849601619  0.3335118579618452  0.4992151569466188   T   T   T
  0.6669812960539332  0.5835819797437409  0.4976848881529037   T   T   T
  0.6663789445606554  0.8338983201690340  0.4977495153009812   T   T   T
  0.9160984322260788  0.0836161274745280  0.4977470641499977   T   T   T
  0.9160769873141348  0.3336147400986604  0.4979952126509133   T   T   T
  0.9169474054601920  0.5831575508165017  0.4973421491522600   T   T   T
  0.9169147836368836  0.8330794596448143  0.4971041061330723   T   T   T
  0.5280898073655962  0.4462139980294069  0.7668913311843752   T   T   T
  0.4503246851072689  0.5247500493016659  0.7649824757578116   T   T   T
  0.2252645486350460  0.2996724776925603  0.7649838069110899   T   T   T
  0.3037663531239758  0.2219153569465533  0.7668944273593254   T   T   T
  0.2146703321769294  0.0149250068547317  0.8006687208929861   T   T   T
  0.0183687616300645  0.2132603053841464  0.7991217056626212   T   T   T
  0.7350688464075930  0.5353298585813917  0.8006775818175456   T   T   T
  0.5367471921168132  0.7316363737275609  0.7991188516870764   T   T   T
  0.2982838925537692  0.4517000953686860  0.7459645912444373   T   T   T
  0.4561067012649005  0.2939258165240588  0.7496843013334384   T   T   T
 
  0.00000000E+00  0.00000000E+00  0.00000000E+00
  0.00000000E+00  0.00000000E+00  0.00000000E+00
  0.00000000E+00  0.00000000E+00  0.00000000E+00
  0.00000000E+00  0.00000000E+00  0.00000000E+00
  0.00000000E+00  0.00000000E+00  0.00000000E+00
  0.00000000E+00  0.00000000E+00  0.00000000E+00
  0.00000000E+00  0.00000000E+00  0.00000000E+00
  0.00000000E+00  0.00000000E+00  0.00000000E+00
  0.00000000E+00  0.00000000E+00  0.00000000E+00
  0.00000000E+00  0.00000000E+00  0.00000000E+00
  0.00000000E+00  0.00000000E+00  0.00000000E+00
  0.00000000E+00  0.00000000E+00  0.00000000E+00
  0.00000000E+00  0.00000000E+00  0.00000000E+00
  0.00000000E+00  0.00000000E+00  0.00000000E+00
  0.00000000E+00  0.00000000E+00  0.00000000E+00
  0.00000000E+00  0.00000000E+00  0.00000000E+00
  0.00000000E+00  0.00000000E+00  0.00000000E+00
  0.00000000E+00  0.00000000E+00  0.00000000E+00
  0.00000000E+00  0.00000000E+00  0.00000000E+00
  0.00000000E+00  0.00000000E+00  0.00000000E+00
  0.00000000E+00  0.00000000E+00  0.00000000E+00
  0.00000000E+00  0.00000000E+00  0.00000000E+00
  0.00000000E+00  0.00000000E+00  0.00000000E+00
  0.00000000E+00  0.00000000E+00  0.00000000E+00
  0.00000000E+00  0.00000000E+00  0.00000000E+00
  0.00000000E+00  0.00000000E+00  0.00000000E+00
  0.00000000E+00  0.00000000E+00  0.00000000E+00
  0.00000000E+00  0.00000000E+00  0.00000000E+00
  0.00000000E+00  0.00000000E+00  0.00000000E+00
  0.00000000E+00  0.00000000E+00  0.00000000E+00
  0.00000000E+00  0.00000000E+00  0.00000000E+00
  0.00000000E+00  0.00000000E+00  0.00000000E+00
  0.00000000E+00  0.00000000E+00  0.00000000E+00
  0.00000000E+00  0.00000000E+00  0.00000000E+00
  0.00000000E+00  0.00000000E+00  0.00000000E+00
  0.00000000E+00  0.00000000E+00  0.00000000E+00
  0.00000000E+00  0.00000000E+00  0.00000000E+00
  0.00000000E+00  0.00000000E+00  0.00000000E+00
  0.00000000E+00  0.00000000E+00  0.00000000E+00
  0.00000000E+00  0.00000000E+00  0.00000000E+00
  0.00000000E+00  0.00000000E+00  0.00000000E+00
  0.00000000E+00  0.00000000E+00  0.00000000E+00
  0.00000000E+00  0.00000000E+00  0.00000000E+00
  0.00000000E+00  0.00000000E+00  0.00000000E+00
  0.00000000E+00  0.00000000E+00  0.00000000E+00
  0.00000000E+00  0.00000000E+00  0.00000000E+00
  0.00000000E+00  0.00000000E+00  0.00000000E+00
  0.00000000E+00  0.00000000E+00  0.00000000E+00
  0.00000000E+00  0.00000000E+00  0.00000000E+00
  0.00000000E+00  0.00000000E+00  0.00000000E+00
  0.00000000E+00  0.00000000E+00  0.00000000E+00
  0.00000000E+00  0.00000000E+00  0.00000000E+00
  0.00000000E+00  0.00000000E+00  0.00000000E+00
  0.00000000E+00  0.00000000E+00  0.00000000E+00
  0.00000000E+00  0.00000000E+00  0.00000000E+00
  0.00000000E+00  0.00000000E+00  0.00000000E+00
  0.00000000E+00  0.00000000E+00  0.00000000E+00
  0.00000000E+00  0.00000000E+00  0.00000000E+00
