H4 Ir48 C6 Cl2                          
    1.000000000000000     
    10.9622130000000002    0.0000000000000000    0.0000000000000000
    -5.4811069999999997    9.4935550000000006    0.0000000000000000
     0.0000000000000000    0.0000000000000000   17.4770989999999991
   H    Ir   C    Cl
     4    48     6     2
Selective dynamics
Direct
  0.5047408933924800  0.6370924207776270  0.7694269879013476   T   T   T
  0.6371767609294352  0.5046118150410024  0.7695661829257077   T   T   T
  0.2451061432229551  0.1125178759996643  0.7695304875013278   T   T   T
  0.1126917411065591  0.2450215382094285  0.7693952763959970   T   T   T
  0.0833330000000032  0.1666669999999968  0.3433059999999983   F   F   F
  0.0833330000000032  0.4166669999999968  0.3433059999999983   F   F   F
  0.0833330000000032  0.6666669999999968  0.3433059999999983   F   F   F
  0.0833330000000032  0.9166669999999968  0.3433059999999983   F   F   F
  0.3333330000000032  0.1666669999999968  0.3433059999999983   F   F   F
  0.3333330000000032  0.4166669999999968  0.3433059999999983   F   F   F
  0.3333330000000032  0.6666669999999968  0.3433059999999983   F   F   F
  0.3333330000000032  0.9166669999999968  0.3433059999999983   F   F   F
  0.5833330000000032  0.1666669999999968  0.3433059999999983   F   F   F
  0.5833330000000032  0.4166669999999968  0.3433059999999983   F   F   F
  0.5833330000000032  0.6666669999999968  0.3433059999999983   F   F   F
  0.5833330000000032  0.9166669999999968  0.3433059999999983   F   F   F
  0.8333330000000032  0.1666669999999968  0.3433059999999983   F   F   F
  0.8333330000000032  0.4166669999999968  0.3433059999999983   F   F   F
  0.8333330000000032  0.6666669999999968  0.3433059999999983   F   F   F
  0.8333330000000032  0.9166669999999968  0.3433059999999983   F   F   F
  0.9996434772890339  0.9999759103304342  0.5917649642142351   T   T   T
  0.9991600837028471  0.2496708218302004  0.5915024182903252   T   T   T
  0.9995257741654910  0.4999595192696020  0.5913500040942381   T   T   T
  0.9999327751503486  0.7501116521959830  0.5917509883708547   T   T   T
  0.2497217004962309  0.9994155965886762  0.5914227287454636   T   T   T
  0.2491512823393549  0.2493198101197791  0.5923102170311978   T   T   T
  0.2492875723303953  0.5007483028744346  0.5907970068324389   T   T   T
  0.2500790062443414  0.7505166618931511  0.5913521099581658   T   T   T
  0.4998654767896511  0.9998766498342562  0.5914965033944455   T   T   T
  0.5006019630529650  0.2494377343291845  0.5909602811269110   T   T   T
  0.5007047116015855  0.5008746875052381  0.5923061382379302   T   T   T
  0.5003679285080409  0.7508780342167896  0.5915003464379254   T   T   T
  0.7500500130600471  0.9999853924759279  0.5918389929447017   T   T   T
  0.7501602626033090  0.2501743203577433  0.5914957626154873   T   T   T
  0.7506174354100850  0.5003122148972921  0.5914212365820219   T   T   T
  0.7500598924160329  0.7503945106899863  0.5917656742116364   T   T   T
  0.1665812306592400  0.0833512498773246  0.4674314586665531   T   T   T
  0.1667286222518598  0.3331675126871332  0.4675204503772292   T   T   T
  0.1664838996465008  0.5835438385796650  0.4670678580103740   T   T   T
  0.1663268613871693  0.8332769080455904  0.4672708698739214   T   T   T
  0.4164544423641559  0.0832228371480142  0.4670874401491503   T   T   T
  0.4164572968265148  0.3335634391082394  0.4680787890218880   T   T   T
  0.4168602539879913  0.5832969865635178  0.4675226473346896   T   T   T
  0.4166636526222831  0.8333228351807946  0.4672311952977068   T   T   T
  0.6666827087603053  0.0833442083073876  0.4675059671314017   T   T   T
  0.6668038673424093  0.3335718028220285  0.4670891894181821   T   T   T
  0.6666761234400269  0.5834468045508743  0.4674352063776510   T   T   T
  0.6668246959550714  0.8334392012327925  0.4673661777876390   T   T   T
  0.9165851294732050  0.0832011064120408  0.4673677155214833   T   T   T
  0.9167036032070683  0.3333621801604423  0.4672317251382339   T   T   T
  0.9167458708240801  0.5837015423869758  0.4672710908421607   T   T   T
  0.9166543543991921  0.8333652128419686  0.4673287277683755   T   T   T
  0.3018076795941198  0.4478771659968572  0.7772616080879970   T   T   T
  0.4486952720732305  0.5223199924339781  0.7728466228241899   T   T   T
  0.5224420553185922  0.4486005595673177  0.7729310133076908   T   T   T
  0.4480725403094397  0.3017048763045906  0.7774561637211050   T   T   T
  0.3011251844597282  0.2273318572352210  0.7729140379814368   T   T   T
  0.2273544876550915  0.3010297717041368  0.7728261178319542   T   T   T
  0.2110610195886551  0.5386695097612062  0.7848861718408742   T   T   T
  0.5387235538472481  0.2110054501598810  0.7856756013989141   T   T   T
 
  0.00000000E+00  0.00000000E+00  0.00000000E+00
  0.00000000E+00  0.00000000E+00  0.00000000E+00
  0.00000000E+00  0.00000000E+00  0.00000000E+00
  0.00000000E+00  0.00000000E+00  0.00000000E+00
  0.00000000E+00  0.00000000E+00  0.00000000E+00
  0.00000000E+00  0.00000000E+00  0.00000000E+00
  0.00000000E+00  0.00000000E+00  0.00000000E+00
  0.00000000E+00  0.00000000E+00  0.00000000E+00
  0.00000000E+00  0.00000000E+00  0.00000000E+00
  0.00000000E+00  0.00000000E+00  0.00000000E+00
  0.00000000E+00  0.00000000E+00  0.00000000E+00
  0.00000000E+00  0.00000000E+00  0.00000000E+00
  0.00000000E+00  0.00000000E+00  0.00000000E+00
  0.00000000E+00  0.00000000E+00  0.00000000E+00
  0.00000000E+00  0.00000000E+00  0.00000000E+00
  0.00000000E+00  0.00000000E+00  0.00000000E+00
  0.00000000E+00  0.00000000E+00  0.00000000E+00
  0.00000000E+00  0.00000000E+00  0.00000000E+00
  0.00000000E+00  0.00000000E+00  0.00000000E+00
  0.00000000E+00  0.00000000E+00  0.00000000E+00
  0.00000000E+00  0.00000000E+00  0.00000000E+00
  0.00000000E+00  0.00000000E+00  0.00000000E+00
  0.00000000E+00  0.00000000E+00  0.00000000E+00
  0.00000000E+00  0.00000000E+00  0.00000000E+00
  0.00000000E+00  0.00000000E+00  0.00000000E+00
  0.00000000E+00  0.00000000E+00  0.00000000E+00
  0.00000000E+00  0.00000000E+00  0.00000000E+00
  0.00000000E+00  0.00000000E+00  0.00000000E+00
  0.00000000E+00  0.00000000E+00  0.00000000E+00
  0.00000000E+00  0.00000000E+00  0.00000000E+00
  0.00000000E+00  0.00000000E+00  0.00000000E+00
  0.00000000E+00  0.00000000E+00  0.00000000E+00
  0.00000000E+00  0.00000000E+00  0.00000000E+00
  0.00000000E+00  0.00000000E+00  0.00000000E+00
  0.00000000E+00  0.00000000E+00  0.00000000E+00
  0.00000000E+00  0.00000000E+00  0.00000000E+00
  0.00000000E+00  0.00000000E+00  0.00000000E+00
  0.00000000E+00  0.00000000E+00  0.00000000E+00
  0.00000000E+00  0.00000000E+00  0.00000000E+00
  0.00000000E+00  0.00000000E+00  0.00000000E+00
  0.00000000E+00  0.00000000E+00  0.00000000E+00
  0.00000000E+00  0.00000000E+00  0.00000000E+00
  0.00000000E+00  0.00000000E+00  0.00000000E+00
  0.00000000E+00  0.00000000E+00  0.00000000E+00
  0.00000000E+00  0.00000000E+00  0.00000000E+00
  0.00000000E+00  0.00000000E+00  0.00000000E+00
  0.00000000E+00  0.00000000E+00  0.00000000E+00
  0.00000000E+00  0.00000000E+00  0.00000000E+00
  0.00000000E+00  0.00000000E+00  0.00000000E+00
  0.00000000E+00  0.00000000E+00  0.00000000E+00
  0.00000000E+00  0.00000000E+00  0.00000000E+00
  0.00000000E+00  0.00000000E+00  0.00000000E+00
  0.00000000E+00  0.00000000E+00  0.00000000E+00
  0.00000000E+00  0.00000000E+00  0.00000000E+00
  0.00000000E+00  0.00000000E+00  0.00000000E+00
  0.00000000E+00  0.00000000E+00  0.00000000E+00
  0.00000000E+00  0.00000000E+00  0.00000000E+00
  0.00000000E+00  0.00000000E+00  0.00000000E+00
  0.00000000E+00  0.00000000E+00  0.00000000E+00
  0.00000000E+00  0.00000000E+00  0.00000000E+00
