Ag48 C6 H2 Br4                          
    1.000000000000000     
    11.7702790000000004    0.0000000000000000    0.0000000000000000
     0.0000000000000000   16.6456881000000010    0.0000000000000000
     0.0000000000000000    0.0000000000000000   15.7108600000000003
   Ag   C    H    Br
    48     6     2     4
Selective dynamics
Direct
  0.9999424371262151  0.2502088262764843  0.4045158802229807   T   T   T
  0.0000002108424511  0.5000006058071662  0.4045372832027212   T   T   T
  0.0000586154847895  0.7497901413752004  0.4045175790107791   T   T   T
  0.0000002319730328  0.0000005767983922  0.4043167151199754   T   T   T
  0.2501033654253604  0.2501877976116589  0.4047439825445451   T   T   T
  0.2501158268576873  0.4999589911883646  0.4040202771624593   T   T   T
  0.2496217523366298  0.7501138079733281  0.4040386054490241   T   T   T
  0.2499507200341995  0.0000369882841724  0.4043878686615017   T   T   T
  0.4996990121930267  0.2498151953711485  0.4039299363390967   T   T   T
  0.4999980801246053  0.5000021374720305  0.4043831537230176   T   T   T
  0.5002962056931892  0.7501819433936490  0.4039364432238841   T   T   T
  0.4999998937215722  0.0000002190264112  0.4043371705261407   T   T   T
  0.7503820679656670  0.2498811507090295  0.4040310207638385   T   T   T
  0.7498859430448732  0.5000453509797822  0.4040110985465617   T   T   T
  0.7498963048610534  0.7498118024535927  0.4047448190148231   T   T   T
  0.7500488900084790  0.9999637460619226  0.4043880649254348   T   T   T
  0.1250789207239222  0.1250139793259564  0.4904639104869588   T   T   T
  0.1250221976088284  0.3753165759208841  0.4910233684533054   T   T   T
  0.1243582382779280  0.6246319878286997  0.4910830121858183   T   T   T
  0.1251913538973284  0.8748790035330600  0.4904972383621740   T   T   T
  0.3751726140612774  0.1252187271007656  0.4905846629964614   T   T   T
  0.3748680242957718  0.3755979347686491  0.4907092408887763   T   T   T
  0.3745994559201122  0.6250997938630292  0.4891373448502563   T   T   T
  0.3750715404601408  0.8749017311004508  0.4904906110629028   T   T   T
  0.6249288931725374  0.1250976052787678  0.4904882476234818   T   T   T
  0.6254044935951768  0.3749020968722192  0.4891068468421409   T   T   T
  0.6251181124286447  0.6244058615162444  0.4907110805082979   T   T   T
  0.6248280441308509  0.8747815007136523  0.4905851367924541   T   T   T
  0.8748071410183371  0.1251220870375391  0.4904968668494902   T   T   T
  0.8756522187976614  0.3753644245730641  0.4910760173307906   T   T   T
  0.8749774769479544  0.6246845232330571  0.4910234350742897   T   T   T
  0.8749206434490304  0.8749862313793670  0.4904666143200842   T   T   T
  0.1249999995752020  0.1250000004505694  0.3182511969427537   F   F   F
  0.1249999995752020  0.3750000007509442  0.3182511969427537   F   F   F
  0.1249999995752020  0.6250000016520829  0.3182511969427537   F   F   F
  0.1249999995752020  0.8750000019524578  0.3182511969427537   F   F   F
  0.3749999987256061  0.1250000004505694  0.3182511969427537   F   F   F
  0.3749999987256061  0.3750000007509442  0.3182511969427537   F   F   F
  0.3749999987256061  0.6250000016520829  0.3182511969427537   F   F   F
  0.3749999987256061  0.8750000019524578  0.3182511969427537   F   F   F
  0.6249999978760030  0.1250000004505694  0.3182511969427537   F   F   F
  0.6249999978760030  0.3750000007509442  0.3182511969427537   F   F   F
  0.6249999978760030  0.6250000016520829  0.3182511969427537   F   F   F
  0.6249999978760030  0.8750000019524578  0.3182511969427537   F   F   F
  0.8749999970264071  0.1250000004505694  0.3182511969427537   F   F   F
  0.8749999970264071  0.3750000007509442  0.3182511969427537   F   F   F
  0.8749999970264071  0.6250000016520829  0.3182511969427537   F   F   F
  0.8749999970264071  0.8750000019524578  0.3182511969427537   F   F   F
  0.4314438259798123  0.4316314204494631  0.6806217796898650   T   T   T
  0.3811173655527540  0.5076710738842607  0.6818873228010531   T   T   T
  0.4502535722962264  0.5761299952220895  0.6822757762000151   T   T   T
  0.5685480706506567  0.5683713895481262  0.6806153686883931   T   T   T
  0.6188788989298430  0.4923298519063124  0.6817681757408991   T   T   T
  0.5497358014848999  0.4238776934408790  0.6821618105949554   T   T   T
  0.3781898898403782  0.3780377940769029  0.6808381730070820   T   T   T
  0.6218060160184322  0.6219669468249336  0.6808389563950286   T   T   T
  0.2207843907773110  0.5139206041450706  0.6799634291809724   T   T   T
  0.3884546804654221  0.6813876593088040  0.6827101223643410   T   T   T
  0.7792025261318045  0.4860805463582594  0.6796299406927631   T   T   T
  0.6115411137707554  0.3186171642225517  0.6824505693602845   T   T   T
 
  0.00000000E+00  0.00000000E+00  0.00000000E+00
  0.00000000E+00  0.00000000E+00  0.00000000E+00
  0.00000000E+00  0.00000000E+00  0.00000000E+00
  0.00000000E+00  0.00000000E+00  0.00000000E+00
  0.00000000E+00  0.00000000E+00  0.00000000E+00
  0.00000000E+00  0.00000000E+00  0.00000000E+00
  0.00000000E+00  0.00000000E+00  0.00000000E+00
  0.00000000E+00  0.00000000E+00  0.00000000E+00
  0.00000000E+00  0.00000000E+00  0.00000000E+00
  0.00000000E+00  0.00000000E+00  0.00000000E+00
  0.00000000E+00  0.00000000E+00  0.00000000E+00
  0.00000000E+00  0.00000000E+00  0.00000000E+00
  0.00000000E+00  0.00000000E+00  0.00000000E+00
  0.00000000E+00  0.00000000E+00  0.00000000E+00
  0.00000000E+00  0.00000000E+00  0.00000000E+00
  0.00000000E+00  0.00000000E+00  0.00000000E+00
  0.00000000E+00  0.00000000E+00  0.00000000E+00
  0.00000000E+00  0.00000000E+00  0.00000000E+00
  0.00000000E+00  0.00000000E+00  0.00000000E+00
  0.00000000E+00  0.00000000E+00  0.00000000E+00
  0.00000000E+00  0.00000000E+00  0.00000000E+00
  0.00000000E+00  0.00000000E+00  0.00000000E+00
  0.00000000E+00  0.00000000E+00  0.00000000E+00
  0.00000000E+00  0.00000000E+00  0.00000000E+00
  0.00000000E+00  0.00000000E+00  0.00000000E+00
  0.00000000E+00  0.00000000E+00  0.00000000E+00
  0.00000000E+00  0.00000000E+00  0.00000000E+00
  0.00000000E+00  0.00000000E+00  0.00000000E+00
  0.00000000E+00  0.00000000E+00  0.00000000E+00
  0.00000000E+00  0.00000000E+00  0.00000000E+00
  0.00000000E+00  0.00000000E+00  0.00000000E+00
  0.00000000E+00  0.00000000E+00  0.00000000E+00
  0.00000000E+00  0.00000000E+00  0.00000000E+00
  0.00000000E+00  0.00000000E+00  0.00000000E+00
  0.00000000E+00  0.00000000E+00  0.00000000E+00
  0.00000000E+00  0.00000000E+00  0.00000000E+00
  0.00000000E+00  0.00000000E+00  0.00000000E+00
  0.00000000E+00  0.00000000E+00  0.00000000E+00
  0.00000000E+00  0.00000000E+00  0.00000000E+00
  0.00000000E+00  0.00000000E+00  0.00000000E+00
  0.00000000E+00  0.00000000E+00  0.00000000E+00
  0.00000000E+00  0.00000000E+00  0.00000000E+00
  0.00000000E+00  0.00000000E+00  0.00000000E+00
  0.00000000E+00  0.00000000E+00  0.00000000E+00
  0.00000000E+00  0.00000000E+00  0.00000000E+00
  0.00000000E+00  0.00000000E+00  0.00000000E+00
  0.00000000E+00  0.00000000E+00  0.00000000E+00
  0.00000000E+00  0.00000000E+00  0.00000000E+00
  0.00000000E+00  0.00000000E+00  0.00000000E+00
  0.00000000E+00  0.00000000E+00  0.00000000E+00
  0.00000000E+00  0.00000000E+00  0.00000000E+00
  0.00000000E+00  0.00000000E+00  0.00000000E+00
  0.00000000E+00  0.00000000E+00  0.00000000E+00
  0.00000000E+00  0.00000000E+00  0.00000000E+00
  0.00000000E+00  0.00000000E+00  0.00000000E+00
  0.00000000E+00  0.00000000E+00  0.00000000E+00
  0.00000000E+00  0.00000000E+00  0.00000000E+00
  0.00000000E+00  0.00000000E+00  0.00000000E+00
  0.00000000E+00  0.00000000E+00  0.00000000E+00
  0.00000000E+00  0.00000000E+00  0.00000000E+00
