Cu  C  H Br                             
    1.000000000000000     
    10.2424774999999997    0.0000000000000000    0.0000000000000000
     0.0000000000000000   14.4850505999999992    0.0000000000000000
     0.0000000000000000    0.0000000000000000   21.8409290399999989
   Cu   C    H    Br
    64     6     4     2
Selective dynamics
Direct
  0.2499999995118358  0.2499999993096296  0.3433919860398049   F   F   F
  0.0000000000000000  0.7499999965481621  0.3433919860398049   F   F   F
  0.2499999995118358  0.4999999986192663  0.3433919860398049   F   F   F
  0.2499999995118358  0.7499999979288958  0.3433919860398049   F   F   F
  0.2499999995118358  0.0000000000000000  0.3433919860398049   F   F   F
  0.4999999990236716  0.2499999993096296  0.3433919860398049   F   F   F
  0.4999999990236716  0.4999999986192663  0.3433919860398049   F   F   F
  0.0000000000000000  0.0000000000000000  0.3433919860398049   F   F   F
  0.4999999990236716  0.7499999979288958  0.3433919860398049   F   F   F
  0.4999999990236716  0.0000000000000000  0.3433919860398049   F   F   F
  0.7499999985355075  0.2499999993096296  0.3433919860398049   F   F   F
  0.7499999985355075  0.4999999986192663  0.3433919860398049   F   F   F
  0.7499999985355075  0.7499999979288958  0.3433919860398049   F   F   F
  0.7499999985355075  0.0000000000000000  0.3433919860398049   F   F   F
  0.9999999980473504  0.2499999993096296  0.3433919860398049   F   F   F
  0.0000000000000000  0.4999999986192663  0.3433919860398049   F   F   F
  0.2497236937594091  0.2497519517417133  0.4612093586171717   T   T   T
  0.2497905445502561  0.4999985936266911  0.4616374780518378   T   T   T
  0.2501246941727943  0.7496977958778926  0.4620212181217954   T   T   T
  0.2500196386843977  0.9999100822895569  0.4617650336128718   T   T   T
  0.5004007750456523  0.2500083619378641  0.4616406476268621   T   T   T
  0.5000002994753329  0.4999976429647292  0.4609907896870239   T   T   T
  0.4995987505052810  0.7499768328977138  0.4616341880112094   T   T   T
  0.5000017302223755 -0.0000033644499201  0.4617516097492180   T   T   T
  0.7498787979187705  0.2502979104361620  0.4620319164574945   T   T   T
  0.7502096048059371  0.4999932584590592  0.4616360989415260   T   T   T
  0.7502720278525123  0.7502430273681348  0.4612039194855467   T   T   T
  0.7499880134036063  0.0000904914698028  0.4617724777138149   T   T   T
 -0.0001268992037514  0.2500457827173167  0.4618344044771279   T   T   T
 -0.0000022672444541  0.4999969861930831  0.4620169039996001   T   T   T
  0.0001273775773836  0.7499556161743426  0.4618179530667790   T   T   T
 -0.0000010825430617 -0.0000017577557700  0.4616966638328954   T   T   T
  0.1249800590260634  0.1248997738604652  0.5166201600120686   T   T   T
  0.1245520517075939  0.3750112722876529  0.5167638074499445   T   T   T
  0.1251160281480305  0.6248771420655264  0.5168227083691787   T   T   T
  0.1250808878328770  0.8748804610235043  0.5167466772908463   T   T   T
  0.3750564160059003  0.1249961639610432  0.5166093035339772   T   T   T
  0.3750590067110337  0.3747825260504117  0.5158269259089682   T   T   T
  0.3748479316229570  0.6242661588515097  0.5170054935090785   T   T   T
  0.3749665969975300  0.8748922400337676  0.5167330010358593   T   T   T
  0.6250192905658711  0.1250762231133966  0.5167256723923245   T   T   T
  0.6251518555661034  0.3757558252374458  0.5169992898319582   T   T   T
  0.6249363887411271  0.6252433661421311  0.5158372980290358   T   T   T
  0.6249537099671821  0.8749691513280249  0.5166225951401205   T   T   T
  0.8749205470011087  0.1250903773365783  0.5167505723938374   T   T   T
  0.8748878055911834  0.3751436259113767  0.5168149356528076   T   T   T
  0.8754484686919348  0.6250167683343260  0.5167736242766676   T   T   T
  0.8750352311469402  0.8750768446389168  0.5166272398874232   T   T   T
  0.1250000002440785  0.1249999996548183  0.4020117305412967   F   F   F
  0.1250000002440785  0.3749999989644479  0.4020117305412967   F   F   F
  0.1250000002440785  0.6249999982740846  0.4020117305412967   F   F   F
  0.1250000002440785  0.8749999975837142  0.4020117305412967   F   F   F
  0.3749999997559215  0.1249999996548183  0.4020117305412967   F   F   F
  0.3749999997559215  0.3749999989644479  0.4020117305412967   F   F   F
  0.3749999997559215  0.6249999982740846  0.4020117305412967   F   F   F
  0.3749999997559215  0.8749999975837142  0.4020117305412967   F   F   F
  0.6249999982914289  0.1249999996548183  0.4020117305412967   F   F   F
  0.6249999992677573  0.3749999989644479  0.4020117305412967   F   F   F
  0.6249999992677573  0.6249999982740846  0.4020117305412967   F   F   F
  0.6249999992677573  0.8749999975837142  0.4020117305412967   F   F   F
  0.8749999987795931  0.1249999996548183  0.4020117305412967   F   F   F
  0.8749999978032648  0.3749999989644479  0.4020117305412967   F   F   F
  0.8749999987795931  0.6249999982740846  0.4020117305412967   F   F   F
  0.8749999987795931  0.8749999975837142  0.4020117305412967   F   F   F
  0.5830051398909784  0.5750285590877835  0.6435102586464687   T   T   T
  0.6358731735492863  0.4864185634924191  0.6426382506535731   T   T   T
  0.5520506713342912  0.4100077874676099  0.6421594800194778   T   T   T
  0.4170113823368831  0.4249985771636149  0.6434940464880247   T   T   T
  0.3641471354304449  0.5136053761601698  0.6426449381861761   T   T   T
  0.4479628258051020  0.5900199649697138  0.6421632678403109   T   T   T
  0.7412422715449845  0.4762303893107954  0.6419791797854544   T   T   T
  0.5921722504081348  0.3402751795473681  0.6428775286883673   T   T   T
  0.2587832673692486  0.5237776690515699  0.6419704173304385   T   T   T
  0.4078363918143502  0.6597443766236352  0.6428975499999290   T   T   T
  0.6986320722936077  0.6786157055789643  0.6436789394343676   T   T   T
  0.3013841562389241  0.3214084602701429  0.6436102709068532   T   T   T
 
  0.00000000E+00  0.00000000E+00  0.00000000E+00
  0.00000000E+00  0.00000000E+00  0.00000000E+00
  0.00000000E+00  0.00000000E+00  0.00000000E+00
  0.00000000E+00  0.00000000E+00  0.00000000E+00
  0.00000000E+00  0.00000000E+00  0.00000000E+00
  0.00000000E+00  0.00000000E+00  0.00000000E+00
  0.00000000E+00  0.00000000E+00  0.00000000E+00
  0.00000000E+00  0.00000000E+00  0.00000000E+00
  0.00000000E+00  0.00000000E+00  0.00000000E+00
  0.00000000E+00  0.00000000E+00  0.00000000E+00
  0.00000000E+00  0.00000000E+00  0.00000000E+00
  0.00000000E+00  0.00000000E+00  0.00000000E+00
  0.00000000E+00  0.00000000E+00  0.00000000E+00
  0.00000000E+00  0.00000000E+00  0.00000000E+00
  0.00000000E+00  0.00000000E+00  0.00000000E+00
  0.00000000E+00  0.00000000E+00  0.00000000E+00
  0.00000000E+00  0.00000000E+00  0.00000000E+00
  0.00000000E+00  0.00000000E+00  0.00000000E+00
  0.00000000E+00  0.00000000E+00  0.00000000E+00
  0.00000000E+00  0.00000000E+00  0.00000000E+00
  0.00000000E+00  0.00000000E+00  0.00000000E+00
  0.00000000E+00  0.00000000E+00  0.00000000E+00
  0.00000000E+00  0.00000000E+00  0.00000000E+00
  0.00000000E+00  0.00000000E+00  0.00000000E+00
  0.00000000E+00  0.00000000E+00  0.00000000E+00
  0.00000000E+00  0.00000000E+00  0.00000000E+00
  0.00000000E+00  0.00000000E+00  0.00000000E+00
  0.00000000E+00  0.00000000E+00  0.00000000E+00
  0.00000000E+00  0.00000000E+00  0.00000000E+00
  0.00000000E+00  0.00000000E+00  0.00000000E+00
  0.00000000E+00  0.00000000E+00  0.00000000E+00
  0.00000000E+00  0.00000000E+00  0.00000000E+00
  0.00000000E+00  0.00000000E+00  0.00000000E+00
  0.00000000E+00  0.00000000E+00  0.00000000E+00
  0.00000000E+00  0.00000000E+00  0.00000000E+00
  0.00000000E+00  0.00000000E+00  0.00000000E+00
  0.00000000E+00  0.00000000E+00  0.00000000E+00
  0.00000000E+00  0.00000000E+00  0.00000000E+00
  0.00000000E+00  0.00000000E+00  0.00000000E+00
  0.00000000E+00  0.00000000E+00  0.00000000E+00
  0.00000000E+00  0.00000000E+00  0.00000000E+00
  0.00000000E+00  0.00000000E+00  0.00000000E+00
  0.00000000E+00  0.00000000E+00  0.00000000E+00
  0.00000000E+00  0.00000000E+00  0.00000000E+00
  0.00000000E+00  0.00000000E+00  0.00000000E+00
  0.00000000E+00  0.00000000E+00  0.00000000E+00
  0.00000000E+00  0.00000000E+00  0.00000000E+00
  0.00000000E+00  0.00000000E+00  0.00000000E+00
  0.00000000E+00  0.00000000E+00  0.00000000E+00
  0.00000000E+00  0.00000000E+00  0.00000000E+00
  0.00000000E+00  0.00000000E+00  0.00000000E+00
  0.00000000E+00  0.00000000E+00  0.00000000E+00
  0.00000000E+00  0.00000000E+00  0.00000000E+00
  0.00000000E+00  0.00000000E+00  0.00000000E+00
  0.00000000E+00  0.00000000E+00  0.00000000E+00
  0.00000000E+00  0.00000000E+00  0.00000000E+00
  0.00000000E+00  0.00000000E+00  0.00000000E+00
  0.00000000E+00  0.00000000E+00  0.00000000E+00
  0.00000000E+00  0.00000000E+00  0.00000000E+00
  0.00000000E+00  0.00000000E+00  0.00000000E+00
  0.00000000E+00  0.00000000E+00  0.00000000E+00
  0.00000000E+00  0.00000000E+00  0.00000000E+00
  0.00000000E+00  0.00000000E+00  0.00000000E+00
  0.00000000E+00  0.00000000E+00  0.00000000E+00
  0.00000000E+00  0.00000000E+00  0.00000000E+00
  0.00000000E+00  0.00000000E+00  0.00000000E+00
  0.00000000E+00  0.00000000E+00  0.00000000E+00
  0.00000000E+00  0.00000000E+00  0.00000000E+00
  0.00000000E+00  0.00000000E+00  0.00000000E+00
  0.00000000E+00  0.00000000E+00  0.00000000E+00
  0.00000000E+00  0.00000000E+00  0.00000000E+00
  0.00000000E+00  0.00000000E+00  0.00000000E+00
  0.00000000E+00  0.00000000E+00  0.00000000E+00
  0.00000000E+00  0.00000000E+00  0.00000000E+00
  0.00000000E+00  0.00000000E+00  0.00000000E+00
  0.00000000E+00  0.00000000E+00  0.00000000E+00
