Ag  C  H Cl                             
    1.000000000000000     
    11.7702790000000004    0.0000000000000000    0.0000000000000000
     0.0000000000000000   16.6456881000000010    0.0000000000000000
     0.0000000000000000    0.0000000000000000   22.4138546100000013
   Ag   C    H    Cl
    64     6     2     4
Selective dynamics
Direct
  0.0000000000000000  0.2500000003003748  0.3346144663869595   F   F   F
  0.7499999974512050  0.7500000015018884  0.3346144663869595   F   F   F
  0.0000000000000000  0.5000000012015136  0.3346144663869595   F   F   F
  0.0000000000000000  0.7500000015018884  0.3346144663869595   F   F   F
  0.0000000000000000  0.0000000000000000  0.3346144663869595   F   F   F
  0.2499999991504041  0.2500000003003748  0.3346144663869595   F   F   F
  0.2499999991504041  0.5000000012015136  0.3346144663869595   F   F   F
  0.7499999974512050  0.0000000000000000  0.3346144663869595   F   F   F
  0.2499999991504041  0.7500000015018884  0.3346144663869595   F   F   F
  0.2499999991504041  0.0000000000000000  0.3346144663869595   F   F   F
  0.4999999983008081  0.2500000003003748  0.3346144663869595   F   F   F
  0.4999999983008081  0.5000000012015136  0.3346144663869595   F   F   F
  0.4999999983008081  0.7500000015018884  0.3346144663869595   F   F   F
  0.4999999983008081  0.0000000000000000  0.3346144663869595   F   F   F
  0.7499999974512050  0.2500000003003748  0.3346144663869595   F   F   F
  0.7499999974512050  0.5000000012015136  0.3346144663869595   F   F   F
  0.0001543046236918  0.2500797353783919  0.4628326552587718   T   T   T
  0.0000027582260821  0.4999980462296045  0.4627479842078880   T   T   T
 -0.0001473565379460  0.7499156435689194  0.4628320429458820   T   T   T
  0.0000031600837558  0.9999980562408818  0.4627624794933753   T   T   T
  0.2501680570445562  0.2502464962270201  0.4629254027496971   T   T   T
  0.2500550184915817  0.5000433370094354  0.4625162055175650   T   T   T
  0.2496247706848971  0.7501336168974533  0.4625270787262822   T   T   T
  0.2500115960207597  0.0000297133737245  0.4627379217195900   T   T   T
  0.4996546848111259  0.2499674167248433  0.4626118631842512   T   T   T
  0.5000025040716517  0.4999995394644583  0.4626221066112597   T   T   T
  0.5003512188584753  0.7500275093593565  0.4626106646342286   T   T   T
  0.5000036068552658  0.9999979082031177  0.4627239139414106   T   T   T
  0.7503821241351809  0.2498609637915333  0.4625267787312302   T   T   T
  0.7499523534766029  0.4999550710682231  0.4625157853947344   T   T   T
  0.7498388469939136  0.7497494086403197  0.4629246691738969   T   T   T
  0.7499954836213403  0.9999661691115392  0.4627381320887443   T   T   T
  0.1249866267737965  0.1250387532048965  0.5212460240597101   T   T   T
  0.1253376261035520  0.3752314570795501  0.5214516538349103   T   T   T
  0.1245000469314403  0.6247704187105938  0.5212647670775222   T   T   T
  0.1249615539104528  0.8749960901325765  0.5212828075426558   T   T   T
  0.3750481084954982  0.1250446301802957  0.5212252047131275   T   T   T
  0.3751817283621498  0.3755263051664606  0.5215091486309179   T   T   T
  0.3747274334398839  0.6254022218427259  0.5205181444731393   T   T   T
  0.3750284268359478  0.8749639715790833  0.5211928286786650   T   T   T
  0.6249784946180925  0.1250311860457538  0.5211925728411101   T   T   T
  0.6252805194273789  0.3745911647388517  0.5205193734106093   T   T   T
  0.6248248738842574  0.6244699920948944  0.5215078908331884   T   T   T
  0.6249590749048890  0.8749503580643407  0.5212257944715979   T   T   T
  0.8750459108352928  0.1249990425712947  0.5212825019449018   T   T   T
  0.8755041645732792  0.3752215672386490  0.5212592859967573   T   T   T
  0.8746691256016655  0.6247638858915747  0.5214506393034216   T   T   T
  0.8750218673273049  0.8749542730337402  0.5212461690675945   T   T   T
  0.1249999995752020  0.1250000004505694  0.4002562266107219   F   F   F
  0.1249999995752020  0.3750000007509442  0.4002562266107219   F   F   F
  0.1249999995752020  0.6250000016520829  0.4002562266107219   F   F   F
  0.1249999995752020  0.8750000019524578  0.4002562266107219   F   F   F
  0.3749999987256061  0.1250000004505694  0.4002562266107219   F   F   F
  0.3749999987256061  0.3750000007509442  0.4002562266107219   F   F   F
  0.3749999987256061  0.6250000016520829  0.4002562266107219   F   F   F
  0.3749999987256061  0.8750000019524578  0.4002562266107219   F   F   F
  0.6249999978760030  0.1250000004505694  0.4002562266107219   F   F   F
  0.6249999978760030  0.3750000007509442  0.4002562266107219   F   F   F
  0.6249999978760030  0.6250000016520829  0.4002562266107219   F   F   F
  0.6249999978760030  0.8750000019524578  0.4002562266107219   F   F   F
  0.8749999970264071  0.1250000004505694  0.4002562266107219   F   F   F
  0.8749999970264071  0.3750000007509442  0.4002562266107219   F   F   F
  0.8749999970264071  0.6250000016520829  0.4002562266107219   F   F   F
  0.8749999970264071  0.8750000019524578  0.4002562266107219   F   F   F
  0.4313896356448723  0.4315580576458540  0.6538442800635251   T   T   T
  0.3811043683614445  0.5076738699360783  0.6544386794961269   T   T   T
  0.4502320916475504  0.5763901064997122  0.6547616608724284   T   T   T
  0.5685579286080032  0.5684822658640338  0.6538288217500450   T   T   T
  0.6188538945210935  0.4923657929058490  0.6544149104797193   T   T   T
  0.5497165931675437  0.4236419249924084  0.6547614952570240   T   T   T
  0.3780904994808917  0.3780606427181714  0.6547020192110030   T   T   T
  0.6218959397012045  0.6219595036514447  0.6546768513204340   T   T   T
  0.2355227218447455  0.5151060882735641  0.6541330277109069   T   T   T
  0.3917510319905018  0.6713004529861779  0.6560935635793242   T   T   T
  0.7644391916020489  0.4849292233700532  0.6540358825169640   T   T   T
  0.6081887625751180  0.3287149646148347  0.6561080735918935   T   T   T
 
  0.00000000E+00  0.00000000E+00  0.00000000E+00
  0.00000000E+00  0.00000000E+00  0.00000000E+00
  0.00000000E+00  0.00000000E+00  0.00000000E+00
  0.00000000E+00  0.00000000E+00  0.00000000E+00
  0.00000000E+00  0.00000000E+00  0.00000000E+00
  0.00000000E+00  0.00000000E+00  0.00000000E+00
  0.00000000E+00  0.00000000E+00  0.00000000E+00
  0.00000000E+00  0.00000000E+00  0.00000000E+00
  0.00000000E+00  0.00000000E+00  0.00000000E+00
  0.00000000E+00  0.00000000E+00  0.00000000E+00
  0.00000000E+00  0.00000000E+00  0.00000000E+00
  0.00000000E+00  0.00000000E+00  0.00000000E+00
  0.00000000E+00  0.00000000E+00  0.00000000E+00
  0.00000000E+00  0.00000000E+00  0.00000000E+00
  0.00000000E+00  0.00000000E+00  0.00000000E+00
  0.00000000E+00  0.00000000E+00  0.00000000E+00
  0.00000000E+00  0.00000000E+00  0.00000000E+00
  0.00000000E+00  0.00000000E+00  0.00000000E+00
  0.00000000E+00  0.00000000E+00  0.00000000E+00
  0.00000000E+00  0.00000000E+00  0.00000000E+00
  0.00000000E+00  0.00000000E+00  0.00000000E+00
  0.00000000E+00  0.00000000E+00  0.00000000E+00
  0.00000000E+00  0.00000000E+00  0.00000000E+00
  0.00000000E+00  0.00000000E+00  0.00000000E+00
  0.00000000E+00  0.00000000E+00  0.00000000E+00
  0.00000000E+00  0.00000000E+00  0.00000000E+00
  0.00000000E+00  0.00000000E+00  0.00000000E+00
  0.00000000E+00  0.00000000E+00  0.00000000E+00
  0.00000000E+00  0.00000000E+00  0.00000000E+00
  0.00000000E+00  0.00000000E+00  0.00000000E+00
  0.00000000E+00  0.00000000E+00  0.00000000E+00
  0.00000000E+00  0.00000000E+00  0.00000000E+00
  0.00000000E+00  0.00000000E+00  0.00000000E+00
  0.00000000E+00  0.00000000E+00  0.00000000E+00
  0.00000000E+00  0.00000000E+00  0.00000000E+00
  0.00000000E+00  0.00000000E+00  0.00000000E+00
  0.00000000E+00  0.00000000E+00  0.00000000E+00
  0.00000000E+00  0.00000000E+00  0.00000000E+00
  0.00000000E+00  0.00000000E+00  0.00000000E+00
  0.00000000E+00  0.00000000E+00  0.00000000E+00
  0.00000000E+00  0.00000000E+00  0.00000000E+00
  0.00000000E+00  0.00000000E+00  0.00000000E+00
  0.00000000E+00  0.00000000E+00  0.00000000E+00
  0.00000000E+00  0.00000000E+00  0.00000000E+00
  0.00000000E+00  0.00000000E+00  0.00000000E+00
  0.00000000E+00  0.00000000E+00  0.00000000E+00
  0.00000000E+00  0.00000000E+00  0.00000000E+00
  0.00000000E+00  0.00000000E+00  0.00000000E+00
  0.00000000E+00  0.00000000E+00  0.00000000E+00
  0.00000000E+00  0.00000000E+00  0.00000000E+00
  0.00000000E+00  0.00000000E+00  0.00000000E+00
  0.00000000E+00  0.00000000E+00  0.00000000E+00
  0.00000000E+00  0.00000000E+00  0.00000000E+00
  0.00000000E+00  0.00000000E+00  0.00000000E+00
  0.00000000E+00  0.00000000E+00  0.00000000E+00
  0.00000000E+00  0.00000000E+00  0.00000000E+00
  0.00000000E+00  0.00000000E+00  0.00000000E+00
  0.00000000E+00  0.00000000E+00  0.00000000E+00
  0.00000000E+00  0.00000000E+00  0.00000000E+00
  0.00000000E+00  0.00000000E+00  0.00000000E+00
  0.00000000E+00  0.00000000E+00  0.00000000E+00
  0.00000000E+00  0.00000000E+00  0.00000000E+00
  0.00000000E+00  0.00000000E+00  0.00000000E+00
  0.00000000E+00  0.00000000E+00  0.00000000E+00
  0.00000000E+00  0.00000000E+00  0.00000000E+00
  0.00000000E+00  0.00000000E+00  0.00000000E+00
  0.00000000E+00  0.00000000E+00  0.00000000E+00
  0.00000000E+00  0.00000000E+00  0.00000000E+00
  0.00000000E+00  0.00000000E+00  0.00000000E+00
  0.00000000E+00  0.00000000E+00  0.00000000E+00
  0.00000000E+00  0.00000000E+00  0.00000000E+00
  0.00000000E+00  0.00000000E+00  0.00000000E+00
  0.00000000E+00  0.00000000E+00  0.00000000E+00
  0.00000000E+00  0.00000000E+00  0.00000000E+00
  0.00000000E+00  0.00000000E+00  0.00000000E+00
  0.00000000E+00  0.00000000E+00  0.00000000E+00
