Cu48 C6 H2 Br4                          
    1.000000000000000     
    10.2424774999999997    0.0000000000000000    0.0000000000000000
     0.0000000000000000   14.4850505999999992    0.0000000000000000
     0.0000000000000000    0.0000000000000000   15.4701562599999995
   Cu   C    H    Br
    48     6     2     4
Selective dynamics
Direct
  0.2499455095095655  0.2504574552901246  0.4030926459693731   T   T   T
  0.2501825430501228  0.5000702056545236  0.4020736656978272   T   T   T
  0.2498647039105890  0.7497391623353948  0.4024720292735822   T   T   T
  0.2500112546701985  0.0000068554649602  0.4028549263803782   T   T   T
  0.4998337166335958  0.2501566169117808  0.4023679353766880   T   T   T
  0.4999360455143815  0.4998754819348150  0.4022570004626900   T   T   T
  0.5000979761480977  0.7499358693000886  0.4023673293743713   T   T   T
  0.4999880989487266  0.0000222495234823  0.4029107374123626   T   T   T
  0.7501709615780570  0.2503094834201178  0.4024646162331464   T   T   T
  0.7499182515253651  0.4997686879653003  0.4020735285047223   T   T   T
  0.7501362238247182  0.7496229658572062  0.4030998763045375   T   T   T
  0.7499989950170587  0.0000222548334676  0.4028514333486868   T   T   T
  0.0000749478315285  0.2505382861497409  0.4029914816375282   T   T   T
  0.9999653762103975  0.4999614581470126  0.4022092914702711   T   T   T
  0.9998820720142447  0.7494959320149590  0.4030070402665871   T   T   T
  0.0000034192453526  0.0000077636828379  0.4027612307556936   T   T   T
  0.1250320946148733  0.1252953869974718  0.4821145511758758   T   T   T
  0.1252202928596802  0.3758977719539445  0.4827369454320873   T   T   T
  0.1250156036915229  0.6242983234051707  0.4828993684371312   T   T   T
  0.1250643463467540  0.8746369812240573  0.4821074906466691   T   T   T
  0.3750249707469919  0.1254361856560493  0.4821737642326838   T   T   T
  0.3752209242646458  0.3758420043481365  0.4824646664801335   T   T   T
  0.3751084044760447  0.6248867491912762  0.4818422964342020   T   T   T
  0.3750495532074538  0.8744812965220987  0.4821407115009464   T   T   T
  0.6249472872891744  0.1254935934642347  0.4821712675676864   T   T   T
  0.6248550473023826  0.3751390120192113  0.4817810453552340   T   T   T
  0.6248103782270604  0.6241918274171212  0.4825845394320822   T   T   T
  0.6249737592358500  0.8745440762940646  0.4821812097285090   T   T   T
  0.8749412601373621  0.1253516271682074  0.4821273361466041   T   T   T
  0.8749582881763232  0.3757340785256673  0.4828542348017137   T   T   T
  0.8748228190303564  0.6241164830774082  0.4827695797804523   T   T   T
  0.8749715760135857  0.8746771094707810  0.4820954969584790   T   T   T
  0.1250000002440785  0.1249999996548183  0.3232029409378470   F   F   F
  0.1250000002440785  0.3749999989644479  0.3232029409378470   F   F   F
  0.1250000002440785  0.6249999982740846  0.3232029409378470   F   F   F
  0.1250000002440785  0.8749999975837142  0.3232029409378470   F   F   F
  0.3749999997559215  0.1249999996548183  0.3232029409378470   F   F   F
  0.3749999997559215  0.3749999989644479  0.3232029409378470   F   F   F
  0.3749999997559215  0.6249999982740846  0.3232029409378470   F   F   F
  0.3749999997559215  0.8749999975837142  0.3232029409378470   F   F   F
  0.6249999982914289  0.1249999996548183  0.3232029409378470   F   F   F
  0.6249999992677573  0.3749999989644479  0.3232029409378470   F   F   F
  0.6249999992677573  0.6249999982740846  0.3232029409378470   F   F   F
  0.6249999992677573  0.8749999975837142  0.3232029409378470   F   F   F
  0.8749999987795931  0.1249999996548183  0.3232029409378470   F   F   F
  0.8749999978032648  0.3749999989644479  0.3232029409378470   F   F   F
  0.8749999987795931  0.6249999982740846  0.3232029409378470   F   F   F
  0.8749999987795931  0.8749999975837142  0.3232029409378470   F   F   F
  0.5794697940280216  0.5783810805562908  0.6696262220879419   T   T   T
  0.6359991054119831  0.4905365348168687  0.6705746624392148   T   T   T
  0.5564651314836624  0.4118289418239911  0.6712886742390864   T   T   T
  0.4205265914997796  0.4216039942704910  0.6695600721471990   T   T   T
  0.3639939967051404  0.5094462216956330  0.6705171194454138   T   T   T
  0.4435263754477461  0.5881513671073435  0.6712412954033766   T   T   T
  0.6412969075751249  0.6396367459911829  0.6699662901402590   T   T   T
  0.3586936748910290  0.3603485641321242  0.6698954221612397   T   T   T
  0.8201200284462544  0.4821341763661025  0.6676277570499565   T   T   T
  0.6266818495086639  0.2910176349077105  0.6742785172707215   T   T   T
  0.1798744097326193  0.5178449201085797  0.6674415283119615   T   T   T
  0.3733032989896756  0.7089685933638634  0.6742034421133596   T   T   T
 
  0.00000000E+00  0.00000000E+00  0.00000000E+00
  0.00000000E+00  0.00000000E+00  0.00000000E+00
  0.00000000E+00  0.00000000E+00  0.00000000E+00
  0.00000000E+00  0.00000000E+00  0.00000000E+00
  0.00000000E+00  0.00000000E+00  0.00000000E+00
  0.00000000E+00  0.00000000E+00  0.00000000E+00
  0.00000000E+00  0.00000000E+00  0.00000000E+00
  0.00000000E+00  0.00000000E+00  0.00000000E+00
  0.00000000E+00  0.00000000E+00  0.00000000E+00
  0.00000000E+00  0.00000000E+00  0.00000000E+00
  0.00000000E+00  0.00000000E+00  0.00000000E+00
  0.00000000E+00  0.00000000E+00  0.00000000E+00
  0.00000000E+00  0.00000000E+00  0.00000000E+00
  0.00000000E+00  0.00000000E+00  0.00000000E+00
  0.00000000E+00  0.00000000E+00  0.00000000E+00
  0.00000000E+00  0.00000000E+00  0.00000000E+00
  0.00000000E+00  0.00000000E+00  0.00000000E+00
  0.00000000E+00  0.00000000E+00  0.00000000E+00
  0.00000000E+00  0.00000000E+00  0.00000000E+00
  0.00000000E+00  0.00000000E+00  0.00000000E+00
  0.00000000E+00  0.00000000E+00  0.00000000E+00
  0.00000000E+00  0.00000000E+00  0.00000000E+00
  0.00000000E+00  0.00000000E+00  0.00000000E+00
  0.00000000E+00  0.00000000E+00  0.00000000E+00
  0.00000000E+00  0.00000000E+00  0.00000000E+00
  0.00000000E+00  0.00000000E+00  0.00000000E+00
  0.00000000E+00  0.00000000E+00  0.00000000E+00
  0.00000000E+00  0.00000000E+00  0.00000000E+00
  0.00000000E+00  0.00000000E+00  0.00000000E+00
  0.00000000E+00  0.00000000E+00  0.00000000E+00
  0.00000000E+00  0.00000000E+00  0.00000000E+00
  0.00000000E+00  0.00000000E+00  0.00000000E+00
  0.00000000E+00  0.00000000E+00  0.00000000E+00
  0.00000000E+00  0.00000000E+00  0.00000000E+00
  0.00000000E+00  0.00000000E+00  0.00000000E+00
  0.00000000E+00  0.00000000E+00  0.00000000E+00
  0.00000000E+00  0.00000000E+00  0.00000000E+00
  0.00000000E+00  0.00000000E+00  0.00000000E+00
  0.00000000E+00  0.00000000E+00  0.00000000E+00
  0.00000000E+00  0.00000000E+00  0.00000000E+00
  0.00000000E+00  0.00000000E+00  0.00000000E+00
  0.00000000E+00  0.00000000E+00  0.00000000E+00
  0.00000000E+00  0.00000000E+00  0.00000000E+00
  0.00000000E+00  0.00000000E+00  0.00000000E+00
  0.00000000E+00  0.00000000E+00  0.00000000E+00
  0.00000000E+00  0.00000000E+00  0.00000000E+00
  0.00000000E+00  0.00000000E+00  0.00000000E+00
  0.00000000E+00  0.00000000E+00  0.00000000E+00
  0.00000000E+00  0.00000000E+00  0.00000000E+00
  0.00000000E+00  0.00000000E+00  0.00000000E+00
  0.00000000E+00  0.00000000E+00  0.00000000E+00
  0.00000000E+00  0.00000000E+00  0.00000000E+00
  0.00000000E+00  0.00000000E+00  0.00000000E+00
  0.00000000E+00  0.00000000E+00  0.00000000E+00
  0.00000000E+00  0.00000000E+00  0.00000000E+00
  0.00000000E+00  0.00000000E+00  0.00000000E+00
  0.00000000E+00  0.00000000E+00  0.00000000E+00
  0.00000000E+00  0.00000000E+00  0.00000000E+00
  0.00000000E+00  0.00000000E+00  0.00000000E+00
  0.00000000E+00  0.00000000E+00  0.00000000E+00
