Ag  C  F                                
    1.000000000000000     
    11.7702790000000004    0.0000000000000000    0.0000000000000000
     0.0000000000000000   11.7702790000000004    0.0000000000000000
     0.0000000000000000    0.0000000000000000   24.2421330600000005
   Ag   C    F 
    64     6     6
Selective dynamics
Direct
  0.0000000000000000  0.2499999991504041  0.3093787160328390   F   F   F
  0.7499999974512050  0.7499999974512050  0.3093787160328390   F   F   F
  0.0000000000000000  0.4999999983008081  0.3093787160328390   F   F   F
  0.0000000000000000  0.7499999974512050  0.3093787160328390   F   F   F
  0.0000000000000000  0.0000000000000000  0.3093787160328390   F   F   F
  0.2499999991504041  0.2499999991504041  0.3093787160328390   F   F   F
  0.2499999991504041  0.4999999983008081  0.3093787160328390   F   F   F
  0.7499999974512050  0.0000000000000000  0.3093787160328390   F   F   F
  0.2499999991504041  0.7499999974512050  0.3093787160328390   F   F   F
  0.2499999991504041  0.0000000000000000  0.3093787160328390   F   F   F
  0.4999999983008081  0.2499999991504041  0.3093787160328390   F   F   F
  0.4999999983008081  0.4999999983008081  0.3093787160328390   F   F   F
  0.4999999983008081  0.7499999974512050  0.3093787160328390   F   F   F
  0.4999999983008081  0.0000000000000000  0.3093787160328390   F   F   F
  0.7499999974512050  0.2499999991504041  0.3093787160328390   F   F   F
  0.7499999974512050  0.4999999983008081  0.3093787160328390   F   F   F
  0.9999789013029314  0.2499995645599608  0.4739113739987593   T   T   T
 -0.0000000000000000  0.4999999983008081  0.4739167192182102   T   T   T
  0.0000210986970688  0.7500004320416481  0.4739113739987593   T   T   T
 -0.0000000000000000 -0.0000000000000000  0.4738618766869200   T   T   T
  0.2495544290943602  0.2495538182789012  0.4737109505781067   T   T   T
  0.2490904309277117  0.5000176986671520  0.4734897759756152   T   T   T
  0.2495744572844084  0.7504260938014431  0.4737309057891367   T   T   T
  0.2499999852317831  0.9999789242785144  0.4739114544708153   T   T   T
  0.5000176734267909  0.2490900739242327  0.4734889659183353   T   T   T
  0.4999999983008081  0.4999999983008081  0.4730319466972087   T   T   T
  0.4999823231748253  0.7509099226773764  0.4734889659183353   T   T   T
  0.4999999983008081 -0.0000000000000000  0.4739166987908803   T   T   T
  0.7504255393172008  0.2495739028001660  0.4737309057891367   T   T   T
  0.7509095656738974  0.4999822979344642  0.4734897759756152   T   T   T
  0.7504455675072488  0.7504461783227079  0.4737109505781067   T   T   T
  0.7500000113698261  0.0000210757214856  0.4739114544708153   T   T   T
  0.1248766955477782  0.1248766025930330  0.5521071169765164   T   T   T
  0.1251017496355472  0.3749952171378840  0.5520456565984392   T   T   T
  0.1251185635481885  0.6250015149083218  0.5520814676206560   T   T   T
  0.1249014512025869  0.8750986199467942  0.5521222854536557   T   T   T
  0.3749953599802944  0.1251017122990798  0.5520452746213205   T   T   T
  0.3752059963282450  0.3752058381718443  0.5505758793614176   T   T   T
  0.3751925250564365  0.6248074892624429  0.5506623674301007   T   T   T
  0.3749986204247035  0.8748814754789223  0.5520810860569488   T   T   T
  0.6250013761769055  0.1251185211226866  0.5520810860569488   T   T   T
  0.6248074715451728  0.3751925073391663  0.5506623674301007   T   T   T
  0.6247940002733641  0.6247941584297648  0.5505758793614176   T   T   T
  0.6250046366213150  0.8748982843025295  0.5520452746213205   T   T   T
  0.8750985453990221  0.1249013766548150  0.5521222854536557   T   T   T
  0.8748814330534208  0.3749984816932877  0.5520814676206560   T   T   T
  0.8748982469660620  0.6250047794637252  0.5520456565984392   T   T   T
  0.8751233010538310  0.8751233940085761  0.5521071169765164   T   T   T
  0.1249999995752020  0.1249999995752020  0.3952090765398992   F   F   F
  0.1249999995752020  0.3749999987256061  0.3952090765398992   F   F   F
  0.1249999995752020  0.6249999978760030  0.3952090765398992   F   F   F
  0.1249999995752020  0.8749999970264071  0.3952090765398992   F   F   F
  0.3749999987256061  0.1249999995752020  0.3952090765398992   F   F   F
  0.3749999987256061  0.3749999987256061  0.3952090765398992   F   F   F
  0.3749999987256061  0.6249999978760030  0.3952090765398992   F   F   F
  0.3749999987256061  0.8749999970264071  0.3952090765398992   F   F   F
  0.6249999978760030  0.1249999995752020  0.3952090765398992   F   F   F
  0.6249999978760030  0.3749999987256061  0.3952090765398992   F   F   F
  0.6249999978760030  0.6249999978760030  0.3952090765398992   F   F   F
  0.6249999978760030  0.8749999970264071  0.3952090765398992   F   F   F
  0.8749999970264071  0.1249999995752020  0.3952090765398992   F   F   F
  0.8749999970264071  0.3749999987256061  0.3952090765398992   F   F   F
  0.8749999970264071  0.6249999978760030  0.3952090765398992   F   F   F
  0.8749999970264071  0.8749999970264071  0.3952090765398992   F   F   F
  0.3854978666993548  0.5306372045765365  0.6761527800606986   T   T   T
  0.4694014663956452  0.6145079001820155  0.6761539796293925   T   T   T
  0.5839419641296737  0.5839154172785519  0.6764494248003544   T   T   T
  0.6145021027151341  0.4693627792811121  0.6761527800606986   T   T   T
  0.5305985565434882  0.3854921091635613  0.6761539796293925   T   T   T
  0.4160580324719426  0.4160845793230643  0.6764494248003544   T   T   T
  0.2749644075019788  0.5603230001772233  0.6765298085824868   T   T   T
  0.4396622665817025  0.7250265279994544  0.6765308038168028   T   T   T
  0.6648783428754405  0.6648934351621352  0.6773857333919446   T   T   T
  0.7250355890996303  0.4396769964243860  0.6765298085824868   T   T   T
  0.5603377962885185  0.2749734855941020  0.6765308038168028   T   T   T
  0.3351216800636929  0.3351065741834416  0.6773857333919446   T   T   T
 
  0.00000000E+00  0.00000000E+00  0.00000000E+00
  0.00000000E+00  0.00000000E+00  0.00000000E+00
  0.00000000E+00  0.00000000E+00  0.00000000E+00
  0.00000000E+00  0.00000000E+00  0.00000000E+00
  0.00000000E+00  0.00000000E+00  0.00000000E+00
  0.00000000E+00  0.00000000E+00  0.00000000E+00
  0.00000000E+00  0.00000000E+00  0.00000000E+00
  0.00000000E+00  0.00000000E+00  0.00000000E+00
  0.00000000E+00  0.00000000E+00  0.00000000E+00
  0.00000000E+00  0.00000000E+00  0.00000000E+00
  0.00000000E+00  0.00000000E+00  0.00000000E+00
  0.00000000E+00  0.00000000E+00  0.00000000E+00
  0.00000000E+00  0.00000000E+00  0.00000000E+00
  0.00000000E+00  0.00000000E+00  0.00000000E+00
  0.00000000E+00  0.00000000E+00  0.00000000E+00
  0.00000000E+00  0.00000000E+00  0.00000000E+00
  0.00000000E+00  0.00000000E+00  0.00000000E+00
  0.00000000E+00  0.00000000E+00  0.00000000E+00
  0.00000000E+00  0.00000000E+00  0.00000000E+00
  0.00000000E+00  0.00000000E+00  0.00000000E+00
  0.00000000E+00  0.00000000E+00  0.00000000E+00
  0.00000000E+00  0.00000000E+00  0.00000000E+00
  0.00000000E+00  0.00000000E+00  0.00000000E+00
  0.00000000E+00  0.00000000E+00  0.00000000E+00
  0.00000000E+00  0.00000000E+00  0.00000000E+00
  0.00000000E+00  0.00000000E+00  0.00000000E+00
  0.00000000E+00  0.00000000E+00  0.00000000E+00
  0.00000000E+00  0.00000000E+00  0.00000000E+00
  0.00000000E+00  0.00000000E+00  0.00000000E+00
  0.00000000E+00  0.00000000E+00  0.00000000E+00
  0.00000000E+00  0.00000000E+00  0.00000000E+00
  0.00000000E+00  0.00000000E+00  0.00000000E+00
  0.00000000E+00  0.00000000E+00  0.00000000E+00
  0.00000000E+00  0.00000000E+00  0.00000000E+00
  0.00000000E+00  0.00000000E+00  0.00000000E+00
  0.00000000E+00  0.00000000E+00  0.00000000E+00
  0.00000000E+00  0.00000000E+00  0.00000000E+00
  0.00000000E+00  0.00000000E+00  0.00000000E+00
  0.00000000E+00  0.00000000E+00  0.00000000E+00
  0.00000000E+00  0.00000000E+00  0.00000000E+00
  0.00000000E+00  0.00000000E+00  0.00000000E+00
  0.00000000E+00  0.00000000E+00  0.00000000E+00
  0.00000000E+00  0.00000000E+00  0.00000000E+00
  0.00000000E+00  0.00000000E+00  0.00000000E+00
  0.00000000E+00  0.00000000E+00  0.00000000E+00
  0.00000000E+00  0.00000000E+00  0.00000000E+00
  0.00000000E+00  0.00000000E+00  0.00000000E+00
  0.00000000E+00  0.00000000E+00  0.00000000E+00
  0.00000000E+00  0.00000000E+00  0.00000000E+00
  0.00000000E+00  0.00000000E+00  0.00000000E+00
  0.00000000E+00  0.00000000E+00  0.00000000E+00
  0.00000000E+00  0.00000000E+00  0.00000000E+00
  0.00000000E+00  0.00000000E+00  0.00000000E+00
  0.00000000E+00  0.00000000E+00  0.00000000E+00
  0.00000000E+00  0.00000000E+00  0.00000000E+00
  0.00000000E+00  0.00000000E+00  0.00000000E+00
  0.00000000E+00  0.00000000E+00  0.00000000E+00
  0.00000000E+00  0.00000000E+00  0.00000000E+00
  0.00000000E+00  0.00000000E+00  0.00000000E+00
  0.00000000E+00  0.00000000E+00  0.00000000E+00
  0.00000000E+00  0.00000000E+00  0.00000000E+00
  0.00000000E+00  0.00000000E+00  0.00000000E+00
  0.00000000E+00  0.00000000E+00  0.00000000E+00
  0.00000000E+00  0.00000000E+00  0.00000000E+00
  0.00000000E+00  0.00000000E+00  0.00000000E+00
  0.00000000E+00  0.00000000E+00  0.00000000E+00
  0.00000000E+00  0.00000000E+00  0.00000000E+00
  0.00000000E+00  0.00000000E+00  0.00000000E+00
  0.00000000E+00  0.00000000E+00  0.00000000E+00
  0.00000000E+00  0.00000000E+00  0.00000000E+00
  0.00000000E+00  0.00000000E+00  0.00000000E+00
  0.00000000E+00  0.00000000E+00  0.00000000E+00
  0.00000000E+00  0.00000000E+00  0.00000000E+00
  0.00000000E+00  0.00000000E+00  0.00000000E+00
  0.00000000E+00  0.00000000E+00  0.00000000E+00
  0.00000000E+00  0.00000000E+00  0.00000000E+00
