Ag48 C6 H2 Cl4                          
    1.000000000000000     
    11.7702790000000004    0.0000000000000000    0.0000000000000000
     0.0000000000000000   11.7702790000000004    0.0000000000000000
     0.0000000000000000    0.0000000000000000   16.8011198399999984
   Ag   C    H    Cl
    48     6     2     4
Selective dynamics
Direct
  0.0000848773316520  0.2497641669781956  0.4103936467235343   T   T   T
  0.9999990732859274  0.4999990680099984  0.4104107919064717   T   T   T
  0.9999137291350166  0.7502372092677163  0.4103930022925510   T   T   T
  0.0000001363091400  0.9999998263853058  0.4104260221341249   T   T   T
  0.2498755184255828  0.2498752607841652  0.4104727634719225   T   T   T
  0.2492929191729374  0.4995779116385037  0.4100110695331907   T   T   T
  0.2494733358647920  0.7505275623142253  0.4100403557758838   T   T   T
  0.2497638309953913  0.0000853979457389  0.4103930426665130   T   T   T
  0.4995801051073130  0.2492934290210584  0.4100126451882531   T   T   T
  0.5000011866590555  0.4999981522816341  0.4097320681572683   T   T   T
  0.5004220776787278  0.7507085096594253  0.4100112171490551   T   T   T
  0.5000002444662996  0.0000004595849745  0.4104115247954923   T   T   T
  0.7505250400818113  0.2494751049713457  0.4100435167554934   T   T   T
  0.7507065544334850  0.5004197523620419  0.4100133159589490   T   T   T
  0.7501250515108637  0.7501249158673318  0.4104740233219601   T   T   T
  0.7502356411464106  0.9999148163704348  0.4103946395299403   T   T   T
  0.1249821731452414  0.1249837210343969  0.5234779133983807   T   T   T
  0.1248878288596558  0.3747564439839337  0.5233432064654124   T   T   T
  0.1245524278140948  0.6251111810284158  0.5230089056175373   T   T   T
  0.1248464439902648  0.8751532758237630  0.5233161388741223   T   T   T
  0.3747578409326024  0.1248896727943389  0.5233440246851515   T   T   T
  0.3748464487406835  0.3748431917078960  0.5227787779997826   T   T   T
  0.3748818999977956  0.6251200421317478  0.5204877476279464   T   T   T
  0.3748890999596028  0.8754454248490759  0.5230113401034018   T   T   T
  0.6251110637575366  0.1245579891144857  0.5230141607553591   T   T   T
  0.6251199502151152  0.3748797847255432  0.5204950466671505   T   T   T
  0.6251566050307247  0.6251533152082942  0.5227805674666612   T   T   T
  0.6252434886907139  0.8751121753050199  0.5233441859182761   T   T   T
  0.8751520774568959  0.1248482561319406  0.5233159905574993   T   T   T
  0.8754432965394656  0.3748891066906239  0.5230134383151608   T   T   T
  0.8751110419016257  0.6252418165641629  0.5233438459609374   T   T   T
  0.8750171611962259  0.8750175992819820  0.5234777142336284   T   T   T
  0.1249999995752020  0.1249999995752020  0.2975992105059575   F   F   F
  0.1249999995752020  0.3749999987256061  0.2975992105059575   F   F   F
  0.1249999995752020  0.6249999978760030  0.2975992105059575   F   F   F
  0.1249999995752020  0.8749999970264071  0.2975992105059575   F   F   F
  0.3749999987256061  0.1249999995752020  0.2975992105059575   F   F   F
  0.3749999987256061  0.3749999987256061  0.2975992105059575   F   F   F
  0.3749999987256061  0.6249999978760030  0.2975992105059575   F   F   F
  0.3749999987256061  0.8749999970264071  0.2975992105059575   F   F   F
  0.6249999978760030  0.1249999995752020  0.2975992105059575   F   F   F
  0.6249999978760030  0.3749999987256061  0.2975992105059575   F   F   F
  0.6249999978760030  0.6249999978760030  0.2975992105059575   F   F   F
  0.6249999978760030  0.8749999970264071  0.2975992105059575   F   F   F
  0.8749999970264071  0.1249999995752020  0.2975992105059575   F   F   F
  0.8749999970264071  0.3749999987256061  0.2975992105059575   F   F   F
  0.8749999970264071  0.6249999978760030  0.2975992105059575   F   F   F
  0.8749999970264071  0.8749999970264071  0.2975992105059575   F   F   F
  0.5838374614702673  0.5838300662279678  0.7014833014860571   T   T   T
  0.6152598759534982  0.4692207261338979  0.7025161438024625   T   T   T
  0.5307751431772729  0.3847346448703277  0.7025119645848577   T   T   T
  0.4161649084910479  0.4161672580876044  0.7014677923945456   T   T   T
  0.3847429460937093  0.5307766083310099  0.7024888000527554   T   T   T
  0.4692281041218322  0.6152621470151445  0.7025005197332064   T   T   T
  0.6493222797511891  0.6493097171846429  0.7023960912836245   T   T   T
  0.3506812165382911  0.3506918192424209  0.7023683041623414   T   T   T
  0.7571495407763820  0.4349356586370732  0.7041210835891363   T   T   T
  0.5650473679725607  0.2428521126070677  0.7041225234614856   T   T   T
  0.2428526846049621  0.5650627325196567  0.7040601776032602   T   T   T
  0.4349542156720361  0.7571486231562261  0.7040971613989839   T   T   T
 
  0.00000000E+00  0.00000000E+00  0.00000000E+00
  0.00000000E+00  0.00000000E+00  0.00000000E+00
  0.00000000E+00  0.00000000E+00  0.00000000E+00
  0.00000000E+00  0.00000000E+00  0.00000000E+00
  0.00000000E+00  0.00000000E+00  0.00000000E+00
  0.00000000E+00  0.00000000E+00  0.00000000E+00
  0.00000000E+00  0.00000000E+00  0.00000000E+00
  0.00000000E+00  0.00000000E+00  0.00000000E+00
  0.00000000E+00  0.00000000E+00  0.00000000E+00
  0.00000000E+00  0.00000000E+00  0.00000000E+00
  0.00000000E+00  0.00000000E+00  0.00000000E+00
  0.00000000E+00  0.00000000E+00  0.00000000E+00
  0.00000000E+00  0.00000000E+00  0.00000000E+00
  0.00000000E+00  0.00000000E+00  0.00000000E+00
  0.00000000E+00  0.00000000E+00  0.00000000E+00
  0.00000000E+00  0.00000000E+00  0.00000000E+00
  0.00000000E+00  0.00000000E+00  0.00000000E+00
  0.00000000E+00  0.00000000E+00  0.00000000E+00
  0.00000000E+00  0.00000000E+00  0.00000000E+00
  0.00000000E+00  0.00000000E+00  0.00000000E+00
  0.00000000E+00  0.00000000E+00  0.00000000E+00
  0.00000000E+00  0.00000000E+00  0.00000000E+00
  0.00000000E+00  0.00000000E+00  0.00000000E+00
  0.00000000E+00  0.00000000E+00  0.00000000E+00
  0.00000000E+00  0.00000000E+00  0.00000000E+00
  0.00000000E+00  0.00000000E+00  0.00000000E+00
  0.00000000E+00  0.00000000E+00  0.00000000E+00
  0.00000000E+00  0.00000000E+00  0.00000000E+00
  0.00000000E+00  0.00000000E+00  0.00000000E+00
  0.00000000E+00  0.00000000E+00  0.00000000E+00
  0.00000000E+00  0.00000000E+00  0.00000000E+00
  0.00000000E+00  0.00000000E+00  0.00000000E+00
  0.00000000E+00  0.00000000E+00  0.00000000E+00
  0.00000000E+00  0.00000000E+00  0.00000000E+00
  0.00000000E+00  0.00000000E+00  0.00000000E+00
  0.00000000E+00  0.00000000E+00  0.00000000E+00
  0.00000000E+00  0.00000000E+00  0.00000000E+00
  0.00000000E+00  0.00000000E+00  0.00000000E+00
  0.00000000E+00  0.00000000E+00  0.00000000E+00
  0.00000000E+00  0.00000000E+00  0.00000000E+00
  0.00000000E+00  0.00000000E+00  0.00000000E+00
  0.00000000E+00  0.00000000E+00  0.00000000E+00
  0.00000000E+00  0.00000000E+00  0.00000000E+00
  0.00000000E+00  0.00000000E+00  0.00000000E+00
  0.00000000E+00  0.00000000E+00  0.00000000E+00
  0.00000000E+00  0.00000000E+00  0.00000000E+00
  0.00000000E+00  0.00000000E+00  0.00000000E+00
  0.00000000E+00  0.00000000E+00  0.00000000E+00
  0.00000000E+00  0.00000000E+00  0.00000000E+00
  0.00000000E+00  0.00000000E+00  0.00000000E+00
  0.00000000E+00  0.00000000E+00  0.00000000E+00
  0.00000000E+00  0.00000000E+00  0.00000000E+00
  0.00000000E+00  0.00000000E+00  0.00000000E+00
  0.00000000E+00  0.00000000E+00  0.00000000E+00
  0.00000000E+00  0.00000000E+00  0.00000000E+00
  0.00000000E+00  0.00000000E+00  0.00000000E+00
  0.00000000E+00  0.00000000E+00  0.00000000E+00
  0.00000000E+00  0.00000000E+00  0.00000000E+00
  0.00000000E+00  0.00000000E+00  0.00000000E+00
  0.00000000E+00  0.00000000E+00  0.00000000E+00
