Cu48 H2 C6 F4                           
    1.000000000000000     
    10.2424769999999992    0.0000000000000000    0.0000000000000000
    -5.1212390000000001    8.8702459999999999    0.0000000000000000
     0.0000000000000000    0.0000000000000000   17.4057800000000000
   Cu   H    C    F 
    48     2     6     4
Selective dynamics
Direct
  0.0833330000000032  0.1666669999999968  0.3447129999999987   F   F   F
  0.0833330000000032  0.4166669999999968  0.3447129999999987   F   F   F
  0.0833330000000032  0.6666669999999968  0.3447129999999987   F   F   F
  0.0833330000000032  0.9166669999999968  0.3447129999999987   F   F   F
  0.3333330000000032  0.1666669999999968  0.3447129999999987   F   F   F
  0.3333330000000032  0.4166669999999968  0.3447129999999987   F   F   F
  0.3333330000000032  0.6666669999999968  0.3447129999999987   F   F   F
  0.3333330000000032  0.9166669999999968  0.3447129999999987   F   F   F
  0.5833330000000032  0.1666669999999968  0.3447129999999987   F   F   F
  0.5833330000000032  0.4166669999999968  0.3447129999999987   F   F   F
  0.5833330000000032  0.6666669999999968  0.3447129999999987   F   F   F
  0.5833330000000032  0.9166669999999968  0.3447129999999987   F   F   F
  0.8333330000000032  0.1666669999999968  0.3447129999999987   F   F   F
  0.8333330000000032  0.4166669999999968  0.3447129999999987   F   F   F
  0.8333330000000032  0.6666669999999968  0.3447129999999987   F   F   F
  0.8333330000000032  0.9166669999999968  0.3447129999999987   F   F   F
  0.9997892393130456  0.9997985337502229  0.5812286541464431   T   T   T
  0.9996054431629986  0.2498988363998720  0.5811554808532691   T   T   T
  0.0002424556982916  0.4999267673224495  0.5813960422272828   T   T   T
  0.0001521692532052  0.7499010370013224  0.5812552941943778   T   T   T
  0.2499122218235641  0.9997016678958701  0.5812904523531159   T   T   T
  0.2494721055400788  0.2494311345317328  0.5805603932154639   T   T   T
  0.2500358164951280  0.4997753908884732  0.5810110840316796   T   T   T
  0.2500916980128451  0.7497602666019176  0.5813665983318259   T   T   T
  0.4999310855620323  0.0002028616033840  0.5814233830842923   T   T   T
  0.4998007927232280  0.2500060513230196  0.5815345542083037   T   T   T
  0.5002017759988462  0.5001272132636885  0.5804279037017608   T   T   T
  0.5000475049532795  0.7503578932111594  0.5810359648664800   T   T   T
  0.7498766271848467  0.0001479787129171  0.5812189402747236   T   T   T
  0.7497692812535917  0.2500585742059940  0.5814455885923664   T   T   T
  0.7502601509597895  0.5000584366498799  0.5812306982081950   T   T   T
  0.7501279360454589  0.7501325609734977  0.5811133900132077   T   T   T
  0.1664896879145061  0.0829455468275526  0.4629447429655400   T   T   T
  0.1665550356671162  0.3332954273833337  0.4629019590595647   T   T   T
  0.1666512082016069  0.5833485463539532  0.4630416991505228   T   T   T
  0.1667220155212803  0.8332240761733232  0.4630186039814461   T   T   T
  0.4166269157563320  0.0833923784158657  0.4631415289585235   T   T   T
  0.4166894475592429  0.3331541046646080  0.4629168830904931   T   T   T
  0.4166456302444246  0.5834043079918843  0.4628808569701945   T   T   T
  0.4166890955231466  0.8335119105896425  0.4630434965376153   T   T   T
  0.6666404836867059  0.0833863920979141  0.4630811762717499   T   T   T
  0.6665627192975450  0.3333444820357983  0.4631370667209680   T   T   T
  0.6669706095413588  0.5834620686605234  0.4629106186252301   T   T   T
  0.6667103944901527  0.8333923358765034  0.4630081161183810   T   T   T
  0.9166367848578219  0.0832977718433554  0.4630346233190963   T   T   T
  0.9164998318647903  0.3333159821089708  0.4630540465052064   T   T   T
  0.9167936272323587  0.5833046760312683  0.4630079333234889   T   T   T
  0.9167402600943362  0.8332814118407157  0.4629897816171749   T   T   T
  0.2342340260039748  0.5157527033240754  0.7537639332310775   T   T   T
  0.5158228793891553  0.2341027984168136  0.7668325303693351   T   T   T
  0.2957194979759024  0.4544027617334265  0.7577415099956468   T   T   T
  0.4527359079732349  0.5312194777072889  0.7578183993427317   T   T   T
  0.5313949598307701  0.4526126778427368  0.7617206000352965   T   T   T
  0.4543614086725967  0.2957494820121624  0.7653417189651961   T   T   T
  0.2973216251571671  0.2189784471753313  0.7665850383563395   T   T   T
  0.2186570210472780  0.2976377905882259  0.7626449158047564   T   T   T
  0.5301980053270228  0.6837356496295541  0.7535140836430685   T   T   T
  0.6841164846856103  0.5298366250203657  0.7619105045663801   T   T   T
  0.2198187850768463  0.0666696593514970  0.7718688896551669   T   T   T
  0.0660180547211766  0.2203086300064072  0.7632575926760836   T   T   T
 
  0.00000000E+00  0.00000000E+00  0.00000000E+00
  0.00000000E+00  0.00000000E+00  0.00000000E+00
  0.00000000E+00  0.00000000E+00  0.00000000E+00
  0.00000000E+00  0.00000000E+00  0.00000000E+00
  0.00000000E+00  0.00000000E+00  0.00000000E+00
  0.00000000E+00  0.00000000E+00  0.00000000E+00
  0.00000000E+00  0.00000000E+00  0.00000000E+00
  0.00000000E+00  0.00000000E+00  0.00000000E+00
  0.00000000E+00  0.00000000E+00  0.00000000E+00
  0.00000000E+00  0.00000000E+00  0.00000000E+00
  0.00000000E+00  0.00000000E+00  0.00000000E+00
  0.00000000E+00  0.00000000E+00  0.00000000E+00
  0.00000000E+00  0.00000000E+00  0.00000000E+00
  0.00000000E+00  0.00000000E+00  0.00000000E+00
  0.00000000E+00  0.00000000E+00  0.00000000E+00
  0.00000000E+00  0.00000000E+00  0.00000000E+00
  0.00000000E+00  0.00000000E+00  0.00000000E+00
  0.00000000E+00  0.00000000E+00  0.00000000E+00
  0.00000000E+00  0.00000000E+00  0.00000000E+00
  0.00000000E+00  0.00000000E+00  0.00000000E+00
  0.00000000E+00  0.00000000E+00  0.00000000E+00
  0.00000000E+00  0.00000000E+00  0.00000000E+00
  0.00000000E+00  0.00000000E+00  0.00000000E+00
  0.00000000E+00  0.00000000E+00  0.00000000E+00
  0.00000000E+00  0.00000000E+00  0.00000000E+00
  0.00000000E+00  0.00000000E+00  0.00000000E+00
  0.00000000E+00  0.00000000E+00  0.00000000E+00
  0.00000000E+00  0.00000000E+00  0.00000000E+00
  0.00000000E+00  0.00000000E+00  0.00000000E+00
  0.00000000E+00  0.00000000E+00  0.00000000E+00
  0.00000000E+00  0.00000000E+00  0.00000000E+00
  0.00000000E+00  0.00000000E+00  0.00000000E+00
  0.00000000E+00  0.00000000E+00  0.00000000E+00
  0.00000000E+00  0.00000000E+00  0.00000000E+00
  0.00000000E+00  0.00000000E+00  0.00000000E+00
  0.00000000E+00  0.00000000E+00  0.00000000E+00
  0.00000000E+00  0.00000000E+00  0.00000000E+00
  0.00000000E+00  0.00000000E+00  0.00000000E+00
  0.00000000E+00  0.00000000E+00  0.00000000E+00
  0.00000000E+00  0.00000000E+00  0.00000000E+00
  0.00000000E+00  0.00000000E+00  0.00000000E+00
  0.00000000E+00  0.00000000E+00  0.00000000E+00
  0.00000000E+00  0.00000000E+00  0.00000000E+00
  0.00000000E+00  0.00000000E+00  0.00000000E+00
  0.00000000E+00  0.00000000E+00  0.00000000E+00
  0.00000000E+00  0.00000000E+00  0.00000000E+00
  0.00000000E+00  0.00000000E+00  0.00000000E+00
  0.00000000E+00  0.00000000E+00  0.00000000E+00
  0.00000000E+00  0.00000000E+00  0.00000000E+00
  0.00000000E+00  0.00000000E+00  0.00000000E+00
  0.00000000E+00  0.00000000E+00  0.00000000E+00
  0.00000000E+00  0.00000000E+00  0.00000000E+00
  0.00000000E+00  0.00000000E+00  0.00000000E+00
  0.00000000E+00  0.00000000E+00  0.00000000E+00
  0.00000000E+00  0.00000000E+00  0.00000000E+00
  0.00000000E+00  0.00000000E+00  0.00000000E+00
  0.00000000E+00  0.00000000E+00  0.00000000E+00
  0.00000000E+00  0.00000000E+00  0.00000000E+00
  0.00000000E+00  0.00000000E+00  0.00000000E+00
  0.00000000E+00  0.00000000E+00  0.00000000E+00
