Ir48 C6 F2 H4                           
    1.000000000000000     
    10.9622135000000007    0.0000000000000000    0.0000000000000000
     0.0000000000000000   10.9622135000000007    0.0000000000000000
     0.0000000000000000    0.0000000000000000   16.7337253900000000
   Ir   C    F    H 
    48     6     2     4
Selective dynamics
Direct
  0.9993616709329558  0.2493589515153545  0.4094766341187466   T   T   T
  0.0000005993999395  0.5000004734810943  0.4093600989173325   T   T   T
  0.0006388931022201  0.7506388047896237  0.4094784900290236   T   T   T
  0.9999997901550870  0.0000032189089509  0.4095753251884915   T   T   T
  0.2502993994142528  0.2503003546536817  0.4100939871023144   T   T   T
  0.2512932991842689  0.4999434840903305  0.4110836994598515   T   T   T
  0.2520870614704478  0.7479179463775623  0.4116191642581484   T   T   T
  0.2493620498415936  0.9993627953123507  0.4094766905458727   T   T   T
  0.4999432952056750  0.2512940398656056  0.4110846632917244   T   T   T
  0.5000029681658944  0.5000024551184481  0.4111972235299746   T   T   T
  0.5000580141665125  0.7487075225609772  0.4110850707515539   T   T   T
  0.4999988580267711  0.9999968700533870  0.4093597405661527   T   T   T
  0.7479167949272352  0.2520836463145883  0.4116214569480476   T   T   T
  0.7487045493762352  0.5000579792935795  0.4110866459160150   T   T   T
  0.7496948889567747  0.7496982365888343  0.4100962867898588   T   T   T
  0.7506398210801777  0.0006377540906115  0.4094786778428556   T   T   T
  0.1249905611074738  0.1249940333914026  0.5212146621367069   T   T   T
  0.1230034734552490  0.3746574197574475  0.5212956188919762   T   T   T
  0.1225782763470775  0.6248343083822903  0.5216628115804625   T   T   T
  0.1248593520907022  0.8751395688448227  0.5213662094823164   T   T   T
  0.3746586793928159  0.1230033509189283  0.5212953060501064   T   T   T
  0.3731296187224160  0.3731293886818676  0.5231915477828082   T   T   T
  0.3725150480632848  0.6274871458478657  0.5288241915284644   T   T   T
  0.3751685563395952  0.8774205715069598  0.5216620456932546   T   T   T
  0.6248367820316290  0.1225774317202593  0.5216620724408543   T   T   T
  0.6274860252712173  0.3725127154489982  0.5288249083763432   T   T   T
  0.6268723092835913  0.6268689757334371  0.5231909142387963   T   T   T
  0.6253441941207072  0.8769979856075167  0.5212920967299084   T   T   T
  0.8751380112813791  0.1248582469659496  0.5213644740036329   T   T   T
  0.8774203032092984  0.3751650111804636  0.5216640797104048   T   T   T
  0.8769982203975957  0.6253451933932439  0.5212941329081318   T   T   T
  0.8750057017957005  0.8750087148636183  0.5212132112059535   T   T   T
  0.1250000002280558  0.1250000002280558  0.2987977801397363   F   F   F
  0.1250000002280558  0.3749999997719442  0.2987977801397363   F   F   F
  0.1250000002280558  0.6249999993158326  0.2987977801397363   F   F   F
  0.1250000002280558  0.8749999988597210  0.2987977801397363   F   F   F
  0.3749999997719442  0.1250000002280558  0.2987977801397363   F   F   F
  0.3749999997719442  0.3749999997719442  0.2987977801397363   F   F   F
  0.3749999997719442  0.6249999993158326  0.2987977801397363   F   F   F
  0.3749999997719442  0.8749999988597210  0.2987977801397363   F   F   F
  0.6249999993158326  0.1250000002280558  0.2987977801397363   F   F   F
  0.6249999993158326  0.3749999997719442  0.2987977801397363   F   F   F
  0.6249999993158326  0.6249999993158326  0.2987977801397363   F   F   F
  0.6249999993158326  0.8749999988597210  0.2987977801397363   F   F   F
  0.8749999988597210  0.1250000002280558  0.2987977801397363   F   F   F
  0.8749999988597210  0.3749999997719442  0.2987977801397363   F   F   F
  0.8749999988597210  0.6249999993158326  0.2987977801397363   F   F   F
  0.8749999988597210  0.8749999988597210  0.2987977801397363   F   F   F
  0.5952745496495311  0.5952637925280015  0.6443817270936734   T   T   T
  0.6279285754174069  0.4642298741042268  0.6490564655385924   T   T   T
  0.5357596727946969  0.3720377347542438  0.6490576529439380   T   T   T
  0.4047239175575257  0.4047193874130031  0.6443776114792925   T   T   T
  0.3720504281090200  0.5357498492734507  0.6490570880777184   T   T   T
  0.4642480518606504  0.6279238194553898  0.6490550215978672   T   T   T
  0.6663776438951601  0.6663619616990815  0.6958346859811328   T   T   T
  0.3336185543892682  0.3336086968863015  0.6958209820649444   T   T   T
  0.7165559038975644  0.4450438486945814  0.6759979945888617   T   T   T
  0.5549327315815589  0.2834335378566664  0.6759839269171195   T   T   T
  0.2834512996555389  0.5549341297243018  0.6759857256602615   T   T   T
  0.4450648180972934  0.7165523828203533  0.6759965541274227   T   T   T
 
  0.00000000E+00  0.00000000E+00  0.00000000E+00
  0.00000000E+00  0.00000000E+00  0.00000000E+00
  0.00000000E+00  0.00000000E+00  0.00000000E+00
  0.00000000E+00  0.00000000E+00  0.00000000E+00
  0.00000000E+00  0.00000000E+00  0.00000000E+00
  0.00000000E+00  0.00000000E+00  0.00000000E+00
  0.00000000E+00  0.00000000E+00  0.00000000E+00
  0.00000000E+00  0.00000000E+00  0.00000000E+00
  0.00000000E+00  0.00000000E+00  0.00000000E+00
  0.00000000E+00  0.00000000E+00  0.00000000E+00
  0.00000000E+00  0.00000000E+00  0.00000000E+00
  0.00000000E+00  0.00000000E+00  0.00000000E+00
  0.00000000E+00  0.00000000E+00  0.00000000E+00
  0.00000000E+00  0.00000000E+00  0.00000000E+00
  0.00000000E+00  0.00000000E+00  0.00000000E+00
  0.00000000E+00  0.00000000E+00  0.00000000E+00
  0.00000000E+00  0.00000000E+00  0.00000000E+00
  0.00000000E+00  0.00000000E+00  0.00000000E+00
  0.00000000E+00  0.00000000E+00  0.00000000E+00
  0.00000000E+00  0.00000000E+00  0.00000000E+00
  0.00000000E+00  0.00000000E+00  0.00000000E+00
  0.00000000E+00  0.00000000E+00  0.00000000E+00
  0.00000000E+00  0.00000000E+00  0.00000000E+00
  0.00000000E+00  0.00000000E+00  0.00000000E+00
  0.00000000E+00  0.00000000E+00  0.00000000E+00
  0.00000000E+00  0.00000000E+00  0.00000000E+00
  0.00000000E+00  0.00000000E+00  0.00000000E+00
  0.00000000E+00  0.00000000E+00  0.00000000E+00
  0.00000000E+00  0.00000000E+00  0.00000000E+00
  0.00000000E+00  0.00000000E+00  0.00000000E+00
  0.00000000E+00  0.00000000E+00  0.00000000E+00
  0.00000000E+00  0.00000000E+00  0.00000000E+00
  0.00000000E+00  0.00000000E+00  0.00000000E+00
  0.00000000E+00  0.00000000E+00  0.00000000E+00
  0.00000000E+00  0.00000000E+00  0.00000000E+00
  0.00000000E+00  0.00000000E+00  0.00000000E+00
  0.00000000E+00  0.00000000E+00  0.00000000E+00
  0.00000000E+00  0.00000000E+00  0.00000000E+00
  0.00000000E+00  0.00000000E+00  0.00000000E+00
  0.00000000E+00  0.00000000E+00  0.00000000E+00
  0.00000000E+00  0.00000000E+00  0.00000000E+00
  0.00000000E+00  0.00000000E+00  0.00000000E+00
  0.00000000E+00  0.00000000E+00  0.00000000E+00
  0.00000000E+00  0.00000000E+00  0.00000000E+00
  0.00000000E+00  0.00000000E+00  0.00000000E+00
  0.00000000E+00  0.00000000E+00  0.00000000E+00
  0.00000000E+00  0.00000000E+00  0.00000000E+00
  0.00000000E+00  0.00000000E+00  0.00000000E+00
  0.00000000E+00  0.00000000E+00  0.00000000E+00
  0.00000000E+00  0.00000000E+00  0.00000000E+00
  0.00000000E+00  0.00000000E+00  0.00000000E+00
  0.00000000E+00  0.00000000E+00  0.00000000E+00
  0.00000000E+00  0.00000000E+00  0.00000000E+00
  0.00000000E+00  0.00000000E+00  0.00000000E+00
  0.00000000E+00  0.00000000E+00  0.00000000E+00
  0.00000000E+00  0.00000000E+00  0.00000000E+00
  0.00000000E+00  0.00000000E+00  0.00000000E+00
  0.00000000E+00  0.00000000E+00  0.00000000E+00
  0.00000000E+00  0.00000000E+00  0.00000000E+00
  0.00000000E+00  0.00000000E+00  0.00000000E+00
