Ag  C  H Cl                             
   1.00000000000000     
    11.7678089999999997    0.0000000000000000    0.0000000000000000
    -5.8839040000000002   10.1912210000000005    0.0000000000000000
     0.0000000000000000    0.0000000000000000   25.2062817300000006
   Ag   C    H    Cl
    64     6     2     4
Selective dynamics
Direct
  0.7499999754973956  0.7500000274746270  0.2975448771198046   F   F   F
  0.9999999830044857  0.0000000000000000  0.2975448771198046   F   F   F
  0.9999999789222898  0.2500000088311296  0.2975448771198046   F   F   F
  0.9999999748400938  0.5000000176622592  0.2975448771198046   F   F   F
  0.9999999882440349  0.7500000274746270  0.2975448771198046   F   F   F
  0.2499999957511179  0.0000000000000000  0.2975448771198046   F   F   F
  0.2499999916689291  0.2500000088311296  0.2975448771198046   F   F   F
  0.2499999875867331  0.5000000176622592  0.2975448771198046   F   F   F
  0.4999999915022428  0.0000000000000000  0.2975448771198046   F   F   F
  0.4999999874200469  0.2500000088311296  0.2975448771198046   F   F   F
  0.4999999833378510  0.5000000176622592  0.2975448771198046   F   F   F
  0.4999999797462777  0.7500000274746270  0.2975448771198046   F   F   F
  0.7499999872533607  0.0000000000000000  0.2975448771198046   F   F   F
  0.7499999831711648  0.2500000088311296  0.2975448771198046   F   F   F
  0.7499999790889760  0.5000000176622592  0.2975448771198046   F   F   F
  0.2499999839951599  0.7500000274746270  0.2975448771198046   F   F   F
  0.0833330000000032  0.1666669999999968  0.3928423087572952   F   F   F
  0.0833330000000032  0.4166669999999968  0.3928423087572952   F   F   F
  0.0833330000000032  0.6666669999999968  0.3928423087572952   F   F   F
  0.0833330000000032  0.9166669999999968  0.3928423087572952   F   F   F
  0.3333330000000032  0.1666669999999968  0.3928423087572952   F   F   F
  0.3333330000000032  0.4166669999999968  0.3928423087572952   F   F   F
  0.3333330000000032  0.6666669999999968  0.3928423087572952   F   F   F
  0.3333330000000032  0.9166669999999968  0.3928423087572952   F   F   F
  0.5833330000000032  0.1666669999999968  0.3928423087572952   F   F   F
  0.5833330000000032  0.4166669999999968  0.3928423087572952   F   F   F
  0.5833330000000032  0.6666669999999968  0.3928423087572952   F   F   F
  0.5833330000000032  0.9166669999999968  0.3928423087572952   F   F   F
  0.8333330000000032  0.1666669999999968  0.3928423087572952   F   F   F
  0.8333330000000032  0.4166669999999968  0.3928423087572952   F   F   F
  0.8333330000000032  0.6666669999999968  0.3928423087572952   F   F   F
  0.8333330000000032  0.9166669999999968  0.3928423087572952   F   F   F
  0.2502421381125170  0.2503504062513210  0.5704655035625066   T   T   T
  0.2500944885115872  0.4998919326817804  0.5712085389860214   T   T   T
  0.2500681073780350  0.7497624218962929  0.5711834647731231   T   T   T
  0.2500079257137617 -0.0000803951302911  0.5712871157411460   T   T   T
  0.4997775658662651  0.2502333680186701  0.5712099553264880   T   T   T
  0.4996255720307554  0.4997064799834238  0.5704943940095398   T   T   T
  0.4999820636676857  0.7501232572900214  0.5712473156799884   T   T   T
  0.4999959136907463  0.0003689883415307  0.5711736870568176   T   T   T
  0.7496673853551987  0.2500348758825927  0.5711935238011868   T   T   T
  0.7500769845261275  0.4999804035585860  0.5712962757267419   T   T   T
  0.7501228531259631  0.7502136563407009  0.5711363974699434   T   T   T
  0.7498084440583660  0.0002018555908414  0.5711106933816148   T   T   T
 -0.0000803741866112  0.2500445766495538  0.5712546728297559   T   T   T
  0.0002783620065612  0.4999601549437885  0.5711786062355478   T   T   T
  0.0000910432986418  0.7498955116016252  0.5711080613590596   T   T   T
 -0.0002162927646631 -0.0001230955472411  0.5711308518451486   T   T   T
  0.1666318435023132  0.0832480262535317  0.4818396297614447   T   T   T
  0.1664960622135857  0.3333970282932466  0.4817880357206369   T   T   T
  0.1668273453391795  0.5832256320423567  0.4818397084434841   T   T   T
  0.1668311855962922  0.8334582738575796  0.4818718066743355   T   T   T
  0.4165696014129252  0.0835032059817151  0.4818849721280387   T   T   T
  0.4167593130045065  0.3332559616413269  0.4816376821149138   T   T   T
  0.4166224485642711  0.5835083537978496  0.4817965277771055   T   T   T
  0.4167525566176030  0.8333796617249778  0.4818821140726762   T   T   T
  0.6666430278430895  0.0833997444886278  0.4817892579746101   T   T   T
  0.6665351121533577  0.3334201693376839  0.4818882157774961   T   T   T
  0.6667772122286468  0.5833977607132146  0.4818493181814580   T   T   T
  0.6665865979039917  0.8333021814000192  0.4818697603057176   T   T   T
  0.9166896698814301  0.0834244462584102  0.4818670903884716   T   T   T
  0.9165894609917965  0.3332214710379521  0.4818826868304891   T   T   T
  0.9165152449993604  0.5831720033050936  0.4818656441712091   T   T   T
  0.9167010606891353  0.8332606561946543  0.4818392513084074   T   T   T
  0.3066070905902197  0.4432282565658984  0.6968606319019165   T   T   T
  0.4436644425456014  0.5127587145726863  0.6981953780844674   T   T   T
  0.5126318661565935  0.4437190385307490  0.6983358739134785   T   T   T
  0.4433621675929781  0.3065801087123429  0.6970383677708287   T   T   T
  0.3062671547281045  0.2372181635312807  0.6982857465994717   T   T   T
  0.2372258849131015  0.3061686396869346  0.6982331335849998   T   T   T
  0.2530831756950547  0.4965599892143724  0.6962438839278143   T   T   T
  0.4968447566339599  0.2531169452888413  0.6964939008541000   T   T   T
  0.5242032874223140  0.6813154719691018  0.6999617113606232   T   T   T
  0.6812946784556090  0.5242396675369643  0.7003072746224992   T   T   T
  0.2257347345523849  0.0686274373635172  0.7001208100926830   T   T   T
  0.0685890294919109  0.2255008318823436  0.7000700244586640   T   T   T
 
  0.00000000E+00  0.00000000E+00  0.00000000E+00
  0.00000000E+00  0.00000000E+00  0.00000000E+00
  0.00000000E+00  0.00000000E+00  0.00000000E+00
  0.00000000E+00  0.00000000E+00  0.00000000E+00
  0.00000000E+00  0.00000000E+00  0.00000000E+00
  0.00000000E+00  0.00000000E+00  0.00000000E+00
  0.00000000E+00  0.00000000E+00  0.00000000E+00
  0.00000000E+00  0.00000000E+00  0.00000000E+00
  0.00000000E+00  0.00000000E+00  0.00000000E+00
  0.00000000E+00  0.00000000E+00  0.00000000E+00
  0.00000000E+00  0.00000000E+00  0.00000000E+00
  0.00000000E+00  0.00000000E+00  0.00000000E+00
  0.00000000E+00  0.00000000E+00  0.00000000E+00
  0.00000000E+00  0.00000000E+00  0.00000000E+00
  0.00000000E+00  0.00000000E+00  0.00000000E+00
  0.00000000E+00  0.00000000E+00  0.00000000E+00
  0.00000000E+00  0.00000000E+00  0.00000000E+00
  0.00000000E+00  0.00000000E+00  0.00000000E+00
  0.00000000E+00  0.00000000E+00  0.00000000E+00
  0.00000000E+00  0.00000000E+00  0.00000000E+00
  0.00000000E+00  0.00000000E+00  0.00000000E+00
  0.00000000E+00  0.00000000E+00  0.00000000E+00
  0.00000000E+00  0.00000000E+00  0.00000000E+00
  0.00000000E+00  0.00000000E+00  0.00000000E+00
  0.00000000E+00  0.00000000E+00  0.00000000E+00
  0.00000000E+00  0.00000000E+00  0.00000000E+00
  0.00000000E+00  0.00000000E+00  0.00000000E+00
  0.00000000E+00  0.00000000E+00  0.00000000E+00
  0.00000000E+00  0.00000000E+00  0.00000000E+00
  0.00000000E+00  0.00000000E+00  0.00000000E+00
  0.00000000E+00  0.00000000E+00  0.00000000E+00
  0.00000000E+00  0.00000000E+00  0.00000000E+00
  0.00000000E+00  0.00000000E+00  0.00000000E+00
  0.00000000E+00  0.00000000E+00  0.00000000E+00
  0.00000000E+00  0.00000000E+00  0.00000000E+00
  0.00000000E+00  0.00000000E+00  0.00000000E+00
  0.00000000E+00  0.00000000E+00  0.00000000E+00
  0.00000000E+00  0.00000000E+00  0.00000000E+00
  0.00000000E+00  0.00000000E+00  0.00000000E+00
  0.00000000E+00  0.00000000E+00  0.00000000E+00
  0.00000000E+00  0.00000000E+00  0.00000000E+00
  0.00000000E+00  0.00000000E+00  0.00000000E+00
  0.00000000E+00  0.00000000E+00  0.00000000E+00
  0.00000000E+00  0.00000000E+00  0.00000000E+00
  0.00000000E+00  0.00000000E+00  0.00000000E+00
  0.00000000E+00  0.00000000E+00  0.00000000E+00
  0.00000000E+00  0.00000000E+00  0.00000000E+00
  0.00000000E+00  0.00000000E+00  0.00000000E+00
  0.00000000E+00  0.00000000E+00  0.00000000E+00
  0.00000000E+00  0.00000000E+00  0.00000000E+00
  0.00000000E+00  0.00000000E+00  0.00000000E+00
  0.00000000E+00  0.00000000E+00  0.00000000E+00
  0.00000000E+00  0.00000000E+00  0.00000000E+00
  0.00000000E+00  0.00000000E+00  0.00000000E+00
  0.00000000E+00  0.00000000E+00  0.00000000E+00
  0.00000000E+00  0.00000000E+00  0.00000000E+00
  0.00000000E+00  0.00000000E+00  0.00000000E+00
  0.00000000E+00  0.00000000E+00  0.00000000E+00
  0.00000000E+00  0.00000000E+00  0.00000000E+00
  0.00000000E+00  0.00000000E+00  0.00000000E+00
  0.00000000E+00  0.00000000E+00  0.00000000E+00
  0.00000000E+00  0.00000000E+00  0.00000000E+00
  0.00000000E+00  0.00000000E+00  0.00000000E+00
  0.00000000E+00  0.00000000E+00  0.00000000E+00
  0.00000000E+00  0.00000000E+00  0.00000000E+00
  0.00000000E+00  0.00000000E+00  0.00000000E+00
  0.00000000E+00  0.00000000E+00  0.00000000E+00
  0.00000000E+00  0.00000000E+00  0.00000000E+00
  0.00000000E+00  0.00000000E+00  0.00000000E+00
  0.00000000E+00  0.00000000E+00  0.00000000E+00
  0.00000000E+00  0.00000000E+00  0.00000000E+00
  0.00000000E+00  0.00000000E+00  0.00000000E+00
  0.00000000E+00  0.00000000E+00  0.00000000E+00
  0.00000000E+00  0.00000000E+00  0.00000000E+00
  0.00000000E+00  0.00000000E+00  0.00000000E+00
  0.00000000E+00  0.00000000E+00  0.00000000E+00
