Cu48 H2 C6 Cl4                          
    1.000000000000000     
    10.2424769999999992    0.0000000000000000    0.0000000000000000
    -5.1212390000000001    8.8702459999999999    0.0000000000000000
     0.0000000000000000    0.0000000000000000   17.1835769999999997
   Cu   H    C    Cl
    48     2     6     4
Selective dynamics
Direct
  0.0833330000000032  0.1666669999999968  0.3491709999999983   F   F   F
  0.0833330000000032  0.4166669999999968  0.3491709999999983   F   F   F
  0.0833330000000032  0.6666669999999968  0.3491709999999983   F   F   F
  0.0833330000000032  0.9166669999999968  0.3491709999999983   F   F   F
  0.3333330000000032  0.1666669999999968  0.3491709999999983   F   F   F
  0.3333330000000032  0.4166669999999968  0.3491709999999983   F   F   F
  0.3333330000000032  0.6666669999999968  0.3491709999999983   F   F   F
  0.3333330000000032  0.9166669999999968  0.3491709999999983   F   F   F
  0.5833330000000032  0.1666669999999968  0.3491709999999983   F   F   F
  0.5833330000000032  0.4166669999999968  0.3491709999999983   F   F   F
  0.5833330000000032  0.6666669999999968  0.3491709999999983   F   F   F
  0.5833330000000032  0.9166669999999968  0.3491709999999983   F   F   F
  0.8333330000000032  0.1666669999999968  0.3491709999999983   F   F   F
  0.8333330000000032  0.4166669999999968  0.3491709999999983   F   F   F
  0.8333330000000032  0.6666669999999968  0.3491709999999983   F   F   F
  0.8333330000000032  0.9166669999999968  0.3491709999999983   F   F   F
  0.9996490048180107  0.9997128084435118  0.5885241301037993   T   T   T
  0.9994199896998026  0.2499484421105720  0.5886648742665628   T   T   T
  0.0004053604032066  0.5000491207769286  0.5889366995086149   T   T   T
  0.0001989219615339  0.7497993791951529  0.5883832978518981   T   T   T
  0.2498699168071710  0.9994586197383839  0.5887039315288831   T   T   T
  0.2499544933184694  0.2500619252094722  0.5869716992945371   T   T   T
  0.2500151923818805  0.4999871163336351  0.5884536306638495   T   T   T
  0.2499501094957424  0.7495935016982429  0.5889368319268442   T   T   T
  0.5000140421306583  0.0005382062022079  0.5889844617771445   T   T   T
  0.4997646539491072  0.2502393729537573  0.5883986271697168   T   T   T
  0.4999405712943741  0.5000476065060582  0.5869750780992860   T   T   T
  0.5000523335180773  0.7505792837292589  0.5886677364966530   T   T   T
  0.7496667548376976  0.0003318928663703  0.5884875163277172   T   T   T
  0.7494615882659801  0.2499867539919762  0.5889837520050776   T   T   T
  0.7505408411271546  0.5001315591578930  0.5887083490687886   T   T   T
  0.7502868074315003  0.7503507824187423  0.5885272849959264   T   T   T
  0.1664598892689568  0.0827336944974491  0.4688113440707227   T   T   T
  0.1664365461956123  0.3334814740306982  0.4687628074690195   T   T   T
  0.1666123163155575  0.5833857612466744  0.4689773571795470   T   T   T
  0.1667954121054436  0.8332024685165820  0.4689362239040662   T   T   T
  0.4165300532064009  0.0832580603201052  0.4690526634057406   T   T   T
  0.4168683418168300  0.3331355653576296  0.4683853292462388   T   T   T
  0.4165216703217567  0.5835635301936364  0.4687639759207229   T   T   T
  0.4166936898713445  0.8335192801464899  0.4691053829355525   T   T   T
  0.6665722877522455  0.0834303830758500  0.4689713318741866   T   T   T
  0.6667462219365419  0.3334751457094427  0.4690494863786441   T   T   T
  0.6672673473277015  0.5835403889001682  0.4688095219264596   T   T   T
  0.6665514703397548  0.8332621730940915  0.4689748264124916   T   T   T
  0.9167346348904175  0.0834486240360377  0.4689733012116406   T   T   T
  0.9164789539240772  0.3333065460052822  0.4690992093759760   T   T   T
  0.9167924269020702  0.5832010461510677  0.4689323819258320   T   T   T
  0.9167547529660851  0.8332409420754132  0.4689307387658275   T   T   T
  0.2348244106799200  0.5151786319659024  0.7654214616426813   T   T   T
  0.5151912141314838  0.2348013278886256  0.7654315440763426   T   T   T
  0.2963422092401160  0.4536629553244680  0.7673583404354289   T   T   T
  0.4539692014885972  0.5331813123958469  0.7688625686687800   T   T   T
  0.5332350583457597  0.4539387537472592  0.7688822318650423   T   T   T
  0.4536992949315106  0.2963003815814318  0.7673902837883446   T   T   T
  0.2960655600563058  0.2167769999880278  0.7688599656609583   T   T   T
  0.2168086832345679  0.2960298996297510  0.7688461183928794   T   T   T
  0.5468956913425629  0.7268631509144754  0.7686672204292861   T   T   T
  0.7268796601134184  0.5468590585453867  0.7686757511091287   T   T   T
  0.2031287707158214  0.0231061587723502  0.7686185845643863   T   T   T
  0.0231357746063807  0.2031026445419783  0.7686427847236175   T   T   T
 
  0.00000000E+00  0.00000000E+00  0.00000000E+00
  0.00000000E+00  0.00000000E+00  0.00000000E+00
  0.00000000E+00  0.00000000E+00  0.00000000E+00
  0.00000000E+00  0.00000000E+00  0.00000000E+00
  0.00000000E+00  0.00000000E+00  0.00000000E+00
  0.00000000E+00  0.00000000E+00  0.00000000E+00
  0.00000000E+00  0.00000000E+00  0.00000000E+00
  0.00000000E+00  0.00000000E+00  0.00000000E+00
  0.00000000E+00  0.00000000E+00  0.00000000E+00
  0.00000000E+00  0.00000000E+00  0.00000000E+00
  0.00000000E+00  0.00000000E+00  0.00000000E+00
  0.00000000E+00  0.00000000E+00  0.00000000E+00
  0.00000000E+00  0.00000000E+00  0.00000000E+00
  0.00000000E+00  0.00000000E+00  0.00000000E+00
  0.00000000E+00  0.00000000E+00  0.00000000E+00
  0.00000000E+00  0.00000000E+00  0.00000000E+00
  0.00000000E+00  0.00000000E+00  0.00000000E+00
  0.00000000E+00  0.00000000E+00  0.00000000E+00
  0.00000000E+00  0.00000000E+00  0.00000000E+00
  0.00000000E+00  0.00000000E+00  0.00000000E+00
  0.00000000E+00  0.00000000E+00  0.00000000E+00
  0.00000000E+00  0.00000000E+00  0.00000000E+00
  0.00000000E+00  0.00000000E+00  0.00000000E+00
  0.00000000E+00  0.00000000E+00  0.00000000E+00
  0.00000000E+00  0.00000000E+00  0.00000000E+00
  0.00000000E+00  0.00000000E+00  0.00000000E+00
  0.00000000E+00  0.00000000E+00  0.00000000E+00
  0.00000000E+00  0.00000000E+00  0.00000000E+00
  0.00000000E+00  0.00000000E+00  0.00000000E+00
  0.00000000E+00  0.00000000E+00  0.00000000E+00
  0.00000000E+00  0.00000000E+00  0.00000000E+00
  0.00000000E+00  0.00000000E+00  0.00000000E+00
  0.00000000E+00  0.00000000E+00  0.00000000E+00
  0.00000000E+00  0.00000000E+00  0.00000000E+00
  0.00000000E+00  0.00000000E+00  0.00000000E+00
  0.00000000E+00  0.00000000E+00  0.00000000E+00
  0.00000000E+00  0.00000000E+00  0.00000000E+00
  0.00000000E+00  0.00000000E+00  0.00000000E+00
  0.00000000E+00  0.00000000E+00  0.00000000E+00
  0.00000000E+00  0.00000000E+00  0.00000000E+00
  0.00000000E+00  0.00000000E+00  0.00000000E+00
  0.00000000E+00  0.00000000E+00  0.00000000E+00
  0.00000000E+00  0.00000000E+00  0.00000000E+00
  0.00000000E+00  0.00000000E+00  0.00000000E+00
  0.00000000E+00  0.00000000E+00  0.00000000E+00
  0.00000000E+00  0.00000000E+00  0.00000000E+00
  0.00000000E+00  0.00000000E+00  0.00000000E+00
  0.00000000E+00  0.00000000E+00  0.00000000E+00
  0.00000000E+00  0.00000000E+00  0.00000000E+00
  0.00000000E+00  0.00000000E+00  0.00000000E+00
  0.00000000E+00  0.00000000E+00  0.00000000E+00
  0.00000000E+00  0.00000000E+00  0.00000000E+00
  0.00000000E+00  0.00000000E+00  0.00000000E+00
  0.00000000E+00  0.00000000E+00  0.00000000E+00
  0.00000000E+00  0.00000000E+00  0.00000000E+00
  0.00000000E+00  0.00000000E+00  0.00000000E+00
  0.00000000E+00  0.00000000E+00  0.00000000E+00
  0.00000000E+00  0.00000000E+00  0.00000000E+00
  0.00000000E+00  0.00000000E+00  0.00000000E+00
  0.00000000E+00  0.00000000E+00  0.00000000E+00
