Ir48 C6 Cl2 H4                          
    1.000000000000000     
    10.9622135000000007    0.0000000000000000    0.0000000000000000
     0.0000000000000000   15.5029109999999992    0.0000000000000000
     0.0000000000000000    0.0000000000000000   15.5430206900000005
   Ir   C    Cl   H 
    48     6     2     4
Selective dynamics
Direct
  0.2499010232631775  0.0001838596691073  0.4137913840990421   T   T   T
  0.2497564314047622  0.2510036487588820  0.4124372765374034   T   T   T
  0.2475038012970074  0.4988696546928324  0.4079579770759665   T   T   T
  0.2542570597843081  0.7466613883857960  0.4159961129238781   T   T   T
  0.5000025991033397  0.0000103763455499  0.3935664350330583   T   T   T
  0.4992194670221224  0.2527557268595118  0.3956659528527950   T   T   T
  0.4999944782254957  0.4999958299547487  0.3950126449021454   T   T   T
  0.5007833622966871  0.7472303674031551  0.3956635761035372   T   T   T
  0.7500908336897822  0.9998335308881749  0.4137957621524109   T   T   T
  0.7457321443447924  0.2533353075270313  0.4159856388590555   T   T   T
  0.7525181250557367  0.5011264424173589  0.4079532726173838   T   T   T
  0.7502577377382877  0.7489835871852932  0.4124369518383304   T   T   T
  0.9999992762970180  0.9999980664421884  0.3907884315925614   T   T   T
  0.9982472565671188  0.2497882872166457  0.3944610020282155   T   T   T
  0.9999873160150798  0.5000029966027952  0.3919241117953050   T   T   T
  0.0017429566302525  0.7502061902147901  0.3944553028153379   T   T   T
  0.1229846996756052  0.1250703828376203  0.4849100031053553   T   T   T
  0.1192735183565006  0.3748576050219015  0.4850522056799065   T   T   T
  0.1226192147370924  0.6237822464936045  0.4850329358862595   T   T   T
  0.1252348454616410  0.8742054005851756  0.4848579510091255   T   T   T
  0.3763591321449624  0.1257146546606336  0.4846222042553237   T   T   T
  0.3682846140621123  0.3779783400920493  0.4882416745601503   T   T   T
  0.3781286557949954  0.6135118816290372  0.4932208602071597   T   T   T
  0.3767668748109045  0.8745146211008787  0.4844194631139516   T   T   T
  0.6232229970484084  0.1254809997852462  0.4844273072834113   T   T   T
  0.6218746279504401  0.3864842372706789  0.4932113285666802   T   T   T
  0.6317198589417927  0.6220228713613309  0.4882595478821514   T   T   T
  0.6236388267214537  0.8742870130495746  0.4846162145646318   T   T   T
  0.8747571753241843  0.1257960679136687  0.4848609782752149   T   T   T
  0.8773654768623942  0.3762199744826020  0.4850107592379160   T   T   T
  0.8807317846954845  0.6251395854133222  0.4850567843176776   T   T   T
  0.8770145279183126  0.8749277018516892  0.4849083658688329   T   T   T
  0.1249999993158326  0.1249999996774775  0.3216877915640239   F   F   F
  0.1249999993158326  0.3749999996774775  0.3216877915640239   F   F   F
  0.1250000002280558  0.6249999990324397  0.3216877915640239   F   F   F
  0.1250000002280558  0.8749999983874019  0.3216877915640239   F   F   F
  0.3749999988597210  0.1249999996774775  0.3216877915640239   F   F   F
  0.3749999997719442  0.3749999996774775  0.3216877915640239   F   F   F
  0.3749999997719442  0.6249999990324397  0.3216877915640239   F   F   F
  0.3749999997719442  0.8749999983874019  0.3216877915640239   F   F   F
  0.6249999993158326  0.1249999996774775  0.3216877915640239   F   F   F
  0.6249999984036094  0.3749999996774775  0.3216877915640239   F   F   F
  0.6249999993158326  0.6249999990324397  0.3216877915640239   F   F   F
  0.6249999993158326  0.8749999983874019  0.3216877915640239   F   F   F
  0.8749999979474978  0.1249999996774775  0.3216877915640239   F   F   F
  0.8749999988597210  0.3749999996774775  0.3216877915640239   F   F   F
  0.8749999988597210  0.6249999990324397  0.3216877915640239   F   F   F
  0.8749999988597210  0.8749999983874019  0.3216877915640239   F   F   F
  0.5983935106049287  0.5668760553960368  0.6078281107235242   T   T   T
  0.6275245196041794  0.4714166005473288  0.6106134686898201   T   T   T
  0.5331778245482468  0.4086349934463982  0.6184459076201350   T   T   T
  0.4016427164733329  0.4331104590809858  0.6078186919547974   T   T   T
  0.3724584625928173  0.5285822138408065  0.6106118331893171   T   T   T
  0.4667847602262611  0.5913846078022615  0.6184653397292905   T   T   T
  0.6897768127225703  0.6205978859455712  0.6893440904074239   T   T   T
  0.3102037238909787  0.3793765237710929  0.6893419570644141   T   T   T
  0.7165029640421920  0.4576486908782798  0.6389339032231192   T   T   T
  0.5500064251406158  0.3498184638413164  0.6554356610897187   T   T   T
  0.2835085936379258  0.5423383361859351  0.6389189515994218   T   T   T
  0.4500019491238163  0.6501472210265007  0.6554221531953175   T   T   T
 
  0.00000000E+00  0.00000000E+00  0.00000000E+00
  0.00000000E+00  0.00000000E+00  0.00000000E+00
  0.00000000E+00  0.00000000E+00  0.00000000E+00
  0.00000000E+00  0.00000000E+00  0.00000000E+00
  0.00000000E+00  0.00000000E+00  0.00000000E+00
  0.00000000E+00  0.00000000E+00  0.00000000E+00
  0.00000000E+00  0.00000000E+00  0.00000000E+00
  0.00000000E+00  0.00000000E+00  0.00000000E+00
  0.00000000E+00  0.00000000E+00  0.00000000E+00
  0.00000000E+00  0.00000000E+00  0.00000000E+00
  0.00000000E+00  0.00000000E+00  0.00000000E+00
  0.00000000E+00  0.00000000E+00  0.00000000E+00
  0.00000000E+00  0.00000000E+00  0.00000000E+00
  0.00000000E+00  0.00000000E+00  0.00000000E+00
  0.00000000E+00  0.00000000E+00  0.00000000E+00
  0.00000000E+00  0.00000000E+00  0.00000000E+00
  0.00000000E+00  0.00000000E+00  0.00000000E+00
  0.00000000E+00  0.00000000E+00  0.00000000E+00
  0.00000000E+00  0.00000000E+00  0.00000000E+00
  0.00000000E+00  0.00000000E+00  0.00000000E+00
  0.00000000E+00  0.00000000E+00  0.00000000E+00
  0.00000000E+00  0.00000000E+00  0.00000000E+00
  0.00000000E+00  0.00000000E+00  0.00000000E+00
  0.00000000E+00  0.00000000E+00  0.00000000E+00
  0.00000000E+00  0.00000000E+00  0.00000000E+00
  0.00000000E+00  0.00000000E+00  0.00000000E+00
  0.00000000E+00  0.00000000E+00  0.00000000E+00
  0.00000000E+00  0.00000000E+00  0.00000000E+00
  0.00000000E+00  0.00000000E+00  0.00000000E+00
  0.00000000E+00  0.00000000E+00  0.00000000E+00
  0.00000000E+00  0.00000000E+00  0.00000000E+00
  0.00000000E+00  0.00000000E+00  0.00000000E+00
  0.00000000E+00  0.00000000E+00  0.00000000E+00
  0.00000000E+00  0.00000000E+00  0.00000000E+00
  0.00000000E+00  0.00000000E+00  0.00000000E+00
  0.00000000E+00  0.00000000E+00  0.00000000E+00
  0.00000000E+00  0.00000000E+00  0.00000000E+00
  0.00000000E+00  0.00000000E+00  0.00000000E+00
  0.00000000E+00  0.00000000E+00  0.00000000E+00
  0.00000000E+00  0.00000000E+00  0.00000000E+00
  0.00000000E+00  0.00000000E+00  0.00000000E+00
  0.00000000E+00  0.00000000E+00  0.00000000E+00
  0.00000000E+00  0.00000000E+00  0.00000000E+00
  0.00000000E+00  0.00000000E+00  0.00000000E+00
  0.00000000E+00  0.00000000E+00  0.00000000E+00
  0.00000000E+00  0.00000000E+00  0.00000000E+00
  0.00000000E+00  0.00000000E+00  0.00000000E+00
  0.00000000E+00  0.00000000E+00  0.00000000E+00
  0.00000000E+00  0.00000000E+00  0.00000000E+00
  0.00000000E+00  0.00000000E+00  0.00000000E+00
  0.00000000E+00  0.00000000E+00  0.00000000E+00
  0.00000000E+00  0.00000000E+00  0.00000000E+00
  0.00000000E+00  0.00000000E+00  0.00000000E+00
  0.00000000E+00  0.00000000E+00  0.00000000E+00
  0.00000000E+00  0.00000000E+00  0.00000000E+00
  0.00000000E+00  0.00000000E+00  0.00000000E+00
  0.00000000E+00  0.00000000E+00  0.00000000E+00
  0.00000000E+00  0.00000000E+00  0.00000000E+00
  0.00000000E+00  0.00000000E+00  0.00000000E+00
  0.00000000E+00  0.00000000E+00  0.00000000E+00
