Pd48 C6 Br2 H4                          
    1.000000000000000     
    11.1817229999999999    0.0000000000000000    0.0000000000000000
     0.0000000000000000   15.8133443000000007    0.0000000000000000
     0.0000000000000000    0.0000000000000000   15.6589515699999993
   Pd   C    Br   H 
    48     6     2     4
Selective dynamics
Direct
  0.2496612203743780  0.9998376098415633  0.4032823629147728   T   T   T
  0.2531324247737459  0.2529774159571048  0.4033201895680136   T   T   T
  0.2462673857551607  0.5016635356961956  0.3936994647512648   T   T   T
  0.2494517837503665  0.7474506411146606  0.4046459109120377   T   T   T
  0.5000111645664447  0.0000239651586895  0.4037717613473930   T   T   T
  0.5006708653694218  0.2522393803789313  0.4044223090080479   T   T   T
  0.4999948135510124  0.4999951685578878  0.3813539249094973   T   T   T
  0.4993498319760477  0.7477523743809158  0.4044183724305412   T   T   T
  0.7503579207604076  0.0002017896698305  0.4032830530251275   T   T   T
  0.7505670050371478  0.2525748509675481  0.4046604354823984   T   T   T
  0.7537300672165799  0.4983413100054008  0.3936992840762841   T   T   T
  0.7468659832001450  0.7470043457016686  0.4033208148744549   T   T   T
  0.0000185166681064  0.9999980025238955  0.4027458405398434   T   T   T
  0.0033175214645098  0.2533440535413476  0.4056430462289597   T   T   T
  0.0000109190922259  0.5000070132232111  0.4025705933410748   T   T   T
  0.9967090668207277  0.7466559933751569  0.4056479061858980   T   T   T
  0.1272396013682950  0.1265051129048089  0.4875891768366571   T   T   T
  0.1385599840814322  0.3816395624422881  0.4928766628558847   T   T   T
  0.1211174351864415  0.6232687946230442  0.4896618028777056   T   T   T
  0.1229504429056973  0.8729439941017958  0.4872877197518548   T   T   T
  0.3764125984650946  0.1262895794179357  0.4878221552301838   T   T   T
  0.3869441400395743  0.3950858216151474  0.4897630739421075   T   T   T
  0.3706662663443083  0.6146290091078868  0.4886119136979161   T   T   T
  0.3738831204948667  0.8736704537154623  0.4877096763397191   T   T   T
  0.6261848746757295  0.1263600745282005  0.4877924834281870   T   T   T
  0.6293204938138572  0.3854177428396426  0.4886276780611709   T   T   T
  0.6130440469002139  0.6049286171891382  0.4897678936901428   T   T   T
  0.6236135197183188  0.8737230363146935  0.4878018502264041   T   T   T
  0.8771263833875338  0.1270884135227490  0.4872556755178508   T   T   T
  0.8789101600060718  0.3767236072294651  0.4896343720326186   T   T   T
  0.8614669026826292  0.6183481365524415  0.4929119187994999   T   T   T
  0.8727917026558032  0.8735121175889162  0.4876007866227283   T   T   T
  0.1249999995528412  0.1249999995257198  0.3193061794494056   F   F   F
  0.1249999995528412  0.3749999992095283  0.3193061794494056   F   F   F
  0.1249999995528412  0.6249999982609609  0.3193061794494056   F   F   F
  0.1249999995528412  0.8749999979447765  0.3193061794494056   F   F   F
  0.3749999986585237  0.1249999995257198  0.3193061794494056   F   F   F
  0.3749999986585237  0.3749999992095283  0.3193061794494056   F   F   F
  0.3749999986585237  0.6249999982609609  0.3193061794494056   F   F   F
  0.3749999986585237  0.8749999979447765  0.3193061794494056   F   F   F
  0.6249999977642062  0.1249999995257198  0.3193061794494056   F   F   F
  0.6249999977642062  0.3749999992095283  0.3193061794494056   F   F   F
  0.6249999977642062  0.6249999982609609  0.3193061794494056   F   F   F
  0.6249999977642062  0.8749999979447765  0.3193061794494056   F   F   F
  0.8749999968698887  0.1249999995257198  0.3193061794494056   F   F   F
  0.8749999968698887  0.3749999992095283  0.3193061794494056   F   F   F
  0.8749999968698887  0.6249999982609609  0.3193061794494056   F   F   F
  0.8749999968698887  0.8749999979447765  0.3193061794494056   F   F   F
  0.6195897517459272  0.5323695432739086  0.6044633444042304   T   T   T
  0.6006834488171933  0.4404051591373772  0.6081973042250013   T   T   T
  0.4777429187658626  0.4099156503825370  0.6151450410677839   T   T   T
  0.3803244076396410  0.4677105509427406  0.6044261783457898   T   T   T
  0.3992392916521936  0.5596781597828198  0.6081842461736215   T   T   T
  0.5221659262227263  0.5901398867806336  0.6151433161386706   T   T   T
  0.7836982150674743  0.5676518510263335  0.6388472820029492   T   T   T
  0.2162417421539615  0.4324291536508866  0.6388125750673410   T   T   T
  0.6680443183525071  0.4045484818596776  0.6441784269031672   T   T   T
  0.4635725445818650  0.3481759496937329  0.6445480448833791   T   T   T
  0.3318882069005937  0.5955195920927068  0.6441092619977766   T   T   T
  0.5363436369387102  0.6518772176302718  0.6445362777789398   T   T   T
 
  0.00000000E+00  0.00000000E+00  0.00000000E+00
  0.00000000E+00  0.00000000E+00  0.00000000E+00
  0.00000000E+00  0.00000000E+00  0.00000000E+00
  0.00000000E+00  0.00000000E+00  0.00000000E+00
  0.00000000E+00  0.00000000E+00  0.00000000E+00
  0.00000000E+00  0.00000000E+00  0.00000000E+00
  0.00000000E+00  0.00000000E+00  0.00000000E+00
  0.00000000E+00  0.00000000E+00  0.00000000E+00
  0.00000000E+00  0.00000000E+00  0.00000000E+00
  0.00000000E+00  0.00000000E+00  0.00000000E+00
  0.00000000E+00  0.00000000E+00  0.00000000E+00
  0.00000000E+00  0.00000000E+00  0.00000000E+00
  0.00000000E+00  0.00000000E+00  0.00000000E+00
  0.00000000E+00  0.00000000E+00  0.00000000E+00
  0.00000000E+00  0.00000000E+00  0.00000000E+00
  0.00000000E+00  0.00000000E+00  0.00000000E+00
  0.00000000E+00  0.00000000E+00  0.00000000E+00
  0.00000000E+00  0.00000000E+00  0.00000000E+00
  0.00000000E+00  0.00000000E+00  0.00000000E+00
  0.00000000E+00  0.00000000E+00  0.00000000E+00
  0.00000000E+00  0.00000000E+00  0.00000000E+00
  0.00000000E+00  0.00000000E+00  0.00000000E+00
  0.00000000E+00  0.00000000E+00  0.00000000E+00
  0.00000000E+00  0.00000000E+00  0.00000000E+00
  0.00000000E+00  0.00000000E+00  0.00000000E+00
  0.00000000E+00  0.00000000E+00  0.00000000E+00
  0.00000000E+00  0.00000000E+00  0.00000000E+00
  0.00000000E+00  0.00000000E+00  0.00000000E+00
  0.00000000E+00  0.00000000E+00  0.00000000E+00
  0.00000000E+00  0.00000000E+00  0.00000000E+00
  0.00000000E+00  0.00000000E+00  0.00000000E+00
  0.00000000E+00  0.00000000E+00  0.00000000E+00
  0.00000000E+00  0.00000000E+00  0.00000000E+00
  0.00000000E+00  0.00000000E+00  0.00000000E+00
  0.00000000E+00  0.00000000E+00  0.00000000E+00
  0.00000000E+00  0.00000000E+00  0.00000000E+00
  0.00000000E+00  0.00000000E+00  0.00000000E+00
  0.00000000E+00  0.00000000E+00  0.00000000E+00
  0.00000000E+00  0.00000000E+00  0.00000000E+00
  0.00000000E+00  0.00000000E+00  0.00000000E+00
  0.00000000E+00  0.00000000E+00  0.00000000E+00
  0.00000000E+00  0.00000000E+00  0.00000000E+00
  0.00000000E+00  0.00000000E+00  0.00000000E+00
  0.00000000E+00  0.00000000E+00  0.00000000E+00
  0.00000000E+00  0.00000000E+00  0.00000000E+00
  0.00000000E+00  0.00000000E+00  0.00000000E+00
  0.00000000E+00  0.00000000E+00  0.00000000E+00
  0.00000000E+00  0.00000000E+00  0.00000000E+00
  0.00000000E+00  0.00000000E+00  0.00000000E+00
  0.00000000E+00  0.00000000E+00  0.00000000E+00
  0.00000000E+00  0.00000000E+00  0.00000000E+00
  0.00000000E+00  0.00000000E+00  0.00000000E+00
  0.00000000E+00  0.00000000E+00  0.00000000E+00
  0.00000000E+00  0.00000000E+00  0.00000000E+00
  0.00000000E+00  0.00000000E+00  0.00000000E+00
  0.00000000E+00  0.00000000E+00  0.00000000E+00
  0.00000000E+00  0.00000000E+00  0.00000000E+00
  0.00000000E+00  0.00000000E+00  0.00000000E+00
  0.00000000E+00  0.00000000E+00  0.00000000E+00
  0.00000000E+00  0.00000000E+00  0.00000000E+00
