Cu  C  N  F                             
    1.000000000000000     
    10.2424774999999997    0.0000000000000000    0.0000000000000000
     0.0000000000000000   10.2424774999999997    0.0000000000000000
     0.0000000000000000    0.0000000000000000   23.4318939600000000
   Cu   C    N    F 
    64     4     2     4
Selective dynamics
Direct
  0.2499999995118358  0.0000000000000000  0.3200765594451340   F   F   F
  0.0000000000000000  0.4999999990236716  0.3200765594451340   F   F   F
  0.2499999995118358  0.2499999995118358  0.3200765594451340   F   F   F
  0.2499999995118358  0.4999999990236716  0.3200765594451340   F   F   F
  0.2499999995118358  0.7499999985355075  0.3200765594451340   F   F   F
  0.4999999990236716  0.0000000000000000  0.3200765594451340   F   F   F
  0.4999999990236716  0.2499999995118358  0.3200765594451340   F   F   F
  0.0000000000000000  0.7499999985355075  0.3200765594451340   F   F   F
  0.4999999990236716  0.4999999990236716  0.3200765594451340   F   F   F
  0.4999999990236716  0.7499999985355075  0.3200765594451340   F   F   F
  0.7499999985355075  0.0000000000000000  0.3200765594451340   F   F   F
  0.7499999985355075  0.2499999995118358  0.3200765594451340   F   F   F
  0.7499999985355075  0.4999999990236716  0.3200765594451340   F   F   F
  0.7499999985355075  0.7499999985355075  0.3200765594451340   F   F   F
  0.0000000000000000  0.0000000000000000  0.3200765594451340   F   F   F
  0.0000000000000000  0.2499999995118358  0.3200765594451340   F   F   F
  0.2496303411907987  0.9992423404164966  0.4737980890564628   T   T   T
  0.2497282743368705  0.2497267500665750  0.4740816755635876   T   T   T
  0.2512649128596885  0.4988097431159726  0.4744331077273706   T   T   T
  0.2513412592276969  0.7486639202122559  0.4742241307333294   T   T   T
  0.5000008143092598 -0.0000042676727741  0.4736967586233009   T   T   T
  0.4988070611036617  0.2512622355068617  0.4744377805262821   T   T   T
  0.4999980155648679  0.5000042047217981  0.4753629045109178   T   T   T
  0.5011930208713083  0.7487345056315853  0.4744376654700995   T   T   T
  0.7503647312095014  0.0007520727088045  0.4737952157079652   T   T   T
  0.7486547536307313  0.2513404674981541  0.4742190505772793   T   T   T
  0.7487334518603151  0.5011975419449771  0.4744348476604316   T   T   T
  0.7502689414598419  0.7502714781068770  0.4740813580042865   T   T   T
  0.0000016690252011 -0.0000034648299286  0.4741047678188181   T   T   T
  0.9992413852122173  0.2496252155933744  0.4737937781464993   T   T   T
 -0.0000020261342271  0.5000032695485688  0.4736928497966421   T   T   T
  0.0007580832544493  0.7503735876554570  0.4737938231337208   T   T   T
  0.1248134549776181  0.1248126398978199  0.5491067202468137   T   T   T
  0.1216453138495842  0.3746479090905898  0.5488136883127492   T   T   T
  0.1255535028614120  0.6246759389552885  0.5489586806239227   T   T   T
  0.1253817744144878  0.8746132264865738  0.5491772081175016   T   T   T
  0.3746486775099549  0.1216500967105233  0.5488131385612931   T   T   T
  0.3692086809828510  0.3692148370495301  0.5517919596178252   T   T   T
  0.3752167891666168  0.6247711051673700  0.5505504029281174   T   T   T
  0.3753175665143368  0.8744433551913195  0.5489556171232172   T   T   T
  0.6246776068186818  0.1255545057795781  0.5489612590826521   T   T   T
  0.6247749899895286  0.3752278360722331  0.5505471297988450   T   T   T
  0.6307810329564233  0.6307778039130807  0.5517973850658564   T   T   T
  0.6253522907445169  0.8783475578324853  0.5488125600537908   T   T   T
  0.8746162500691295  0.1253809078329505  0.5491773121619521   T   T   T
  0.8744436836342789  0.3753243715239812  0.5489632880575673   T   T   T
  0.8783488819592087  0.6253516838346159  0.5488155004252876   T   T   T
  0.8751844625749569  0.8751836409115704  0.5491041429688823   T   T   T
  0.1250000002440785  0.1249999992677573  0.3973486452223582   F   F   F
  0.1250000002440785  0.3749999997559215  0.3973486452223582   F   F   F
  0.1250000002440785  0.6249999982914289  0.3973486452223582   F   F   F
  0.1250000002440785  0.8749999987795931  0.3973486452223582   F   F   F
  0.3749999997559215  0.1249999992677573  0.3973486452223582   F   F   F
  0.3749999997559215  0.3749999997559215  0.3973486452223582   F   F   F
  0.3749999997559215  0.6249999982914289  0.3973486452223582   F   F   F
  0.3749999997559215  0.8749999987795931  0.3973486452223582   F   F   F
  0.6249999982914289  0.1249999992677573  0.3973486452223582   F   F   F
  0.6249999982914289  0.3749999997559215  0.3973486452223582   F   F   F
  0.6249999992677573  0.6249999982914289  0.3973486452223582   F   F   F
  0.6249999992677573  0.8749999987795931  0.3973486452223582   F   F   F
  0.8749999987795931  0.1249999992677573  0.3973486452223582   F   F   F
  0.8749999978032648  0.3749999997559215  0.3973486452223582   F   F   F
  0.8749999987795931  0.6249999982914289  0.3973486452223582   F   F   F
  0.8749999987795931  0.8749999987795931  0.3973486452223582   F   F   F
  0.5308464492202645  0.3728650935127735  0.6456428258274911   T   T   T
  0.6271232951304346  0.4691007536049595  0.6456376951766576   T   T   T
  0.4690990591543106  0.6271715923704643  0.6456559714864528   T   T   T
  0.3728581949833777  0.5309791267357857  0.6456275423268556   T   T   T
  0.5977759787819352  0.5977963392828930  0.6391255725956980   T   T   T
  0.4021969657065044  0.4022553004091141  0.6391128870236942   T   T   T
  0.2486599113588179  0.5584623491203398  0.6619477859583873   T   T   T
  0.4416226792730660  0.7513618018144236  0.6619532528415981   T   T   T
  0.5583725575976848  0.2486249746708388  0.6619364878895048   T   T   T
  0.7513577485174598  0.4415582653530145  0.6619486583953235   T   T   T
 
  0.00000000E+00  0.00000000E+00  0.00000000E+00
  0.00000000E+00  0.00000000E+00  0.00000000E+00
  0.00000000E+00  0.00000000E+00  0.00000000E+00
  0.00000000E+00  0.00000000E+00  0.00000000E+00
  0.00000000E+00  0.00000000E+00  0.00000000E+00
  0.00000000E+00  0.00000000E+00  0.00000000E+00
  0.00000000E+00  0.00000000E+00  0.00000000E+00
  0.00000000E+00  0.00000000E+00  0.00000000E+00
  0.00000000E+00  0.00000000E+00  0.00000000E+00
  0.00000000E+00  0.00000000E+00  0.00000000E+00
  0.00000000E+00  0.00000000E+00  0.00000000E+00
  0.00000000E+00  0.00000000E+00  0.00000000E+00
  0.00000000E+00  0.00000000E+00  0.00000000E+00
  0.00000000E+00  0.00000000E+00  0.00000000E+00
  0.00000000E+00  0.00000000E+00  0.00000000E+00
  0.00000000E+00  0.00000000E+00  0.00000000E+00
  0.00000000E+00  0.00000000E+00  0.00000000E+00
  0.00000000E+00  0.00000000E+00  0.00000000E+00
  0.00000000E+00  0.00000000E+00  0.00000000E+00
  0.00000000E+00  0.00000000E+00  0.00000000E+00
  0.00000000E+00  0.00000000E+00  0.00000000E+00
  0.00000000E+00  0.00000000E+00  0.00000000E+00
  0.00000000E+00  0.00000000E+00  0.00000000E+00
  0.00000000E+00  0.00000000E+00  0.00000000E+00
  0.00000000E+00  0.00000000E+00  0.00000000E+00
  0.00000000E+00  0.00000000E+00  0.00000000E+00
  0.00000000E+00  0.00000000E+00  0.00000000E+00
  0.00000000E+00  0.00000000E+00  0.00000000E+00
  0.00000000E+00  0.00000000E+00  0.00000000E+00
  0.00000000E+00  0.00000000E+00  0.00000000E+00
  0.00000000E+00  0.00000000E+00  0.00000000E+00
  0.00000000E+00  0.00000000E+00  0.00000000E+00
  0.00000000E+00  0.00000000E+00  0.00000000E+00
  0.00000000E+00  0.00000000E+00  0.00000000E+00
  0.00000000E+00  0.00000000E+00  0.00000000E+00
  0.00000000E+00  0.00000000E+00  0.00000000E+00
  0.00000000E+00  0.00000000E+00  0.00000000E+00
  0.00000000E+00  0.00000000E+00  0.00000000E+00
  0.00000000E+00  0.00000000E+00  0.00000000E+00
  0.00000000E+00  0.00000000E+00  0.00000000E+00
  0.00000000E+00  0.00000000E+00  0.00000000E+00
  0.00000000E+00  0.00000000E+00  0.00000000E+00
  0.00000000E+00  0.00000000E+00  0.00000000E+00
  0.00000000E+00  0.00000000E+00  0.00000000E+00
  0.00000000E+00  0.00000000E+00  0.00000000E+00
  0.00000000E+00  0.00000000E+00  0.00000000E+00
  0.00000000E+00  0.00000000E+00  0.00000000E+00
  0.00000000E+00  0.00000000E+00  0.00000000E+00
  0.00000000E+00  0.00000000E+00  0.00000000E+00
  0.00000000E+00  0.00000000E+00  0.00000000E+00
  0.00000000E+00  0.00000000E+00  0.00000000E+00
  0.00000000E+00  0.00000000E+00  0.00000000E+00
  0.00000000E+00  0.00000000E+00  0.00000000E+00
  0.00000000E+00  0.00000000E+00  0.00000000E+00
  0.00000000E+00  0.00000000E+00  0.00000000E+00
  0.00000000E+00  0.00000000E+00  0.00000000E+00
  0.00000000E+00  0.00000000E+00  0.00000000E+00
  0.00000000E+00  0.00000000E+00  0.00000000E+00
  0.00000000E+00  0.00000000E+00  0.00000000E+00
  0.00000000E+00  0.00000000E+00  0.00000000E+00
  0.00000000E+00  0.00000000E+00  0.00000000E+00
  0.00000000E+00  0.00000000E+00  0.00000000E+00
  0.00000000E+00  0.00000000E+00  0.00000000E+00
  0.00000000E+00  0.00000000E+00  0.00000000E+00
  0.00000000E+00  0.00000000E+00  0.00000000E+00
  0.00000000E+00  0.00000000E+00  0.00000000E+00
  0.00000000E+00  0.00000000E+00  0.00000000E+00
  0.00000000E+00  0.00000000E+00  0.00000000E+00
  0.00000000E+00  0.00000000E+00  0.00000000E+00
  0.00000000E+00  0.00000000E+00  0.00000000E+00
  0.00000000E+00  0.00000000E+00  0.00000000E+00
  0.00000000E+00  0.00000000E+00  0.00000000E+00
  0.00000000E+00  0.00000000E+00  0.00000000E+00
  0.00000000E+00  0.00000000E+00  0.00000000E+00
