Rh48 C6 F6                              
    1.000000000000000     
    10.8856652999999994    0.0000000000000000    0.0000000000000000
     0.0000000000000000   15.3946555000000007    0.0000000000000000
     0.0000000000000000    0.0000000000000000   15.4457957300000004
   Rh   C    F 
    48     6     6
Selective dynamics
Direct
  0.2497123677400594  0.2498239038330254  0.4028907345353474   T   T   T
  0.2503967874099260  0.5001376933464101  0.4035045441530229   T   T   T
  0.2498492436749302  0.7500540236954620  0.4029467418910642   T   T   T
  0.2499243469862478  0.9999941017645781  0.4030298067679894   T   T   T
  0.4998943894861156  0.2496747932005476  0.4028294886169803   T   T   T
  0.5000000009186394  0.5000000012991492  0.4027292535105360   T   T   T
  0.5001056123511631  0.7503252087481798  0.4028294886169803   T   T   T
  0.5000000009186394  0.0000000019487274  0.4031661020705783   T   T   T
  0.7501507581623414  0.2499459782532654  0.4029467418910642   T   T   T
  0.7496032144273457  0.4998623092518883  0.4035045441530229   T   T   T
  0.7502876340972122  0.7501760981157020  0.4028907345353474   T   T   T
  0.7500756548510310  0.0000059021328767  0.4030298067679894   T   T   T
  0.9999377143298531  0.2501107056867795  0.4031262616081577   T   T   T
  0.0000000018372788  0.5000000012991492  0.4031298614915499   T   T   T
  0.0000622893447044  0.7498892962619479  0.4031262616081577   T   T   T
  0.0000000018372788  0.0000000019487274  0.4030182354465950   T   T   T
  0.1249094460540547  0.1249770705695141  0.4821907891964585   T   T   T
  0.1248809104032560  0.3751653227532472  0.4821874795312979   T   T   T
  0.1252198723073121  0.6248021490096320  0.4822803465427299   T   T   T
  0.1249158092670513  0.8750079794712136  0.4821831053628003   T   T   T
  0.3748222392968970  0.1249751653894435  0.4821991847783735   T   T   T
  0.3742933645399518  0.3742678726171462  0.4821454695139948   T   T   T
  0.3753543345197201  0.6258200533453930  0.4822592408354609   T   T   T
  0.3747830156971759  0.8749887164145207  0.4821940700034872   T   T   T
  0.6252169861401029  0.1250112855342067  0.4821940700034872   T   T   T
  0.6246456682361980  0.3741799486033344  0.4822592408354609   T   T   T
  0.6257066382159664  0.6257321293315812  0.4821454695139948   T   T   T
  0.6251777616217424  0.8750248365592839  0.4821991847783735   T   T   T
  0.8750841925702275  0.1249920224775138  0.4821831053628003   T   T   T
  0.8747801295299666  0.3751978529390954  0.4822803465427299   T   T   T
  0.8751190923526622  0.6248346791954802  0.4821874795312979   T   T   T
  0.8750905548645846  0.8750229313792133  0.4821907891964585   T   T   T
  0.1249999997703384  0.1250000001623945  0.3237126845002010   F   F   F
  0.1249999997703384  0.3750000004871836  0.3237126845002010   F   F   F
  0.1250000006889778  0.6250000014615438  0.3237126845002010   F   F   F
  0.1250000006889778  0.8750000017863329  0.3237126845002010   F   F   F
  0.3750000002296616  0.1250000001623945  0.3237126845002010   F   F   F
  0.3750000002296616  0.3750000004871836  0.3237126845002010   F   F   F
  0.3750000011483010  0.6250000014615438  0.3237126845002010   F   F   F
  0.3750000011483010  0.8750000017863329  0.3237126845002010   F   F   F
  0.6250000006889778  0.1250000001623945  0.3237126845002010   F   F   F
  0.6250000006889778  0.3750000004871836  0.3237126845002010   F   F   F
  0.6250000006889778  0.6250000014615438  0.3237126845002010   F   F   F
  0.6250000006889778  0.8750000017863329  0.3237126845002010   F   F   F
  0.8750000011483010  0.1250000001623945  0.3237126845002010   F   F   F
  0.8750000011483010  0.3750000004871836  0.3237126845002010   F   F   F
  0.8750000020669404  0.6250000014615438  0.3237126845002010   F   F   F
  0.8750000011483010  0.8750000017863329  0.3237126845002010   F   F   F
  0.6280558878627289  0.4917436350735755  0.6744233412225711   T   T   T
  0.5538694425966497  0.4178351254891339  0.6738152886469067   T   T   T
  0.4260471937330408  0.4261680785095336  0.6739738949871352   T   T   T
  0.3719441415337243  0.5082563798666726  0.6744233412225711   T   T   T
  0.4461305335187333  0.5821648634680727  0.6738152886469067   T   T   T
  0.5739528090228774  0.5738319234392009  0.6739738949871352   T   T   T
  0.7511750489902624  0.4837599703758002  0.6768603613696555   T   T   T
  0.6060084629280595  0.3382859837006862  0.6778090253349518   T   T   T
  0.3544840209377895  0.3544259613596594  0.6770690608684049   T   T   T
  0.2488249537656557  0.5162400315729272  0.6768603613696555   T   T   T
  0.3939914718485511  0.6617139968120256  0.6778090253349518   T   T   T
  0.6455159560962258  0.6455740275975472  0.6770690608684049   T   T   T
 
  0.00000000E+00  0.00000000E+00  0.00000000E+00
  0.00000000E+00  0.00000000E+00  0.00000000E+00
  0.00000000E+00  0.00000000E+00  0.00000000E+00
  0.00000000E+00  0.00000000E+00  0.00000000E+00
  0.00000000E+00  0.00000000E+00  0.00000000E+00
  0.00000000E+00  0.00000000E+00  0.00000000E+00
  0.00000000E+00  0.00000000E+00  0.00000000E+00
  0.00000000E+00  0.00000000E+00  0.00000000E+00
  0.00000000E+00  0.00000000E+00  0.00000000E+00
  0.00000000E+00  0.00000000E+00  0.00000000E+00
  0.00000000E+00  0.00000000E+00  0.00000000E+00
  0.00000000E+00  0.00000000E+00  0.00000000E+00
  0.00000000E+00  0.00000000E+00  0.00000000E+00
  0.00000000E+00  0.00000000E+00  0.00000000E+00
  0.00000000E+00  0.00000000E+00  0.00000000E+00
  0.00000000E+00  0.00000000E+00  0.00000000E+00
  0.00000000E+00  0.00000000E+00  0.00000000E+00
  0.00000000E+00  0.00000000E+00  0.00000000E+00
  0.00000000E+00  0.00000000E+00  0.00000000E+00
  0.00000000E+00  0.00000000E+00  0.00000000E+00
  0.00000000E+00  0.00000000E+00  0.00000000E+00
  0.00000000E+00  0.00000000E+00  0.00000000E+00
  0.00000000E+00  0.00000000E+00  0.00000000E+00
  0.00000000E+00  0.00000000E+00  0.00000000E+00
  0.00000000E+00  0.00000000E+00  0.00000000E+00
  0.00000000E+00  0.00000000E+00  0.00000000E+00
  0.00000000E+00  0.00000000E+00  0.00000000E+00
  0.00000000E+00  0.00000000E+00  0.00000000E+00
  0.00000000E+00  0.00000000E+00  0.00000000E+00
  0.00000000E+00  0.00000000E+00  0.00000000E+00
  0.00000000E+00  0.00000000E+00  0.00000000E+00
  0.00000000E+00  0.00000000E+00  0.00000000E+00
  0.00000000E+00  0.00000000E+00  0.00000000E+00
  0.00000000E+00  0.00000000E+00  0.00000000E+00
  0.00000000E+00  0.00000000E+00  0.00000000E+00
  0.00000000E+00  0.00000000E+00  0.00000000E+00
  0.00000000E+00  0.00000000E+00  0.00000000E+00
  0.00000000E+00  0.00000000E+00  0.00000000E+00
  0.00000000E+00  0.00000000E+00  0.00000000E+00
  0.00000000E+00  0.00000000E+00  0.00000000E+00
  0.00000000E+00  0.00000000E+00  0.00000000E+00
  0.00000000E+00  0.00000000E+00  0.00000000E+00
  0.00000000E+00  0.00000000E+00  0.00000000E+00
  0.00000000E+00  0.00000000E+00  0.00000000E+00
  0.00000000E+00  0.00000000E+00  0.00000000E+00
  0.00000000E+00  0.00000000E+00  0.00000000E+00
  0.00000000E+00  0.00000000E+00  0.00000000E+00
  0.00000000E+00  0.00000000E+00  0.00000000E+00
  0.00000000E+00  0.00000000E+00  0.00000000E+00
  0.00000000E+00  0.00000000E+00  0.00000000E+00
  0.00000000E+00  0.00000000E+00  0.00000000E+00
  0.00000000E+00  0.00000000E+00  0.00000000E+00
  0.00000000E+00  0.00000000E+00  0.00000000E+00
  0.00000000E+00  0.00000000E+00  0.00000000E+00
  0.00000000E+00  0.00000000E+00  0.00000000E+00
  0.00000000E+00  0.00000000E+00  0.00000000E+00
  0.00000000E+00  0.00000000E+00  0.00000000E+00
  0.00000000E+00  0.00000000E+00  0.00000000E+00
  0.00000000E+00  0.00000000E+00  0.00000000E+00
  0.00000000E+00  0.00000000E+00  0.00000000E+00
