Pt  C  N  F                             
   1.00000000000000     
    11.2480069999999994    0.0000000000000000    0.0000000000000000
    -5.6240030000000001    9.7410599999999992    0.0000000000000000
     0.0000000000000000    0.0000000000000000   24.8879693399999979
   Pt   C    N    F 
    64     4     2     4
Selective dynamics
Direct
  0.9999999587182344  0.7499999743354451  0.3013504194553178   F   F   F
  0.2499999964438118  0.0000000000000000  0.3013504194553178   F   F   F
  0.2499999825579735  0.2499999917873410  0.3013504194553178   F   F   F
  0.2499999690478916  0.4999999825481041  0.3013504194553178   F   F   F
  0.2499999551620533  0.7499999743354451  0.3013504194553178   F   F   F
  0.4999999928876306  0.0000000000000000  0.3013504194553178   F   F   F
  0.4999999790017924  0.2499999917873410  0.3013504194553178   F   F   F
  0.4999999654917033  0.4999999825481041  0.3013504194553178   F   F   F
  0.7499999893314424  0.0000000000000000  0.3013504194553178   F   F   F
  0.7499999754456042  0.2499999917873410  0.3013504194553178   F   F   F
  0.7499999619355222  0.4999999825481041  0.3013504194553178   F   F   F
  0.7499999480496840  0.7499999743354451  0.3013504194553178   F   F   F
  0.0000000000000000  0.0000000000000000  0.3013504194553178   F   F   F
  0.9999999861141617  0.2499999917873410  0.3013504194553178   F   F   F
  0.9999999583793340  0.4999999825481041  0.3013504194553178   F   F   F
  0.4999999516058651  0.7499999743354451  0.3013504194553178   F   F   F
  0.0833330000000032  0.1666669999999968  0.3936034172243978   F   F   F
  0.0833330000000032  0.4166669999999968  0.3936034172243978   F   F   F
  0.0833330000000032  0.6666669999999968  0.3936034172243978   F   F   F
  0.0833330000000032  0.9166669999999968  0.3936034172243978   F   F   F
  0.3333330000000032  0.1666669999999968  0.3936034172243978   F   F   F
  0.3333330000000032  0.4166669999999968  0.3936034172243978   F   F   F
  0.3333330000000032  0.6666669999999968  0.3936034172243978   F   F   F
  0.3333330000000032  0.9166669999999968  0.3936034172243978   F   F   F
  0.5833330000000032  0.1666669999999968  0.3936034172243978   F   F   F
  0.5833330000000032  0.4166669999999968  0.3936034172243978   F   F   F
  0.5833330000000032  0.6666669999999968  0.3936034172243978   F   F   F
  0.5833330000000032  0.9166669999999968  0.3936034172243978   F   F   F
  0.8333330000000032  0.1666669999999968  0.3936034172243978   F   F   F
  0.8333330000000032  0.4166669999999968  0.3936034172243978   F   F   F
  0.8333330000000032  0.6666669999999968  0.3936034172243978   F   F   F
  0.8333330000000032  0.9166669999999968  0.3936034172243978   F   F   F
  0.2452455198164902  0.2456208564569124  0.5779860228181110   T   T   T
  0.2433721794420929  0.4984568045356428  0.5769191079018887   T   T   T
  0.2497750769053829  0.7499278912828919  0.5786999330486989   T   T   T
  0.2505432644219158  0.9994645483691843  0.5784455144367551   T   T   T
  0.4973207335401633  0.2434658283616809  0.5769526356817699   T   T   T
  0.4894343563736301  0.4902996153468186  0.5830101870204528   T   T   T
  0.4992509675731387  0.7507493254503419  0.5839903329042097   T   T   T
  0.5000799524289019  0.0002446781314649  0.5786946228359217   T   T   T
  0.7498693653807106  0.2507737618541223  0.5785264706331869   T   T   T
  0.7492431560293127  0.5007596110804646  0.5833787902600583   T   T   T
  0.7597324242181682  0.7605463140332934  0.5830144053519121   T   T   T
  0.7515405803709028  0.0066207818375525  0.5769150830010603   T   T   T
  0.9991016977854503  0.2508955843833258  0.5783249913632569   T   T   T
  0.9992260685025394  0.5001292145168836  0.5785270532792872   T   T   T
  0.0065445287212612  0.7526885188575646  0.5769481551618399   T   T   T
  0.0043648938437861  0.0047357422741285  0.5779877418158528   T   T   T
  0.1675094643343653  0.0824868833602640  0.4843728985436837   T   T   T
  0.1662780982837331  0.3328812609539958  0.4846569676671053   T   T   T
  0.1659866657961908  0.5838256772228202  0.4845350651776674   T   T   T
  0.1678223120291112  0.8330468505608360  0.4842550655569492   T   T   T
  0.4169507494931881  0.0821851735836430  0.4842530044845161   T   T   T
  0.4176531729158917  0.3357441789792535  0.4861591698014339   T   T   T
  0.4180546727864366  0.5829477170681335  0.4872072325599203   T   T   T
  0.4196371716546993  0.8303612430978735  0.4873579034366762   T   T   T
  0.6661740187208207  0.0840135769536668  0.4845301067329983   T   T   T
  0.6674222827917651  0.3365475377906025  0.4865168859865678   T   T   T
  0.6656725472499136  0.5843202761021277  0.4879578637065481   T   T   T
  0.6670454845706348  0.8319405151446395  0.4872080978598160   T   T   T
  0.9171195414143346  0.0837172860341614  0.4846580984108403   T   T   T
  0.9162326433950900  0.3337708608107554  0.4850971940636738   T   T   T
  0.9134541613604663  0.5825735402009498  0.4865199635869437   T   T   T
  0.9142589091907671  0.8323475090639456  0.4861612116603605   T   T   T
  0.4852975885974906  0.5602749667415936  0.6647643668088870   T   T   T
  0.5598476797183443  0.4856212321278335  0.6647986519701157   T   T   T
  0.7643646486263050  0.6901443838092020  0.6648004790265373   T   T   T
  0.6897471377974014  0.7647005840725382  0.6647651236252223   T   T   T
  0.7011133190810620  0.5488751486802094  0.6640191073325049   T   T   T
  0.5484207213031714  0.7015755253662695  0.6639955288771440   T   T   T
  0.7519540629191386  0.8903980836740703  0.6883083823033265   T   T   T
  0.8899532362147898  0.7523522557185283  0.6883673822398585   T   T   T
  0.3596054803991556  0.4980661518755798  0.6883129671157420   T   T   T
  0.4976291489862674  0.3600411160099405  0.6883590342238840   T   T   T
 
  0.00000000E+00  0.00000000E+00  0.00000000E+00
  0.00000000E+00  0.00000000E+00  0.00000000E+00
  0.00000000E+00  0.00000000E+00  0.00000000E+00
  0.00000000E+00  0.00000000E+00  0.00000000E+00
  0.00000000E+00  0.00000000E+00  0.00000000E+00
  0.00000000E+00  0.00000000E+00  0.00000000E+00
  0.00000000E+00  0.00000000E+00  0.00000000E+00
  0.00000000E+00  0.00000000E+00  0.00000000E+00
  0.00000000E+00  0.00000000E+00  0.00000000E+00
  0.00000000E+00  0.00000000E+00  0.00000000E+00
  0.00000000E+00  0.00000000E+00  0.00000000E+00
  0.00000000E+00  0.00000000E+00  0.00000000E+00
  0.00000000E+00  0.00000000E+00  0.00000000E+00
  0.00000000E+00  0.00000000E+00  0.00000000E+00
  0.00000000E+00  0.00000000E+00  0.00000000E+00
  0.00000000E+00  0.00000000E+00  0.00000000E+00
  0.00000000E+00  0.00000000E+00  0.00000000E+00
  0.00000000E+00  0.00000000E+00  0.00000000E+00
  0.00000000E+00  0.00000000E+00  0.00000000E+00
  0.00000000E+00  0.00000000E+00  0.00000000E+00
  0.00000000E+00  0.00000000E+00  0.00000000E+00
  0.00000000E+00  0.00000000E+00  0.00000000E+00
  0.00000000E+00  0.00000000E+00  0.00000000E+00
  0.00000000E+00  0.00000000E+00  0.00000000E+00
  0.00000000E+00  0.00000000E+00  0.00000000E+00
  0.00000000E+00  0.00000000E+00  0.00000000E+00
  0.00000000E+00  0.00000000E+00  0.00000000E+00
  0.00000000E+00  0.00000000E+00  0.00000000E+00
  0.00000000E+00  0.00000000E+00  0.00000000E+00
  0.00000000E+00  0.00000000E+00  0.00000000E+00
  0.00000000E+00  0.00000000E+00  0.00000000E+00
  0.00000000E+00  0.00000000E+00  0.00000000E+00
  0.00000000E+00  0.00000000E+00  0.00000000E+00
  0.00000000E+00  0.00000000E+00  0.00000000E+00
  0.00000000E+00  0.00000000E+00  0.00000000E+00
  0.00000000E+00  0.00000000E+00  0.00000000E+00
  0.00000000E+00  0.00000000E+00  0.00000000E+00
  0.00000000E+00  0.00000000E+00  0.00000000E+00
  0.00000000E+00  0.00000000E+00  0.00000000E+00
  0.00000000E+00  0.00000000E+00  0.00000000E+00
  0.00000000E+00  0.00000000E+00  0.00000000E+00
  0.00000000E+00  0.00000000E+00  0.00000000E+00
  0.00000000E+00  0.00000000E+00  0.00000000E+00
  0.00000000E+00  0.00000000E+00  0.00000000E+00
  0.00000000E+00  0.00000000E+00  0.00000000E+00
  0.00000000E+00  0.00000000E+00  0.00000000E+00
  0.00000000E+00  0.00000000E+00  0.00000000E+00
  0.00000000E+00  0.00000000E+00  0.00000000E+00
  0.00000000E+00  0.00000000E+00  0.00000000E+00
  0.00000000E+00  0.00000000E+00  0.00000000E+00
  0.00000000E+00  0.00000000E+00  0.00000000E+00
  0.00000000E+00  0.00000000E+00  0.00000000E+00
  0.00000000E+00  0.00000000E+00  0.00000000E+00
  0.00000000E+00  0.00000000E+00  0.00000000E+00
  0.00000000E+00  0.00000000E+00  0.00000000E+00
  0.00000000E+00  0.00000000E+00  0.00000000E+00
  0.00000000E+00  0.00000000E+00  0.00000000E+00
  0.00000000E+00  0.00000000E+00  0.00000000E+00
  0.00000000E+00  0.00000000E+00  0.00000000E+00
  0.00000000E+00  0.00000000E+00  0.00000000E+00
  0.00000000E+00  0.00000000E+00  0.00000000E+00
  0.00000000E+00  0.00000000E+00  0.00000000E+00
  0.00000000E+00  0.00000000E+00  0.00000000E+00
  0.00000000E+00  0.00000000E+00  0.00000000E+00
  0.00000000E+00  0.00000000E+00  0.00000000E+00
  0.00000000E+00  0.00000000E+00  0.00000000E+00
  0.00000000E+00  0.00000000E+00  0.00000000E+00
  0.00000000E+00  0.00000000E+00  0.00000000E+00
  0.00000000E+00  0.00000000E+00  0.00000000E+00
  0.00000000E+00  0.00000000E+00  0.00000000E+00
  0.00000000E+00  0.00000000E+00  0.00000000E+00
  0.00000000E+00  0.00000000E+00  0.00000000E+00
  0.00000000E+00  0.00000000E+00  0.00000000E+00
  0.00000000E+00  0.00000000E+00  0.00000000E+00
