Ir  C  H Cl                             
    1.000000000000000     
    10.9622135000000007    0.0000000000000000    0.0000000000000000
     0.0000000000000000   15.5029109999999992    0.0000000000000000
     0.0000000000000000    0.0000000000000000   22.1108300437499992
   Ir   C    H    Cl
    64     6     4     2
Selective dynamics
Direct
  0.2499999995438884  0.0000000000000000  0.3392002916742598   F   F   F
  0.9999999981755536  0.4999999993549622  0.3392002916742598   F   F   F
  0.2499999995438884  0.2499999993549622  0.3392002916742598   F   F   F
  0.2499999995438884  0.4999999993549622  0.3392002916742598   F   F   F
  0.2499999995438884  0.7499999987099173  0.3392002916742598   F   F   F
  0.4999999990877768  0.0000000000000000  0.3392002916742598   F   F   F
  0.4999999990877768  0.2499999993549622  0.3392002916742598   F   F   F
  0.4999999990877768  0.4999999993549622  0.3392002916742598   F   F   F
  0.4999999990877768  0.7499999987099173  0.3392002916742598   F   F   F
  0.7499999986316652  0.0000000000000000  0.3392002916742598   F   F   F
  0.7499999986316652  0.2499999993549622  0.3392002916742598   F   F   F
  0.7499999986316652  0.4999999993549622  0.3392002916742598   F   F   F
  0.0000000000000000  0.0000000000000000  0.3392002916742598   F   F   F
  0.9999999981755536  0.2499999993549622  0.3392002916742598   F   F   F
  0.9999999981755536  0.7499999987099173  0.3392002916742598   F   F   F
  0.7499999986316652  0.7499999987099173  0.3392002916742598   F   F   F
  0.2501272160091489  0.0000307236755455  0.4632426813267487   T   T   T
  0.2503974178813515  0.2504755804229998  0.4631239743537501   T   T   T
  0.2492607196149369  0.4998360001688272  0.4609461080665859   T   T   T
  0.2524487495502479  0.7475898807149496  0.4643350692534359   T   T   T
  0.4999536682339738 -0.0000102375315403  0.4632560025254358   T   T   T
  0.4997904564298761  0.2515735983279938  0.4629421618333004   T   T   T
  0.5000066377357608  0.4999848781965140  0.4604200763874376   T   T   T
  0.5001506127441994  0.7484294416885615  0.4629065297162981   T   T   T
  0.7498750377148300 -0.0000539056025519  0.4631943132523466   T   T   T
  0.7475619234384446  0.2524240123641548  0.4643259493866682   T   T   T
  0.7507359231987148  0.5001602539942286  0.4609229974949575   T   T   T
  0.7495969662635352  0.7495430800080317  0.4631533201978603   T   T   T
 -0.0000128125231556  0.0000034006711508  0.4634059937033438   T   T   T
  0.9991022385488851  0.2502912086348585  0.4626878271634455   T   T   T
 -0.0000184716975362  0.4999881135752384  0.4632612944295071   T   T   T
  0.0008366604864478  0.7496847143794850  0.4626958959697060   T   T   T
  0.1247059012161365  0.1256533104539435  0.5198620187926106   T   T   T
  0.1221093126376368  0.3749754511566959  0.5201468330662996   T   T   T
  0.1237863112201827  0.6245678415856728  0.5200914658862285   T   T   T
  0.1253994927481069  0.8743213375156313  0.5199395146117016   T   T   T
  0.3751584661887782  0.1256322698380156  0.5200218371465436   T   T   T
  0.3702102895602198  0.3763464450000405  0.5213104734182505   T   T   T
  0.3763890568376631  0.6167105048505844  0.5253704264832825   T   T   T
  0.3750789793616419  0.8744066298695953  0.5197260054527824   T   T   T
  0.6248997876114637  0.1256350297838550  0.5197223042074980   T   T   T
  0.6237575464711930  0.3833392131654386  0.5253757722166102   T   T   T
  0.6298496625502078  0.6236818485437334  0.5213575749115408   T   T   T
  0.6248535385480748  0.8743910486994920  0.5199698457462740   T   T   T
  0.8746048152870957  0.1257035630923222  0.5199452936233917   T   T   T
  0.8762852447172111  0.3754377606923903  0.5201150633431886   T   T   T
  0.8778698242764614  0.6250001703444290  0.5201597853477506   T   T   T
  0.8752507719425131  0.8743156717127415  0.5198819922314780   T   T   T
  0.1249999993158326  0.1249999996774775  0.4011733916681877   F   F   F
  0.1249999993158326  0.3749999996774775  0.4011733916681877   F   F   F
  0.1250000002280558  0.6249999990324397  0.4011733916681877   F   F   F
  0.1250000002280558  0.8749999983874019  0.4011733916681877   F   F   F
  0.3749999988597210  0.1249999996774775  0.4011733916681877   F   F   F
  0.3749999997719442  0.3749999996774775  0.4011733916681877   F   F   F
  0.3749999997719442  0.6249999990324397  0.4011733916681877   F   F   F
  0.3749999997719442  0.8749999983874019  0.4011733916681877   F   F   F
  0.6249999993158326  0.1249999996774775  0.4011733916681877   F   F   F
  0.6249999984036094  0.3749999996774775  0.4011733916681877   F   F   F
  0.6249999993158326  0.6249999990324397  0.4011733916681877   F   F   F
  0.6249999993158326  0.8749999983874019  0.4011733916681877   F   F   F
  0.8749999979474978  0.1249999996774775  0.4011733916681877   F   F   F
  0.8749999988597210  0.3749999996774775  0.4011733916681877   F   F   F
  0.8749999988597210  0.6249999990324397  0.4011733916681877   F   F   F
  0.8749999988597210  0.8749999983874019  0.4011733916681877   F   F   F
  0.6038743334266191  0.5618825586522779  0.6034242256419110   T   T   T
  0.6258281235401814  0.4656789897602564  0.6059871638481250   T   T   T
  0.5247200599003249  0.4075251435736174  0.6116132493970602   T   T   T
  0.3963530448913947  0.4381342704065871  0.6033564481696739   T   T   T
  0.3744057341840883  0.5343371347023982  0.6059369203178686   T   T   T
  0.4755443014558924  0.5925166974491164  0.6116131030879439   T   T   T
  0.7101459470023614  0.4487363433688279  0.6293937783754617   T   T   T
  0.5353031727346299  0.3485204363046154  0.6379853832655544   T   T   T
  0.2902009919756530  0.5512268997527863  0.6294200539290701   T   T   T
  0.4650376877881501  0.6515023475667614  0.6380504762939393   T   T   T
  0.7047209114912255  0.6150019366577910  0.6570410187863172   T   T   T
  0.2953940987637384  0.3849194308330417  0.6570464755938874   T   T   T
 
  0.00000000E+00  0.00000000E+00  0.00000000E+00
  0.00000000E+00  0.00000000E+00  0.00000000E+00
  0.00000000E+00  0.00000000E+00  0.00000000E+00
  0.00000000E+00  0.00000000E+00  0.00000000E+00
  0.00000000E+00  0.00000000E+00  0.00000000E+00
  0.00000000E+00  0.00000000E+00  0.00000000E+00
  0.00000000E+00  0.00000000E+00  0.00000000E+00
  0.00000000E+00  0.00000000E+00  0.00000000E+00
  0.00000000E+00  0.00000000E+00  0.00000000E+00
  0.00000000E+00  0.00000000E+00  0.00000000E+00
  0.00000000E+00  0.00000000E+00  0.00000000E+00
  0.00000000E+00  0.00000000E+00  0.00000000E+00
  0.00000000E+00  0.00000000E+00  0.00000000E+00
  0.00000000E+00  0.00000000E+00  0.00000000E+00
  0.00000000E+00  0.00000000E+00  0.00000000E+00
  0.00000000E+00  0.00000000E+00  0.00000000E+00
  0.00000000E+00  0.00000000E+00  0.00000000E+00
  0.00000000E+00  0.00000000E+00  0.00000000E+00
  0.00000000E+00  0.00000000E+00  0.00000000E+00
  0.00000000E+00  0.00000000E+00  0.00000000E+00
  0.00000000E+00  0.00000000E+00  0.00000000E+00
  0.00000000E+00  0.00000000E+00  0.00000000E+00
  0.00000000E+00  0.00000000E+00  0.00000000E+00
  0.00000000E+00  0.00000000E+00  0.00000000E+00
  0.00000000E+00  0.00000000E+00  0.00000000E+00
  0.00000000E+00  0.00000000E+00  0.00000000E+00
  0.00000000E+00  0.00000000E+00  0.00000000E+00
  0.00000000E+00  0.00000000E+00  0.00000000E+00
  0.00000000E+00  0.00000000E+00  0.00000000E+00
  0.00000000E+00  0.00000000E+00  0.00000000E+00
  0.00000000E+00  0.00000000E+00  0.00000000E+00
  0.00000000E+00  0.00000000E+00  0.00000000E+00
  0.00000000E+00  0.00000000E+00  0.00000000E+00
  0.00000000E+00  0.00000000E+00  0.00000000E+00
  0.00000000E+00  0.00000000E+00  0.00000000E+00
  0.00000000E+00  0.00000000E+00  0.00000000E+00
  0.00000000E+00  0.00000000E+00  0.00000000E+00
  0.00000000E+00  0.00000000E+00  0.00000000E+00
  0.00000000E+00  0.00000000E+00  0.00000000E+00
  0.00000000E+00  0.00000000E+00  0.00000000E+00
  0.00000000E+00  0.00000000E+00  0.00000000E+00
  0.00000000E+00  0.00000000E+00  0.00000000E+00
  0.00000000E+00  0.00000000E+00  0.00000000E+00
  0.00000000E+00  0.00000000E+00  0.00000000E+00
  0.00000000E+00  0.00000000E+00  0.00000000E+00
  0.00000000E+00  0.00000000E+00  0.00000000E+00
  0.00000000E+00  0.00000000E+00  0.00000000E+00
  0.00000000E+00  0.00000000E+00  0.00000000E+00
  0.00000000E+00  0.00000000E+00  0.00000000E+00
  0.00000000E+00  0.00000000E+00  0.00000000E+00
  0.00000000E+00  0.00000000E+00  0.00000000E+00
  0.00000000E+00  0.00000000E+00  0.00000000E+00
  0.00000000E+00  0.00000000E+00  0.00000000E+00
  0.00000000E+00  0.00000000E+00  0.00000000E+00
  0.00000000E+00  0.00000000E+00  0.00000000E+00
  0.00000000E+00  0.00000000E+00  0.00000000E+00
  0.00000000E+00  0.00000000E+00  0.00000000E+00
  0.00000000E+00  0.00000000E+00  0.00000000E+00
  0.00000000E+00  0.00000000E+00  0.00000000E+00
  0.00000000E+00  0.00000000E+00  0.00000000E+00
  0.00000000E+00  0.00000000E+00  0.00000000E+00
  0.00000000E+00  0.00000000E+00  0.00000000E+00
  0.00000000E+00  0.00000000E+00  0.00000000E+00
  0.00000000E+00  0.00000000E+00  0.00000000E+00
  0.00000000E+00  0.00000000E+00  0.00000000E+00
  0.00000000E+00  0.00000000E+00  0.00000000E+00
  0.00000000E+00  0.00000000E+00  0.00000000E+00
  0.00000000E+00  0.00000000E+00  0.00000000E+00
  0.00000000E+00  0.00000000E+00  0.00000000E+00
  0.00000000E+00  0.00000000E+00  0.00000000E+00
  0.00000000E+00  0.00000000E+00  0.00000000E+00
  0.00000000E+00  0.00000000E+00  0.00000000E+00
  0.00000000E+00  0.00000000E+00  0.00000000E+00
  0.00000000E+00  0.00000000E+00  0.00000000E+00
  0.00000000E+00  0.00000000E+00  0.00000000E+00
  0.00000000E+00  0.00000000E+00  0.00000000E+00
