Ir48 C4 N2 F4                           
    1.000000000000000     
    10.9622135000000007    0.0000000000000000    0.0000000000000000
     0.0000000000000000   10.9622135000000007    0.0000000000000000
     0.0000000000000000    0.0000000000000000   16.7325000400000015
   Ir   C    N    F 
    48     4     2     4
Selective dynamics
Direct
 -0.0010059638422561  0.2494669996938147  0.4096525192242941   T   T   T
 -0.0000007954589158  0.5000010775277450  0.4099381210194604   T   T   T
  0.0010046167335560  0.7505353042566156  0.4096531761593360   T   T   T
 -0.0000015036467339  0.0000005929138709  0.4103500291861393   T   T   T
  0.2501648979821077  0.2501659686902902  0.4106976451762802   T   T   T
  0.2506917024026893  0.4994704221928041  0.4103608776561137   T   T   T
  0.2523368171925408  0.7476665321699475  0.4123928028531024   T   T   T
  0.2494671237100885 -0.0010048882975988  0.4096530321806989   T   T   T
  0.4994724712085020  0.2506926173417885  0.4103619839437311   T   T   T
  0.5000037243009811  0.4999967780995017  0.4109894575922867   T   T   T
  0.5005289544107255  0.7493135829992185  0.4103603591595795   T   T   T
  0.5000003556676370  0.0000009499406092  0.4099371712864007   T   T   T
  0.7476590421451390  0.2523401556343918  0.4123936363835373   T   T   T
  0.7493066795249438  0.5005273070492053  0.4103609809203930   T   T   T
  0.7498347173977924  0.7498368268853683  0.4106968959641290   T   T   T
  0.7505309451691082  0.0010069431303653  0.4096517348971452   T   T   T
  0.1248549279271955  0.1248571947231784  0.5219581210195925   T   T   T
  0.1226128477016350  0.3744119364570517  0.5216114654165814   T   T   T
  0.1235578721285632  0.6244674601560217  0.5225202830997576   T   T   T
  0.1249457010408899  0.8750510518442065  0.5218947815634647   T   T   T
  0.3744070133590565  0.1226133753312862  0.5216082681051307   T   T   T
  0.3726232664657849  0.3726271306971928  0.5227393640760262   T   T   T
  0.3743311011996421  0.6256670993796163  0.5313115034940618   T   T   T
  0.3755336273212290  0.8764428645581528  0.5225179381696452   T   T   T
  0.6244645606542865  0.1235570718569896  0.5225217672146208   T   T   T
  0.6256690819527554  0.3743270031205598  0.5313135085674504   T   T   T
  0.6273758420706899  0.6273730713083391  0.5227380926750869   T   T   T
  0.6255915462687984  0.8773898256916849  0.5216089227960589   T   T   T
  0.8750524712150908  0.1249481795748964  0.5218967037116973   T   T   T
  0.8764430705282110  0.3755358769554995  0.5225229527326981   T   T   T
  0.8773907326324437  0.6255940233038862  0.5216102003258422   T   T   T
  0.8751431996923313  0.8751450576404844  0.5219559264954639   T   T   T
  0.1250000002280558  0.1250000002280558  0.2988196616194330   F   F   F
  0.1250000002280558  0.3749999997719442  0.2988196616194330   F   F   F
  0.1250000002280558  0.6249999993158326  0.2988196616194330   F   F   F
  0.1250000002280558  0.8749999988597210  0.2988196616194330   F   F   F
  0.3749999997719442  0.1250000002280558  0.2988196616194330   F   F   F
  0.3749999997719442  0.3749999997719442  0.2988196616194330   F   F   F
  0.3749999997719442  0.6249999993158326  0.2988196616194330   F   F   F
  0.3749999997719442  0.8749999988597210  0.2988196616194330   F   F   F
  0.6249999993158326  0.1250000002280558  0.2988196616194330   F   F   F
  0.6249999993158326  0.3749999997719442  0.2988196616194330   F   F   F
  0.6249999993158326  0.6249999993158326  0.2988196616194330   F   F   F
  0.6249999993158326  0.8749999988597210  0.2988196616194330   F   F   F
  0.8749999988597210  0.1250000002280558  0.2988196616194330   F   F   F
  0.8749999988597210  0.3749999997719442  0.2988196616194330   F   F   F
  0.8749999988597210  0.6249999993158326  0.2988196616194330   F   F   F
  0.8749999988597210  0.8749999988597210  0.2988196616194330   F   F   F
  0.5300365978058176  0.3763082318377990  0.6467379860856034   T   T   T
  0.6236850252070789  0.4699394762737127  0.6467358511535225   T   T   T
  0.4699757425924229  0.6236628095982305  0.6467247856938383   T   T   T
  0.3763419234858753  0.5300449102607692  0.6467246837606143   T   T   T
  0.5936850892906391  0.5936794403060095  0.6423796270964689   T   T   T
  0.4063157443108062  0.4063123789533175  0.6423779456608081   T   T   T
  0.2729590075251608  0.5512394205267327  0.6905065261830525   T   T   T
  0.4487853667734841  0.7270488295378896  0.6905009058963810   T   T   T
  0.5512173974809202  0.2729445941069785  0.6905129780548724   T   T   T
  0.7270420784720069  0.4487546994518552  0.6905241930595556   T   T   T
 
  0.00000000E+00  0.00000000E+00  0.00000000E+00
  0.00000000E+00  0.00000000E+00  0.00000000E+00
  0.00000000E+00  0.00000000E+00  0.00000000E+00
  0.00000000E+00  0.00000000E+00  0.00000000E+00
  0.00000000E+00  0.00000000E+00  0.00000000E+00
  0.00000000E+00  0.00000000E+00  0.00000000E+00
  0.00000000E+00  0.00000000E+00  0.00000000E+00
  0.00000000E+00  0.00000000E+00  0.00000000E+00
  0.00000000E+00  0.00000000E+00  0.00000000E+00
  0.00000000E+00  0.00000000E+00  0.00000000E+00
  0.00000000E+00  0.00000000E+00  0.00000000E+00
  0.00000000E+00  0.00000000E+00  0.00000000E+00
  0.00000000E+00  0.00000000E+00  0.00000000E+00
  0.00000000E+00  0.00000000E+00  0.00000000E+00
  0.00000000E+00  0.00000000E+00  0.00000000E+00
  0.00000000E+00  0.00000000E+00  0.00000000E+00
  0.00000000E+00  0.00000000E+00  0.00000000E+00
  0.00000000E+00  0.00000000E+00  0.00000000E+00
  0.00000000E+00  0.00000000E+00  0.00000000E+00
  0.00000000E+00  0.00000000E+00  0.00000000E+00
  0.00000000E+00  0.00000000E+00  0.00000000E+00
  0.00000000E+00  0.00000000E+00  0.00000000E+00
  0.00000000E+00  0.00000000E+00  0.00000000E+00
  0.00000000E+00  0.00000000E+00  0.00000000E+00
  0.00000000E+00  0.00000000E+00  0.00000000E+00
  0.00000000E+00  0.00000000E+00  0.00000000E+00
  0.00000000E+00  0.00000000E+00  0.00000000E+00
  0.00000000E+00  0.00000000E+00  0.00000000E+00
  0.00000000E+00  0.00000000E+00  0.00000000E+00
  0.00000000E+00  0.00000000E+00  0.00000000E+00
  0.00000000E+00  0.00000000E+00  0.00000000E+00
  0.00000000E+00  0.00000000E+00  0.00000000E+00
  0.00000000E+00  0.00000000E+00  0.00000000E+00
  0.00000000E+00  0.00000000E+00  0.00000000E+00
  0.00000000E+00  0.00000000E+00  0.00000000E+00
  0.00000000E+00  0.00000000E+00  0.00000000E+00
  0.00000000E+00  0.00000000E+00  0.00000000E+00
  0.00000000E+00  0.00000000E+00  0.00000000E+00
  0.00000000E+00  0.00000000E+00  0.00000000E+00
  0.00000000E+00  0.00000000E+00  0.00000000E+00
  0.00000000E+00  0.00000000E+00  0.00000000E+00
  0.00000000E+00  0.00000000E+00  0.00000000E+00
  0.00000000E+00  0.00000000E+00  0.00000000E+00
  0.00000000E+00  0.00000000E+00  0.00000000E+00
  0.00000000E+00  0.00000000E+00  0.00000000E+00
  0.00000000E+00  0.00000000E+00  0.00000000E+00
  0.00000000E+00  0.00000000E+00  0.00000000E+00
  0.00000000E+00  0.00000000E+00  0.00000000E+00
  0.00000000E+00  0.00000000E+00  0.00000000E+00
  0.00000000E+00  0.00000000E+00  0.00000000E+00
  0.00000000E+00  0.00000000E+00  0.00000000E+00
  0.00000000E+00  0.00000000E+00  0.00000000E+00
  0.00000000E+00  0.00000000E+00  0.00000000E+00
  0.00000000E+00  0.00000000E+00  0.00000000E+00
  0.00000000E+00  0.00000000E+00  0.00000000E+00
  0.00000000E+00  0.00000000E+00  0.00000000E+00
  0.00000000E+00  0.00000000E+00  0.00000000E+00
  0.00000000E+00  0.00000000E+00  0.00000000E+00
