Ir48 C4 N2 F4
1.0
  10.9622135   0.          0.         
   0.         10.9622135   0.         
   0.          0.         16.73250004  
 Ir  C  N  F 
 48  4  2  4 
Selective dynamics
Cartesian
 0.         2.74055337 6.86625002   T  T  T 
 0.         5.48110674 6.86625002   T  T  T 
 0.         8.22166011 6.86625002   T  T  T 
 0.         0.         6.86625002   T  T  T 
 2.74055337 2.74055337 6.86625002   T  T  T 
 2.74055337 5.48110674 6.86625002   T  T  T 
 2.74055337 8.22166011 6.86625002   T  T  T 
 2.74055337 0.         6.86625002   T  T  T 
 5.48110674 2.74055337 6.86625002   T  T  T 
 5.48110674 5.48110674 6.86625002   T  T  T 
 5.48110674 8.22166011 6.86625002   T  T  T 
 5.48110674 0.         6.86625002   T  T  T 
 8.22166011 2.74055337 6.86625002   T  T  T 
 8.22166011 5.48110674 6.86625002   T  T  T 
 8.22166011 8.22166011 6.86625002   T  T  T 
 8.22166011 0.         6.86625002   T  T  T 
 1.37027669 1.37027669 8.73250004   T  T  T 
 1.37027669 4.11083006 8.73250004   T  T  T 
 1.37027669 6.85138343 8.73250004   T  T  T 
 1.37027669 9.5919368  8.73250004   T  T  T 
 4.11083006 1.37027669 8.73250004   T  T  T 
 4.11083006 4.11083006 8.73250004   T  T  T 
 4.11083006 6.85138343 8.73250004   T  T  T 
 4.11083006 9.5919368  8.73250004   T  T  T 
 6.85138343 1.37027669 8.73250004   T  T  T 
 6.85138343 4.11083006 8.73250004   T  T  T 
 6.85138343 6.85138343 8.73250004   T  T  T 
 6.85138343 9.5919368  8.73250004   T  T  T 
 9.5919368  1.37027669 8.73250004   T  T  T 
 9.5919368  4.11083006 8.73250004   T  T  T 
 9.5919368  6.85138343 8.73250004   T  T  T 
 9.5919368  9.5919368  8.73250004   T  T  T 
 1.37027669 1.37027669 5.           F  F  F 
 1.37027669 4.11083006 5.           F  F  F 
 1.37027669 6.85138343 5.           F  F  F 
 1.37027669 9.5919368  5.           F  F  F 
 4.11083006 1.37027669 5.           F  F  F 
 4.11083006 4.11083006 5.           F  F  F 
 4.11083006 6.85138343 5.           F  F  F 
 4.11083006 9.5919368  5.           F  F  F 
 6.85138343 1.37027669 5.           F  F  F 
 6.85138343 4.11083006 5.           F  F  F 
 6.85138343 6.85138343 5.           F  F  F 
 6.85138343 9.5919368  5.           F  F  F 
 9.5919368  1.37027669 5.           F  F  F 
 9.5919368  4.11083006 5.           F  F  F 
 9.5919368  6.85138343 5.           F  F  F 
 9.5919368 9.5919368 5.          F  F  F 
  5.78129322  4.18883242 10.73250004   T  T  T 
  6.77292044  5.18078047 10.73250004   T  T  T 
  5.18091522  6.77342229 10.73250004   T  T  T 
  4.18930469  5.78145041 10.73250004   T  T  T 
  6.46004735  6.46004735 10.73250004   T  T  T 
  4.50216614  4.50216614 10.73250004   T  T  T 
  2.88846488  6.11667526 10.73250004   T  T  T 
  4.84612665  8.07441551 10.73250004   T  T  T 
  6.1163932   2.88800183 10.73250004   T  T  T 
  8.07364008  4.84538895 10.73250004   T  T  T 
