Ir  C  H  F                             
    1.000000000000000     
    10.9622135000000007    0.0000000000000000    0.0000000000000000
     0.0000000000000000   15.5029109999999992    0.0000000000000000
     0.0000000000000000    0.0000000000000000   22.1108300437499992
   Ir   C    H    F 
    64     6     4     2
Selective dynamics
Direct
  0.2499999995438884  0.0000000000000000  0.3392002916742598   F   F   F
  0.9999999981755536  0.4999999993549622  0.3392002916742598   F   F   F
  0.2499999995438884  0.2499999993549622  0.3392002916742598   F   F   F
  0.2499999995438884  0.4999999993549622  0.3392002916742598   F   F   F
  0.2499999995438884  0.7499999987099173  0.3392002916742598   F   F   F
  0.4999999990877768  0.0000000000000000  0.3392002916742598   F   F   F
  0.4999999990877768  0.2499999993549622  0.3392002916742598   F   F   F
  0.4999999990877768  0.4999999993549622  0.3392002916742598   F   F   F
  0.4999999990877768  0.7499999987099173  0.3392002916742598   F   F   F
  0.7499999986316652  0.0000000000000000  0.3392002916742598   F   F   F
  0.7499999986316652  0.2499999993549622  0.3392002916742598   F   F   F
  0.7499999986316652  0.4999999993549622  0.3392002916742598   F   F   F
  0.0000000000000000  0.0000000000000000  0.3392002916742598   F   F   F
  0.9999999981755536  0.2499999993549622  0.3392002916742598   F   F   F
  0.9999999981755536  0.7499999987099173  0.3392002916742598   F   F   F
  0.7499999986316652  0.7499999987099173  0.3392002916742598   F   F   F
  0.2502033718442259  0.0000319606793855  0.4630996552912526   T   T   T
  0.2501784205590059  0.2506715108672636  0.4628225506952180   T   T   T
  0.2496317261291638  0.4996454858435874  0.4610000641935026   T   T   T
  0.2525391845477023  0.7476036038027396  0.4641982412464150   T   T   T
  0.4999306100760677  0.0000002911959213  0.4631353230740016   T   T   T
  0.4994423507260807  0.2521590625372394  0.4631420649426821   T   T   T
  0.4999931498665150  0.5000087382201452  0.4606913080116506   T   T   T
  0.5005593267580036  0.7478279663141738  0.4630957213539368   T   T   T
  0.7498105407445652 -0.0000581924224523  0.4631010560288688   T   T   T
  0.7474261179710815  0.2524010938437698  0.4642354067542007   T   T   T
  0.7504362860454065  0.5003363650640769  0.4609922318204629   T   T   T
  0.7498219817177840  0.7493671923520034  0.4628739063324011   T   T   T
  0.0000237081436255 -0.0000152788587092  0.4639936899084544   T   T   T
  0.9988387393187665  0.2504188969117898  0.4627514257811452   T   T   T
  0.0000107404768358  0.5000066093817687  0.4627627297746610   T   T   T
  0.0011538353157274  0.7496050015096423  0.4627665817886366   T   T   T
  0.1246842420725696  0.1257584404171811  0.5198835798868581   T   T   T
  0.1219663387671136  0.3749621065288073  0.5199834076458432   T   T   T
  0.1238694821459631  0.6243197152690259  0.5201384357837747   T   T   T
  0.1257275236799087  0.8743264158109418  0.5199375150963950   T   T   T
  0.3752679938623528  0.1258261234656460  0.5198575431206692   T   T   T
  0.3694288951918039  0.3767256736092012  0.5219566804748752   T   T   T
  0.3761780126823924  0.6168837138027798  0.5254937364820811   T   T   T
  0.3753605167473985  0.8742434947892527  0.5197175468772083   T   T   T
  0.6245546650030559  0.1257532086123986  0.5197094473187511   T   T   T
  0.6238880157610869  0.3830998572204313  0.5254998415528183   T   T   T
  0.6306493037789138  0.6232401605510258  0.5219702750207794   T   T   T
  0.6245612658024403  0.8742145332705367  0.5199087084378867   T   T   T
  0.8742846450005687  0.1256513698373335  0.5199207185361825   T   T   T
  0.8760974990415165  0.3756696592498188  0.5201719915923145   T   T   T
  0.8779867326995479  0.6250510617234928  0.5199613286726726   T   T   T
  0.8753441295019863  0.8742658731486160  0.5198667744922125   T   T   T
  0.1249999993158326  0.1249999996774775  0.4011733916681877   F   F   F
  0.1249999993158326  0.3749999996774775  0.4011733916681877   F   F   F
  0.1250000002280558  0.6249999990324397  0.4011733916681877   F   F   F
  0.1250000002280558  0.8749999983874019  0.4011733916681877   F   F   F
  0.3749999988597210  0.1249999996774775  0.4011733916681877   F   F   F
  0.3749999997719442  0.3749999996774775  0.4011733916681877   F   F   F
  0.3749999997719442  0.6249999990324397  0.4011733916681877   F   F   F
  0.3749999997719442  0.8749999983874019  0.4011733916681877   F   F   F
  0.6249999993158326  0.1249999996774775  0.4011733916681877   F   F   F
  0.6249999984036094  0.3749999996774775  0.4011733916681877   F   F   F
  0.6249999993158326  0.6249999990324397  0.4011733916681877   F   F   F
  0.6249999993158326  0.8749999983874019  0.4011733916681877   F   F   F
  0.8749999979474978  0.1249999996774775  0.4011733916681877   F   F   F
  0.8749999988597210  0.3749999996774775  0.4011733916681877   F   F   F
  0.8749999988597210  0.6249999990324397  0.4011733916681877   F   F   F
  0.8749999988597210  0.8749999983874019  0.4011733916681877   F   F   F
  0.6051236125359063  0.5608107080655617  0.6036753293593138   T   T   T
  0.6250331738103000  0.4643824079520649  0.6058607977182241   T   T   T
  0.5224834627822903  0.4070751087820911  0.6112976483365334   T   T   T
  0.3948045722175429  0.4392157893078369  0.6036505907620822   T   T   T
  0.3748844092481536  0.5356286287038593  0.6058449001520894   T   T   T
  0.4775134092090378  0.5929698338047270  0.6113090629807557   T   T   T
  0.7076346604040475  0.4487208925266322  0.6313045481196566   T   T   T
  0.5299691717330322  0.3488444234420475  0.6389302454368295   T   T   T
  0.2923457241420545  0.5513073883894254  0.6313002744762122   T   T   T
  0.4699530302842432  0.6511783325082297  0.6389128221793143   T   T   T
  0.6814029937686384  0.5985548801422530  0.6485563877083794   T   T   T
  0.3184645529017630  0.4014701917201670  0.6485031181828094   T   T   T
 
  0.00000000E+00  0.00000000E+00  0.00000000E+00
  0.00000000E+00  0.00000000E+00  0.00000000E+00
  0.00000000E+00  0.00000000E+00  0.00000000E+00
  0.00000000E+00  0.00000000E+00  0.00000000E+00
  0.00000000E+00  0.00000000E+00  0.00000000E+00
  0.00000000E+00  0.00000000E+00  0.00000000E+00
  0.00000000E+00  0.00000000E+00  0.00000000E+00
  0.00000000E+00  0.00000000E+00  0.00000000E+00
  0.00000000E+00  0.00000000E+00  0.00000000E+00
  0.00000000E+00  0.00000000E+00  0.00000000E+00
  0.00000000E+00  0.00000000E+00  0.00000000E+00
  0.00000000E+00  0.00000000E+00  0.00000000E+00
  0.00000000E+00  0.00000000E+00  0.00000000E+00
  0.00000000E+00  0.00000000E+00  0.00000000E+00
  0.00000000E+00  0.00000000E+00  0.00000000E+00
  0.00000000E+00  0.00000000E+00  0.00000000E+00
  0.00000000E+00  0.00000000E+00  0.00000000E+00
  0.00000000E+00  0.00000000E+00  0.00000000E+00
  0.00000000E+00  0.00000000E+00  0.00000000E+00
  0.00000000E+00  0.00000000E+00  0.00000000E+00
  0.00000000E+00  0.00000000E+00  0.00000000E+00
  0.00000000E+00  0.00000000E+00  0.00000000E+00
  0.00000000E+00  0.00000000E+00  0.00000000E+00
  0.00000000E+00  0.00000000E+00  0.00000000E+00
  0.00000000E+00  0.00000000E+00  0.00000000E+00
  0.00000000E+00  0.00000000E+00  0.00000000E+00
  0.00000000E+00  0.00000000E+00  0.00000000E+00
  0.00000000E+00  0.00000000E+00  0.00000000E+00
  0.00000000E+00  0.00000000E+00  0.00000000E+00
  0.00000000E+00  0.00000000E+00  0.00000000E+00
  0.00000000E+00  0.00000000E+00  0.00000000E+00
  0.00000000E+00  0.00000000E+00  0.00000000E+00
  0.00000000E+00  0.00000000E+00  0.00000000E+00
  0.00000000E+00  0.00000000E+00  0.00000000E+00
  0.00000000E+00  0.00000000E+00  0.00000000E+00
  0.00000000E+00  0.00000000E+00  0.00000000E+00
  0.00000000E+00  0.00000000E+00  0.00000000E+00
  0.00000000E+00  0.00000000E+00  0.00000000E+00
  0.00000000E+00  0.00000000E+00  0.00000000E+00
  0.00000000E+00  0.00000000E+00  0.00000000E+00
  0.00000000E+00  0.00000000E+00  0.00000000E+00
  0.00000000E+00  0.00000000E+00  0.00000000E+00
  0.00000000E+00  0.00000000E+00  0.00000000E+00
  0.00000000E+00  0.00000000E+00  0.00000000E+00
  0.00000000E+00  0.00000000E+00  0.00000000E+00
  0.00000000E+00  0.00000000E+00  0.00000000E+00
  0.00000000E+00  0.00000000E+00  0.00000000E+00
  0.00000000E+00  0.00000000E+00  0.00000000E+00
  0.00000000E+00  0.00000000E+00  0.00000000E+00
  0.00000000E+00  0.00000000E+00  0.00000000E+00
  0.00000000E+00  0.00000000E+00  0.00000000E+00
  0.00000000E+00  0.00000000E+00  0.00000000E+00
  0.00000000E+00  0.00000000E+00  0.00000000E+00
  0.00000000E+00  0.00000000E+00  0.00000000E+00
  0.00000000E+00  0.00000000E+00  0.00000000E+00
  0.00000000E+00  0.00000000E+00  0.00000000E+00
  0.00000000E+00  0.00000000E+00  0.00000000E+00
  0.00000000E+00  0.00000000E+00  0.00000000E+00
  0.00000000E+00  0.00000000E+00  0.00000000E+00
  0.00000000E+00  0.00000000E+00  0.00000000E+00
  0.00000000E+00  0.00000000E+00  0.00000000E+00
  0.00000000E+00  0.00000000E+00  0.00000000E+00
  0.00000000E+00  0.00000000E+00  0.00000000E+00
  0.00000000E+00  0.00000000E+00  0.00000000E+00
  0.00000000E+00  0.00000000E+00  0.00000000E+00
  0.00000000E+00  0.00000000E+00  0.00000000E+00
  0.00000000E+00  0.00000000E+00  0.00000000E+00
  0.00000000E+00  0.00000000E+00  0.00000000E+00
  0.00000000E+00  0.00000000E+00  0.00000000E+00
  0.00000000E+00  0.00000000E+00  0.00000000E+00
  0.00000000E+00  0.00000000E+00  0.00000000E+00
  0.00000000E+00  0.00000000E+00  0.00000000E+00
  0.00000000E+00  0.00000000E+00  0.00000000E+00
  0.00000000E+00  0.00000000E+00  0.00000000E+00
  0.00000000E+00  0.00000000E+00  0.00000000E+00
  0.00000000E+00  0.00000000E+00  0.00000000E+00
