Rh  C  H Br                             
    1.000000000000000     
    10.8856652999999994    0.0000000000000000    0.0000000000000000
     0.0000000000000000   10.8856652999999994    0.0000000000000000
     0.0000000000000000    0.0000000000000000   23.7729958199999984
   Rh   C    H    Br
    64     6     2     4
Selective dynamics
Direct
  0.0000000000000000  0.0000000000000000  0.3154840078544225   F   F   F
  0.7500000013779555  0.5000000009186394  0.3154840078544225   F   F   F
  0.0000000018372788  0.2500000004593161  0.3154840078544225   F   F   F
  0.0000000018372788  0.5000000009186394  0.3154840078544225   F   F   F
  0.0000000000000000  0.7500000013779555  0.3154840078544225   F   F   F
  0.2500000004593161  0.0000000000000000  0.3154840078544225   F   F   F
  0.2500000004593161  0.2500000004593161  0.3154840078544225   F   F   F
  0.7500000013779555  0.7500000013779555  0.3154840078544225   F   F   F
  0.2500000004593161  0.5000000009186394  0.3154840078544225   F   F   F
  0.2500000004593161  0.7500000013779555  0.3154840078544225   F   F   F
  0.5000000009186394  0.0000000000000000  0.3154840078544225   F   F   F
  0.5000000009186394  0.2500000004593161  0.3154840078544225   F   F   F
  0.5000000009186394  0.5000000009186394  0.3154840078544225   F   F   F
  0.5000000009186394  0.7500000013779555  0.3154840078544225   F   F   F
  0.7500000013779555  0.0000000000000000  0.3154840078544225   F   F   F
  0.7500000013779555  0.2500000004593161  0.3154840078544225   F   F   F
 -0.0000105354359943  0.0000100856725747  0.4729321933883945   T   T   T
  0.9978264225837822  0.2518125291434877  0.4739870703711570   T   T   T
 -0.0000026003223505  0.5000048315176304  0.4746338371049962   T   T   T
  0.0021565582876831  0.7482090411368945  0.4739864449839789   T   T   T
  0.2517821135066604  0.9978477189991302  0.4739943347897528   T   T   T
  0.2487614317392491  0.2487520375384661  0.4728213489009360   T   T   T
  0.2487873919712362  0.4999315903929266  0.4734504644892404   T   T   T
  0.2516569418921481  0.7483512873183183  0.4742050745555768   T   T   T
  0.4999963472303923  0.0000079045337180  0.4746440856709866   T   T   T
  0.4999337623783166  0.2487840636782343  0.4734539106811778   T   T   T
  0.5000029758613768  0.4999914806252984  0.4727139332803884   T   T   T
  0.5000600988389348  0.7512148645539937  0.4734518050225984   T   T   T
  0.7482092161912368  0.0021543981994274  0.4739865119543098   T   T   T
  0.7483318640304291  0.2516691115303939  0.4742007012571487   T   T   T
  0.7512009634677898  0.5000683252942385  0.4734589847031678   T   T   T
  0.7512477326491197  0.7512492064326789  0.4728210556393603   T   T   T
  0.1241719676719213  0.1242056697851298  0.5483401152446912   T   T   T
  0.1246601754907117  0.3716937953026214  0.5490022145525435   T   T   T
  0.1254692746461259  0.6257565215599765  0.5523768068739843   T   T   T
  0.1238460094326626  0.8761525337102102  0.5488688788681674   T   T   T
  0.3716838284046214  0.1246646443093936  0.5490074366273170   T   T   T
  0.3711227167590868  0.3711588776445119  0.5479623001384505   T   T   T
  0.3785495909534345  0.6214693562511994  0.5521902773486682   T   T   T
  0.3742666748200318  0.8745284543805238  0.5523756256609811   T   T   T
  0.6257663617290050  0.1254695498948761  0.5523761443840107   T   T   T
  0.6214078894034342  0.3785244904151053  0.5521971779794902   T   T   T
  0.6288384411256407  0.6288571698997606  0.5479620035512518   T   T   T
  0.6283120971631202  0.8753371835019196  0.5489873875340308   T   T   T
  0.8761404490206604  0.1238889063378050  0.5488847928397093   T   T   T
  0.8745337713069883  0.3742406145927906  0.5523748825542999   T   T   T
  0.8753476184264075  0.6283101569856314  0.5489910032275764   T   T   T
  0.8758145607419875  0.8758220511373114  0.5483277889364203   T   T   T
  0.1249999997703384  0.1249999997703384  0.3964301349042145   F   F   F
  0.1250000006889778  0.3750000002296616  0.3964301349042145   F   F   F
  0.1250000006889778  0.6250000006889778  0.3964301349042145   F   F   F
  0.1250000006889778  0.8750000011483010  0.3964301349042145   F   F   F
  0.3750000011483010  0.1249999997703384  0.3964301349042145   F   F   F
  0.3750000011483010  0.3750000002296616  0.3964301349042145   F   F   F
  0.3750000011483010  0.6250000006889778  0.3964301349042145   F   F   F
  0.3750000011483010  0.8750000011483010  0.3964301349042145   F   F   F
  0.6250000006889778  0.1249999997703384  0.3964301349042145   F   F   F
  0.6250000006889778  0.3750000002296616  0.3964301349042145   F   F   F
  0.6250000016076172  0.6250000006889778  0.3964301349042145   F   F   F
  0.6250000016076172  0.8750000011483010  0.3964301349042145   F   F   F
  0.8750000011483010  0.1249999997703384  0.3964301349042145   F   F   F
  0.8750000011483010  0.3750000002296616  0.3964301349042145   F   F   F
  0.8750000011483010  0.6250000006889778  0.3964301349042145   F   F   F
  0.8750000020669404  0.8750000011483010  0.3964301349042145   F   F   F
  0.4028873360873318  0.4027975188856280  0.6329030820009107   T   T   T
  0.3714355714749997  0.5348218867685297  0.6305098259257325   T   T   T
  0.4651722414487777  0.6285739918890498  0.6305094307333543   T   T   T
  0.5971739439211634  0.5971541946135591  0.6329123144362294   T   T   T
  0.6286015648548566  0.4651384689259664  0.6305211474325417   T   T   T
  0.5348661746893302  0.3713616403420155  0.6305066470753319   T   T   T
  0.3429579072357157  0.3429567282723179  0.6576617011422764   T   T   T
  0.6570386135557221  0.6570209385580833  0.6576684823206643   T   T   T
  0.1946388484159412  0.5702923531324701  0.6521707780075541   T   T   T
  0.4296975164050805  0.8053922222750289  0.6521688472446039   T   T   T
  0.8054075313512674  0.4296274948937962  0.6521657166910027   T   T   T
  0.5703769795078190  0.1944212975819850  0.6521600971513590   T   T   T
 
  0.00000000E+00  0.00000000E+00  0.00000000E+00
  0.00000000E+00  0.00000000E+00  0.00000000E+00
  0.00000000E+00  0.00000000E+00  0.00000000E+00
  0.00000000E+00  0.00000000E+00  0.00000000E+00
  0.00000000E+00  0.00000000E+00  0.00000000E+00
  0.00000000E+00  0.00000000E+00  0.00000000E+00
  0.00000000E+00  0.00000000E+00  0.00000000E+00
  0.00000000E+00  0.00000000E+00  0.00000000E+00
  0.00000000E+00  0.00000000E+00  0.00000000E+00
  0.00000000E+00  0.00000000E+00  0.00000000E+00
  0.00000000E+00  0.00000000E+00  0.00000000E+00
  0.00000000E+00  0.00000000E+00  0.00000000E+00
  0.00000000E+00  0.00000000E+00  0.00000000E+00
  0.00000000E+00  0.00000000E+00  0.00000000E+00
  0.00000000E+00  0.00000000E+00  0.00000000E+00
  0.00000000E+00  0.00000000E+00  0.00000000E+00
  0.00000000E+00  0.00000000E+00  0.00000000E+00
  0.00000000E+00  0.00000000E+00  0.00000000E+00
  0.00000000E+00  0.00000000E+00  0.00000000E+00
  0.00000000E+00  0.00000000E+00  0.00000000E+00
  0.00000000E+00  0.00000000E+00  0.00000000E+00
  0.00000000E+00  0.00000000E+00  0.00000000E+00
  0.00000000E+00  0.00000000E+00  0.00000000E+00
  0.00000000E+00  0.00000000E+00  0.00000000E+00
  0.00000000E+00  0.00000000E+00  0.00000000E+00
  0.00000000E+00  0.00000000E+00  0.00000000E+00
  0.00000000E+00  0.00000000E+00  0.00000000E+00
  0.00000000E+00  0.00000000E+00  0.00000000E+00
  0.00000000E+00  0.00000000E+00  0.00000000E+00
  0.00000000E+00  0.00000000E+00  0.00000000E+00
  0.00000000E+00  0.00000000E+00  0.00000000E+00
  0.00000000E+00  0.00000000E+00  0.00000000E+00
  0.00000000E+00  0.00000000E+00  0.00000000E+00
  0.00000000E+00  0.00000000E+00  0.00000000E+00
  0.00000000E+00  0.00000000E+00  0.00000000E+00
  0.00000000E+00  0.00000000E+00  0.00000000E+00
  0.00000000E+00  0.00000000E+00  0.00000000E+00
  0.00000000E+00  0.00000000E+00  0.00000000E+00
  0.00000000E+00  0.00000000E+00  0.00000000E+00
  0.00000000E+00  0.00000000E+00  0.00000000E+00
  0.00000000E+00  0.00000000E+00  0.00000000E+00
  0.00000000E+00  0.00000000E+00  0.00000000E+00
  0.00000000E+00  0.00000000E+00  0.00000000E+00
  0.00000000E+00  0.00000000E+00  0.00000000E+00
  0.00000000E+00  0.00000000E+00  0.00000000E+00
  0.00000000E+00  0.00000000E+00  0.00000000E+00
  0.00000000E+00  0.00000000E+00  0.00000000E+00
  0.00000000E+00  0.00000000E+00  0.00000000E+00
  0.00000000E+00  0.00000000E+00  0.00000000E+00
  0.00000000E+00  0.00000000E+00  0.00000000E+00
  0.00000000E+00  0.00000000E+00  0.00000000E+00
  0.00000000E+00  0.00000000E+00  0.00000000E+00
  0.00000000E+00  0.00000000E+00  0.00000000E+00
  0.00000000E+00  0.00000000E+00  0.00000000E+00
  0.00000000E+00  0.00000000E+00  0.00000000E+00
  0.00000000E+00  0.00000000E+00  0.00000000E+00
  0.00000000E+00  0.00000000E+00  0.00000000E+00
  0.00000000E+00  0.00000000E+00  0.00000000E+00
  0.00000000E+00  0.00000000E+00  0.00000000E+00
  0.00000000E+00  0.00000000E+00  0.00000000E+00
  0.00000000E+00  0.00000000E+00  0.00000000E+00
  0.00000000E+00  0.00000000E+00  0.00000000E+00
  0.00000000E+00  0.00000000E+00  0.00000000E+00
  0.00000000E+00  0.00000000E+00  0.00000000E+00
  0.00000000E+00  0.00000000E+00  0.00000000E+00
  0.00000000E+00  0.00000000E+00  0.00000000E+00
  0.00000000E+00  0.00000000E+00  0.00000000E+00
  0.00000000E+00  0.00000000E+00  0.00000000E+00
  0.00000000E+00  0.00000000E+00  0.00000000E+00
  0.00000000E+00  0.00000000E+00  0.00000000E+00
  0.00000000E+00  0.00000000E+00  0.00000000E+00
  0.00000000E+00  0.00000000E+00  0.00000000E+00
  0.00000000E+00  0.00000000E+00  0.00000000E+00
  0.00000000E+00  0.00000000E+00  0.00000000E+00
  0.00000000E+00  0.00000000E+00  0.00000000E+00
  0.00000000E+00  0.00000000E+00  0.00000000E+00
