Ag  C  H Br                             
    1.000000000000000     
    11.7702790000000004    0.0000000000000000    0.0000000000000000
     0.0000000000000000   16.6456881000000010    0.0000000000000000
     0.0000000000000000    0.0000000000000000   22.4138546100000013
   Ag   C    H    Br
    64     6     4     2
Selective dynamics
Direct
  0.0000000000000000  0.2500000003003748  0.3346144663869595   F   F   F
  0.7499999974512050  0.7500000015018884  0.3346144663869595   F   F   F
  0.0000000000000000  0.5000000012015136  0.3346144663869595   F   F   F
  0.0000000000000000  0.7500000015018884  0.3346144663869595   F   F   F
  0.0000000000000000  0.0000000000000000  0.3346144663869595   F   F   F
  0.2499999991504041  0.2500000003003748  0.3346144663869595   F   F   F
  0.2499999991504041  0.5000000012015136  0.3346144663869595   F   F   F
  0.7499999974512050  0.0000000000000000  0.3346144663869595   F   F   F
  0.2499999991504041  0.7500000015018884  0.3346144663869595   F   F   F
  0.2499999991504041  0.0000000000000000  0.3346144663869595   F   F   F
  0.4999999983008081  0.2500000003003748  0.3346144663869595   F   F   F
  0.4999999983008081  0.5000000012015136  0.3346144663869595   F   F   F
  0.4999999983008081  0.7500000015018884  0.3346144663869595   F   F   F
  0.4999999983008081  0.0000000000000000  0.3346144663869595   F   F   F
  0.7499999974512050  0.2500000003003748  0.3346144663869595   F   F   F
  0.7499999974512050  0.5000000012015136  0.3346144663869595   F   F   F
 -0.0001189837168712  0.2500154534590155  0.4627213856985532   T   T   T
 -0.0000021772954839  0.5000011367067952  0.4627968302372349   T   T   T
  0.0001153466804596  0.7499860678608732  0.4627216762144127   T   T   T
  0.9999983786758612  0.0000004144560699  0.4627060531654996   T   T   T
  0.2496416062054864  0.2497954638528123  0.4623408995647106   T   T   T
  0.2498841264635443  0.4999554358663655  0.4626028692774905   T   T   T
  0.2501567338157250  0.7497862101955389  0.4628642426936684   T   T   T
  0.2500029171529393  0.9999717057545725  0.4626722500389852   T   T   T
  0.5003641964764528  0.2500663636687139  0.4625935177889791   T   T   T
  0.5000006811848360  0.5000027442265523  0.4623435770614515   T   T   T
  0.4996329653935756  0.7499348343800689  0.4625953693163150   T   T   T
  0.4999979122994527  0.0000000883263820  0.4626571822447906   T   T   T
  0.7498404254204369  0.2502156368670388  0.4628636733785126   T   T   T
  0.7501112639638622  0.5000476390813448  0.4626040622822370   T   T   T
  0.7503555262739865  0.7502059970826351  0.4623416391101709   T   T   T
  0.7499933658877497  0.0000285526830735  0.4626719702825696   T   T   T
  0.1249719280755003  0.1250127980020455  0.5213627334389822   T   T   T
  0.1242389033415980  0.3750451671807197  0.5212528906186754   T   T   T
  0.1252646392086713  0.6248746167880538  0.5214368407774337   T   T   T
  0.1249161418617009  0.8749808257181713  0.5213140072053404   T   T   T
  0.3749721911332463  0.1250542522163225  0.5212486374283321   T   T   T
  0.3748277764534284  0.3746498706055322  0.5206542641912879   T   T   T
  0.3748559083053395  0.6243593057335640  0.5216145671365160   T   T   T
  0.3750404984802201  0.8749482053042865  0.5212780343825237   T   T   T
  0.6249554783352211  0.1250531190754481  0.5212810809025926   T   T   T
  0.6251448224053110  0.3756423675019927  0.5216131681220110   T   T   T
  0.6251715280563670  0.6253550453332546  0.5206578712234746   T   T   T
  0.6250237571825590  0.8749467920409743  0.5212483150685371   T   T   T
  0.8750794447329835  0.1250204610631774  0.5213153759869291   T   T   T
  0.8747313121131499  0.3751273968595703  0.5214370480272439   T   T   T
  0.8757538636825493  0.6249558921527917  0.5212528968030302   T   T   T
  0.8750242316751855  0.8749889199485616  0.5213614997539615   T   T   T
  0.1249999995752020  0.1250000004505694  0.4002562266107219   F   F   F
  0.1249999995752020  0.3750000007509442  0.4002562266107219   F   F   F
  0.1249999995752020  0.6250000016520829  0.4002562266107219   F   F   F
  0.1249999995752020  0.8750000019524578  0.4002562266107219   F   F   F
  0.3749999987256061  0.1250000004505694  0.4002562266107219   F   F   F
  0.3749999987256061  0.3750000007509442  0.4002562266107219   F   F   F
  0.3749999987256061  0.6250000016520829  0.4002562266107219   F   F   F
  0.3749999987256061  0.8750000019524578  0.4002562266107219   F   F   F
  0.6249999978760030  0.1250000004505694  0.4002562266107219   F   F   F
  0.6249999978760030  0.3750000007509442  0.4002562266107219   F   F   F
  0.6249999978760030  0.6250000016520829  0.4002562266107219   F   F   F
  0.6249999978760030  0.8750000019524578  0.4002562266107219   F   F   F
  0.8749999970264071  0.1250000004505694  0.4002562266107219   F   F   F
  0.8749999970264071  0.3750000007509442  0.4002562266107219   F   F   F
  0.8749999970264071  0.6250000016520829  0.4002562266107219   F   F   F
  0.8749999970264071  0.8750000019524578  0.4002562266107219   F   F   F
  0.4321757778311362  0.4325321128837350  0.6549806543013250   T   T   T
  0.3811804225639235  0.5080544968374200  0.6544120445860766   T   T   T
  0.4498432992427600  0.5766243509596919  0.6540786174039535   T   T   T
  0.5678272238651626  0.5674595988615574  0.6550053456568293   T   T   T
  0.6188182043419994  0.4919387184295687  0.6544277929844873   T   T   T
  0.5501555190390611  0.4233782202599810  0.6540680943772306   T   T   T
  0.2890247925365853  0.5139734907728525  0.6540293185249845   T   T   T
  0.4112607998061488  0.6362072870269350  0.6545042766665531   T   T   T
  0.7109823372404388  0.4860303627934824  0.6540606118221303   T   T   T
  0.5887373358605631  0.3638007595022170  0.6544837617015397   T   T   T
  0.3381004720490806  0.3390739767919521  0.6547819267421751   T   T   T
  0.6620110861031256  0.6608631704944530  0.6548002531548510   T   T   T
 
  0.00000000E+00  0.00000000E+00  0.00000000E+00
  0.00000000E+00  0.00000000E+00  0.00000000E+00
  0.00000000E+00  0.00000000E+00  0.00000000E+00
  0.00000000E+00  0.00000000E+00  0.00000000E+00
  0.00000000E+00  0.00000000E+00  0.00000000E+00
  0.00000000E+00  0.00000000E+00  0.00000000E+00
  0.00000000E+00  0.00000000E+00  0.00000000E+00
  0.00000000E+00  0.00000000E+00  0.00000000E+00
  0.00000000E+00  0.00000000E+00  0.00000000E+00
  0.00000000E+00  0.00000000E+00  0.00000000E+00
  0.00000000E+00  0.00000000E+00  0.00000000E+00
  0.00000000E+00  0.00000000E+00  0.00000000E+00
  0.00000000E+00  0.00000000E+00  0.00000000E+00
  0.00000000E+00  0.00000000E+00  0.00000000E+00
  0.00000000E+00  0.00000000E+00  0.00000000E+00
  0.00000000E+00  0.00000000E+00  0.00000000E+00
  0.00000000E+00  0.00000000E+00  0.00000000E+00
  0.00000000E+00  0.00000000E+00  0.00000000E+00
  0.00000000E+00  0.00000000E+00  0.00000000E+00
  0.00000000E+00  0.00000000E+00  0.00000000E+00
  0.00000000E+00  0.00000000E+00  0.00000000E+00
  0.00000000E+00  0.00000000E+00  0.00000000E+00
  0.00000000E+00  0.00000000E+00  0.00000000E+00
  0.00000000E+00  0.00000000E+00  0.00000000E+00
  0.00000000E+00  0.00000000E+00  0.00000000E+00
  0.00000000E+00  0.00000000E+00  0.00000000E+00
  0.00000000E+00  0.00000000E+00  0.00000000E+00
  0.00000000E+00  0.00000000E+00  0.00000000E+00
  0.00000000E+00  0.00000000E+00  0.00000000E+00
  0.00000000E+00  0.00000000E+00  0.00000000E+00
  0.00000000E+00  0.00000000E+00  0.00000000E+00
  0.00000000E+00  0.00000000E+00  0.00000000E+00
  0.00000000E+00  0.00000000E+00  0.00000000E+00
  0.00000000E+00  0.00000000E+00  0.00000000E+00
  0.00000000E+00  0.00000000E+00  0.00000000E+00
  0.00000000E+00  0.00000000E+00  0.00000000E+00
  0.00000000E+00  0.00000000E+00  0.00000000E+00
  0.00000000E+00  0.00000000E+00  0.00000000E+00
  0.00000000E+00  0.00000000E+00  0.00000000E+00
  0.00000000E+00  0.00000000E+00  0.00000000E+00
  0.00000000E+00  0.00000000E+00  0.00000000E+00
  0.00000000E+00  0.00000000E+00  0.00000000E+00
  0.00000000E+00  0.00000000E+00  0.00000000E+00
  0.00000000E+00  0.00000000E+00  0.00000000E+00
  0.00000000E+00  0.00000000E+00  0.00000000E+00
  0.00000000E+00  0.00000000E+00  0.00000000E+00
  0.00000000E+00  0.00000000E+00  0.00000000E+00
  0.00000000E+00  0.00000000E+00  0.00000000E+00
  0.00000000E+00  0.00000000E+00  0.00000000E+00
  0.00000000E+00  0.00000000E+00  0.00000000E+00
  0.00000000E+00  0.00000000E+00  0.00000000E+00
  0.00000000E+00  0.00000000E+00  0.00000000E+00
  0.00000000E+00  0.00000000E+00  0.00000000E+00
  0.00000000E+00  0.00000000E+00  0.00000000E+00
  0.00000000E+00  0.00000000E+00  0.00000000E+00
  0.00000000E+00  0.00000000E+00  0.00000000E+00
  0.00000000E+00  0.00000000E+00  0.00000000E+00
  0.00000000E+00  0.00000000E+00  0.00000000E+00
  0.00000000E+00  0.00000000E+00  0.00000000E+00
  0.00000000E+00  0.00000000E+00  0.00000000E+00
  0.00000000E+00  0.00000000E+00  0.00000000E+00
  0.00000000E+00  0.00000000E+00  0.00000000E+00
  0.00000000E+00  0.00000000E+00  0.00000000E+00
  0.00000000E+00  0.00000000E+00  0.00000000E+00
  0.00000000E+00  0.00000000E+00  0.00000000E+00
  0.00000000E+00  0.00000000E+00  0.00000000E+00
  0.00000000E+00  0.00000000E+00  0.00000000E+00
  0.00000000E+00  0.00000000E+00  0.00000000E+00
  0.00000000E+00  0.00000000E+00  0.00000000E+00
  0.00000000E+00  0.00000000E+00  0.00000000E+00
  0.00000000E+00  0.00000000E+00  0.00000000E+00
  0.00000000E+00  0.00000000E+00  0.00000000E+00
  0.00000000E+00  0.00000000E+00  0.00000000E+00
  0.00000000E+00  0.00000000E+00  0.00000000E+00
  0.00000000E+00  0.00000000E+00  0.00000000E+00
  0.00000000E+00  0.00000000E+00  0.00000000E+00
