Cu48 C4 N2 Cl4                          
    1.000000000000000     
    10.2424774999999997    0.0000000000000000    0.0000000000000000
     0.0000000000000000   14.4850505999999992    0.0000000000000000
     0.0000000000000000    0.0000000000000000   15.4644450100000004
   Cu   C    N    Cl
    48     4     2     4
Selective dynamics
Direct
  0.2493001291498658  0.2501891159826783  0.4013338346670281   T   T   T
  0.2505138551817723  0.4994009254562712  0.4001896055614651   T   T   T
  0.2504259936398512  0.7492663559633073  0.4018851743520813   T   T   T
  0.2501783667177406  0.9999948666563654  0.4034635801733728   T   T   T
  0.4997503758673929  0.2501740887392145  0.4000785331423771   T   T   T
  0.4999991942224540  0.5000047217251264  0.3984201712775217   T   T   T
  0.5002518321617870  0.7498274417980539  0.4000767788694972   T   T   T
  0.5000019047018824  0.9999927199626484  0.4036339139416043   T   T   T
  0.7495674799691017  0.2507376805313015  0.4018919439555972   T   T   T
  0.7494793841403435  0.5006091266266779  0.4001896369521631   T   T   T
  0.7506942017763194  0.7498089916204052  0.4013244913562772   T   T   T
  0.7498216671626849  0.9999932101267817  0.4034633087883037   T   T   T
  0.9994083632424235  0.2503540490374760  0.4024777439799720   T   T   T
  0.9999989220780350  0.5000062615275027  0.4016100674014638   T   T   T
  0.0005982012123980  0.7496436471061898  0.4024641478156141   T   T   T
  0.9999989468707824  0.9999955175641091  0.4032991563831914   T   T   T
  0.1247802731678362  0.1259368030710419  0.4818649785424469   T   T   T
  0.1238224923206843  0.3752785325019588  0.4816957956909746   T   T   T
  0.1255680119446652  0.6241614819835064  0.4818244245026762   T   T   T
  0.1254874366702268  0.8739618774009941  0.4818092441928243   T   T   T
  0.3749476843631783  0.1269020215833407  0.4815193904174535   T   T   T
  0.3720609418182832  0.3711483614801097  0.4845648038223445   T   T   T
  0.3760684934208598  0.6249381374242020  0.4831755868710843   T   T   T
  0.3754344327306640  0.8731654822074546  0.4817732364835408   T   T   T
  0.6245644623640203  0.1268253447319125  0.4817658053975009   T   T   T
  0.6239399852856593  0.3750743102896124  0.4831848066229867   T   T   T
  0.6279323414345725  0.6288603825340005  0.4845660562669920   T   T   T
  0.6250599446507792  0.8730871099265798  0.4815228357890007   T   T   T
  0.8745055757229991  0.1260299952967827  0.4818067082728561   T   T   T
  0.8744421705733529  0.3758373306714162  0.4818171571665957   T   T   T
  0.8761795410413669  0.6247415723228116  0.4816901519854397   T   T   T
  0.8752222204897464  0.8740488486051703  0.4818638784639546   T   T   T
  0.1250000002440785  0.1249999996548183  0.3233223046004383   F   F   F
  0.1250000002440785  0.3749999989644479  0.3233223046004383   F   F   F
  0.1250000002440785  0.6249999982740846  0.3233223046004383   F   F   F
  0.1250000002440785  0.8749999975837142  0.3233223046004383   F   F   F
  0.3749999997559215  0.1249999996548183  0.3233223046004383   F   F   F
  0.3749999997559215  0.3749999989644479  0.3233223046004383   F   F   F
  0.3749999997559215  0.6249999982740846  0.3233223046004383   F   F   F
  0.3749999997559215  0.8749999975837142  0.3233223046004383   F   F   F
  0.6249999982914289  0.1249999996548183  0.3233223046004383   F   F   F
  0.6249999992677573  0.3749999989644479  0.3233223046004383   F   F   F
  0.6249999992677573  0.6249999982740846  0.3233223046004383   F   F   F
  0.6249999992677573  0.8749999975837142  0.3233223046004383   F   F   F
  0.8749999987795931  0.1249999996548183  0.3233223046004383   F   F   F
  0.8749999978032648  0.3749999989644479  0.3233223046004383   F   F   F
  0.8749999987795931  0.6249999982740846  0.3233223046004383   F   F   F
  0.8749999987795931  0.8749999975837142  0.3233223046004383   F   F   F
  0.5589747241642300  0.4124244272133524  0.6082040959595787   T   T   T
  0.6299080061496696  0.4964686241824552  0.6192293803341826   T   T   T
  0.4410457141655826  0.5875984709320221  0.6081987810467098   T   T   T
  0.3700945932916042  0.5035415669567200  0.6192220833694577   T   T   T
  0.5799663936367523  0.5790015414516603  0.6028329813733180   T   T   T
  0.4199977223734379  0.4210265760134391  0.6028302401459058   T   T   T
  0.2037602454436254  0.5072413549449877  0.6402075676512027   T   T   T
  0.3944065508090304  0.6866202161111445  0.6696886289630015   T   T   T
  0.6055966134665312  0.3134001263657282  0.6696971827850291   T   T   T
  0.7962184765431104  0.4927697059671559  0.6402523410802985   T   T   T
 
  0.00000000E+00  0.00000000E+00  0.00000000E+00
  0.00000000E+00  0.00000000E+00  0.00000000E+00
  0.00000000E+00  0.00000000E+00  0.00000000E+00
  0.00000000E+00  0.00000000E+00  0.00000000E+00
  0.00000000E+00  0.00000000E+00  0.00000000E+00
  0.00000000E+00  0.00000000E+00  0.00000000E+00
  0.00000000E+00  0.00000000E+00  0.00000000E+00
  0.00000000E+00  0.00000000E+00  0.00000000E+00
  0.00000000E+00  0.00000000E+00  0.00000000E+00
  0.00000000E+00  0.00000000E+00  0.00000000E+00
  0.00000000E+00  0.00000000E+00  0.00000000E+00
  0.00000000E+00  0.00000000E+00  0.00000000E+00
  0.00000000E+00  0.00000000E+00  0.00000000E+00
  0.00000000E+00  0.00000000E+00  0.00000000E+00
  0.00000000E+00  0.00000000E+00  0.00000000E+00
  0.00000000E+00  0.00000000E+00  0.00000000E+00
  0.00000000E+00  0.00000000E+00  0.00000000E+00
  0.00000000E+00  0.00000000E+00  0.00000000E+00
  0.00000000E+00  0.00000000E+00  0.00000000E+00
  0.00000000E+00  0.00000000E+00  0.00000000E+00
  0.00000000E+00  0.00000000E+00  0.00000000E+00
  0.00000000E+00  0.00000000E+00  0.00000000E+00
  0.00000000E+00  0.00000000E+00  0.00000000E+00
  0.00000000E+00  0.00000000E+00  0.00000000E+00
  0.00000000E+00  0.00000000E+00  0.00000000E+00
  0.00000000E+00  0.00000000E+00  0.00000000E+00
  0.00000000E+00  0.00000000E+00  0.00000000E+00
  0.00000000E+00  0.00000000E+00  0.00000000E+00
  0.00000000E+00  0.00000000E+00  0.00000000E+00
  0.00000000E+00  0.00000000E+00  0.00000000E+00
  0.00000000E+00  0.00000000E+00  0.00000000E+00
  0.00000000E+00  0.00000000E+00  0.00000000E+00
  0.00000000E+00  0.00000000E+00  0.00000000E+00
  0.00000000E+00  0.00000000E+00  0.00000000E+00
  0.00000000E+00  0.00000000E+00  0.00000000E+00
  0.00000000E+00  0.00000000E+00  0.00000000E+00
  0.00000000E+00  0.00000000E+00  0.00000000E+00
  0.00000000E+00  0.00000000E+00  0.00000000E+00
  0.00000000E+00  0.00000000E+00  0.00000000E+00
  0.00000000E+00  0.00000000E+00  0.00000000E+00
  0.00000000E+00  0.00000000E+00  0.00000000E+00
  0.00000000E+00  0.00000000E+00  0.00000000E+00
  0.00000000E+00  0.00000000E+00  0.00000000E+00
  0.00000000E+00  0.00000000E+00  0.00000000E+00
  0.00000000E+00  0.00000000E+00  0.00000000E+00
  0.00000000E+00  0.00000000E+00  0.00000000E+00
  0.00000000E+00  0.00000000E+00  0.00000000E+00
  0.00000000E+00  0.00000000E+00  0.00000000E+00
  0.00000000E+00  0.00000000E+00  0.00000000E+00
  0.00000000E+00  0.00000000E+00  0.00000000E+00
  0.00000000E+00  0.00000000E+00  0.00000000E+00
  0.00000000E+00  0.00000000E+00  0.00000000E+00
  0.00000000E+00  0.00000000E+00  0.00000000E+00
  0.00000000E+00  0.00000000E+00  0.00000000E+00
  0.00000000E+00  0.00000000E+00  0.00000000E+00
  0.00000000E+00  0.00000000E+00  0.00000000E+00
  0.00000000E+00  0.00000000E+00  0.00000000E+00
  0.00000000E+00  0.00000000E+00  0.00000000E+00
