Pd  C Br                                
   1.00000000000000     
    11.1922750000000004    0.0000000000000000    0.0000000000000000
    -5.5961369999999997    9.6927939999999992    0.0000000000000000
     0.0000000000000000    0.0000000000000000   24.8538405000000040
   Pd   C    Br
    64     6     6
Selective dynamics
Direct
  0.9999999513476965  0.0000000206338839  0.3017642283493345   F   F   F
  0.2499999873901899  0.2500000051584692  0.3017642283493345   F   F   F
  0.2499999828216346  0.5000000103169455  0.3017642283493345   F   F   F
  0.2499999773596073  0.7500000154754147  0.3017642283493345   F   F   F
  0.2499999727910591  0.0000000206338839  0.3017642283493345   F   F   F
  0.4999999802424000  0.2500000051584692  0.3017642283493345   F   F   F
  0.4999999756738518  0.5000000103169455  0.3017642283493345   F   F   F
  0.4999999702118245  0.7500000154754147  0.3017642283493345   F   F   F
  0.7499999730946101  0.2500000051584692  0.3017642283493345   F   F   F
  0.7499999685260619  0.5000000103169455  0.3017642283493345   F   F   F
  0.7499999630640346  0.7500000154754147  0.3017642283493345   F   F   F
  0.7499999584954864  0.0000000206338839  0.3017642283493345   F   F   F
  0.9999999659468273  0.2500000051584692  0.3017642283493345   F   F   F
  0.9999999613782720  0.5000000103169455  0.3017642283493345   F   F   F
  0.9999999559162518  0.7500000154754147  0.3017642283493345   F   F   F
  0.4999999656432692  0.0000000206338839  0.3017642283493345   F   F   F
  0.0833330000000032  0.1666669999999968  0.3936861790032040   F   F   F
  0.0833330000000032  0.4166669999999968  0.3936861790032040   F   F   F
  0.0833330000000032  0.6666669999999968  0.3936861790032040   F   F   F
  0.0833330000000032  0.9166669999999968  0.3936861790032040   F   F   F
  0.3333330000000032  0.1666669999999968  0.3936861790032040   F   F   F
  0.3333330000000032  0.4166669999999968  0.3936861790032040   F   F   F
  0.3333330000000032  0.6666669999999968  0.3936861790032040   F   F   F
  0.3333330000000032  0.9166669999999968  0.3936861790032040   F   F   F
  0.5833330000000032  0.1666669999999968  0.3936861790032040   F   F   F
  0.5833330000000032  0.4166669999999968  0.3936861790032040   F   F   F
  0.5833330000000032  0.6666669999999968  0.3936861790032040   F   F   F
  0.5833330000000032  0.9166669999999968  0.3936861790032040   F   F   F
  0.8333330000000032  0.1666669999999968  0.3936861790032040   F   F   F
  0.8333330000000032  0.4166669999999968  0.3936861790032040   F   F   F
  0.8333330000000032  0.6666669999999968  0.3936861790032040   F   F   F
  0.8333330000000032  0.9166669999999968  0.3936861790032040   F   F   F
  0.2496369162107917  0.9977445664030408  0.5757737216104084   T   T   T
  0.2495379432047223  0.2498874016443700  0.5821109150777372   T   T   T
  0.2496759226324878  0.5020294593271445  0.5757658057841656   T   T   T
  0.2571718729851486  0.7535500939996419  0.5755977969282760   T   T   T
  0.5024892522774986  0.9980409937894097  0.5727820726201824   T   T   T
  0.5034912200583757  0.2462048791248324  0.5750180740731269   T   T   T
  0.5035262087462899  0.5072568680447215  0.5750386057996689   T   T   T
  0.5025093930517689  0.7544296399024971  0.5727204546599549   T   T   T
  0.7495556178395432 -0.0002619864065659  0.5762501595429061   T   T   T
  0.7527516264120934  0.2470946136270867  0.5767506653725811   T   T   T
  0.7565367831301024  0.5032197520348365  0.5805757047856099   T   T   T
  0.7527501232821669  0.7555746765982602  0.5767943779646834   T   T   T
  0.0024484427741555  0.0007876138446780  0.5776555428214201   T   T   T
  0.0025234668388876  0.2517176192920208  0.5775721323700682   T   T   T
  0.9985861661856997  0.4944271145890984  0.5760687168611799   T   T   T
  0.9985696222645439  0.7541295947378730  0.5760548262258289   T   T   T
  0.1676475141378856  0.0838340364171229  0.4859364099219607   T   T   T
  0.1677383654480375  0.3338215660382217  0.4859432131913672   T   T   T
  0.1657116276167959  0.5826378231687805  0.4836576307812247   T   T   T
  0.1657641128205403  0.8331267994169379  0.4836466516201717   T   T   T
  0.4171926279274599  0.0848896574039299  0.4834754111818727   T   T   T
  0.4153677787536648  0.3326817929892083  0.4840092212867395   T   T   T
  0.4172475589023096  0.5823472378975927  0.4834518093128076   T   T   T
  0.4134053390590609  0.8317198669665647  0.4831077937352994   T   T   T
  0.6682315466800619  0.0829754907998577  0.4833696906916218   T   T   T
  0.6670090803094398  0.3334081767946658  0.4843755751334602   T   T   T
  0.6670987791356315  0.5836000283279460  0.4843758206240306   T   T   T
  0.6682410387499542  0.8352839970987895  0.4833568531220465   T   T   T
  0.9188722295778166  0.0844116952297859  0.4838308941663048   T   T   T
  0.9175573682342121  0.3344367960914610  0.4857059541889086   T   T   T
  0.9135673655917547  0.5817713233424470  0.4851643334530032   T   T   T
  0.9175892710737936  0.8331244185592205  0.4857015670642183   T   T   T
  0.5712699109347262  0.3034169087990253  0.6587213096821752   T   T   T
  0.4242392878657218  0.2305127500863025  0.6604366935287171   T   T   T
  0.3484632777748626  0.2992155497261196  0.6544829626128078   T   T   T
  0.4242608934063019  0.4437282414378299  0.6604325648780316   T   T   T
  0.5713057726190057  0.5179027015979327  0.6586991528875148   T   T   T
  0.6464111188588693  0.4481664401653026  0.6502287514636949   T   T   T
  0.6813127833125865  0.2148939061374675  0.6780043511891811   T   T   T
  0.3165399650025674  0.0304034850802774  0.6769477617652190   T   T   T
  0.9261384974599314  0.0891737612275152  0.6591247929754122   T   T   T
  0.3163593727346238  0.5360668823020416  0.6769871521369956   T   T   T
  0.6814942089306782  0.7161895314792150  0.6780835634689596   T   T   T
  0.0749759123224135  0.6625842922036199  0.6546664109353472   T   T   T
 
  0.00000000E+00  0.00000000E+00  0.00000000E+00
  0.00000000E+00  0.00000000E+00  0.00000000E+00
  0.00000000E+00  0.00000000E+00  0.00000000E+00
  0.00000000E+00  0.00000000E+00  0.00000000E+00
  0.00000000E+00  0.00000000E+00  0.00000000E+00
  0.00000000E+00  0.00000000E+00  0.00000000E+00
  0.00000000E+00  0.00000000E+00  0.00000000E+00
  0.00000000E+00  0.00000000E+00  0.00000000E+00
  0.00000000E+00  0.00000000E+00  0.00000000E+00
  0.00000000E+00  0.00000000E+00  0.00000000E+00
  0.00000000E+00  0.00000000E+00  0.00000000E+00
  0.00000000E+00  0.00000000E+00  0.00000000E+00
  0.00000000E+00  0.00000000E+00  0.00000000E+00
  0.00000000E+00  0.00000000E+00  0.00000000E+00
  0.00000000E+00  0.00000000E+00  0.00000000E+00
  0.00000000E+00  0.00000000E+00  0.00000000E+00
  0.00000000E+00  0.00000000E+00  0.00000000E+00
  0.00000000E+00  0.00000000E+00  0.00000000E+00
  0.00000000E+00  0.00000000E+00  0.00000000E+00
  0.00000000E+00  0.00000000E+00  0.00000000E+00
  0.00000000E+00  0.00000000E+00  0.00000000E+00
  0.00000000E+00  0.00000000E+00  0.00000000E+00
  0.00000000E+00  0.00000000E+00  0.00000000E+00
  0.00000000E+00  0.00000000E+00  0.00000000E+00
  0.00000000E+00  0.00000000E+00  0.00000000E+00
  0.00000000E+00  0.00000000E+00  0.00000000E+00
  0.00000000E+00  0.00000000E+00  0.00000000E+00
  0.00000000E+00  0.00000000E+00  0.00000000E+00
  0.00000000E+00  0.00000000E+00  0.00000000E+00
  0.00000000E+00  0.00000000E+00  0.00000000E+00
  0.00000000E+00  0.00000000E+00  0.00000000E+00
  0.00000000E+00  0.00000000E+00  0.00000000E+00
  0.00000000E+00  0.00000000E+00  0.00000000E+00
  0.00000000E+00  0.00000000E+00  0.00000000E+00
  0.00000000E+00  0.00000000E+00  0.00000000E+00
  0.00000000E+00  0.00000000E+00  0.00000000E+00
  0.00000000E+00  0.00000000E+00  0.00000000E+00
  0.00000000E+00  0.00000000E+00  0.00000000E+00
  0.00000000E+00  0.00000000E+00  0.00000000E+00
  0.00000000E+00  0.00000000E+00  0.00000000E+00
  0.00000000E+00  0.00000000E+00  0.00000000E+00
  0.00000000E+00  0.00000000E+00  0.00000000E+00
  0.00000000E+00  0.00000000E+00  0.00000000E+00
  0.00000000E+00  0.00000000E+00  0.00000000E+00
  0.00000000E+00  0.00000000E+00  0.00000000E+00
  0.00000000E+00  0.00000000E+00  0.00000000E+00
  0.00000000E+00  0.00000000E+00  0.00000000E+00
  0.00000000E+00  0.00000000E+00  0.00000000E+00
  0.00000000E+00  0.00000000E+00  0.00000000E+00
  0.00000000E+00  0.00000000E+00  0.00000000E+00
  0.00000000E+00  0.00000000E+00  0.00000000E+00
  0.00000000E+00  0.00000000E+00  0.00000000E+00
  0.00000000E+00  0.00000000E+00  0.00000000E+00
  0.00000000E+00  0.00000000E+00  0.00000000E+00
  0.00000000E+00  0.00000000E+00  0.00000000E+00
  0.00000000E+00  0.00000000E+00  0.00000000E+00
  0.00000000E+00  0.00000000E+00  0.00000000E+00
  0.00000000E+00  0.00000000E+00  0.00000000E+00
  0.00000000E+00  0.00000000E+00  0.00000000E+00
  0.00000000E+00  0.00000000E+00  0.00000000E+00
  0.00000000E+00  0.00000000E+00  0.00000000E+00
  0.00000000E+00  0.00000000E+00  0.00000000E+00
  0.00000000E+00  0.00000000E+00  0.00000000E+00
  0.00000000E+00  0.00000000E+00  0.00000000E+00
  0.00000000E+00  0.00000000E+00  0.00000000E+00
  0.00000000E+00  0.00000000E+00  0.00000000E+00
  0.00000000E+00  0.00000000E+00  0.00000000E+00
  0.00000000E+00  0.00000000E+00  0.00000000E+00
  0.00000000E+00  0.00000000E+00  0.00000000E+00
  0.00000000E+00  0.00000000E+00  0.00000000E+00
  0.00000000E+00  0.00000000E+00  0.00000000E+00
  0.00000000E+00  0.00000000E+00  0.00000000E+00
  0.00000000E+00  0.00000000E+00  0.00000000E+00
  0.00000000E+00  0.00000000E+00  0.00000000E+00
  0.00000000E+00  0.00000000E+00  0.00000000E+00
  0.00000000E+00  0.00000000E+00  0.00000000E+00
