Ir48 C4 N2 Cl4                          
    1.000000000000000     
    10.9622135000000007    0.0000000000000000    0.0000000000000000
     0.0000000000000000   15.5029109999999992    0.0000000000000000
     0.0000000000000000    0.0000000000000000   15.5412342500000005
   Ir   C    N    Cl
    48     4     2     4
Selective dynamics
Direct
  0.2499329314899157  0.0001416930578557  0.4147732497057603   T   T   T
  0.2499099581040696  0.2506885109247818  0.4128515568257072   T   T   T
  0.2497470587969062  0.4999919131863777  0.4083136454288834   T   T   T
  0.2522513221715172  0.7479531357530007  0.4133649158357287   T   T   T
  0.5000009417996196  0.0000019573984034  0.3928115143672457   T   T   T
  0.5001679807834023  0.2513602827017749  0.3932322356244597   T   T   T
  0.5000046001686229  0.4999943668003084  0.3958042639421038   T   T   T
  0.4998375720977890  0.7486427456669347  0.3932329383484827   T   T   T
  0.7500605912842246  0.9998647927857576  0.4147783365078652   T   T   T
  0.7477465836715993  0.2520562310435395  0.4133625423618739   T   T   T
  0.7502638894003297  0.5000000707822636  0.4083256508701467   T   T   T
  0.7500959089780608  0.7493145630690776  0.4128535982013517   T   T   T
  0.0000030582822248  0.9999978299355234  0.3912618093396816   T   T   T
  0.9993597185115064  0.2502542368250360  0.3940964027511882   T   T   T
  0.9999971825729759  0.5000032900209916  0.3953901883012279   T   T   T
  0.0006416479195934  0.7497444758562324  0.3941070914211622   T   T   T
  0.1228920134204543  0.1253016739737447  0.4850669589517338   T   T   T
  0.1200401516543366  0.3751653593359450  0.4853336073860959   T   T   T
  0.1241857285784036  0.6238195297126481  0.4854978936705123   T   T   T
  0.1244863685976085  0.8742520206462672  0.4848583901593315   T   T   T
  0.3766984083555442  0.1256226011095123  0.4847662302079314   T   T   T
  0.3717526387491645  0.3756270355784537  0.4866150729543506   T   T   T
  0.3772916482301767  0.6193537743044715  0.4909905638654948   T   T   T
  0.3763989957414253  0.8743483566077330  0.4845220728849000   T   T   T
  0.6235883437710328  0.1256518266962701  0.4845256252159587   T   T   T
  0.6227499905080478  0.3806379776622819  0.4909716455188402   T   T   T
  0.6282796121932321  0.6243746226959956  0.4866164688301851   T   T   T
  0.6233088027833986  0.8743834342992969  0.4847802437890536   T   T   T
  0.8755033798989871  0.1257498785059070  0.4848550828422376   T   T   T
  0.8758185503307061  0.3761803593390667  0.4855014760925300   T   T   T
  0.8799652214625553  0.6248406616089284  0.4853255474503584   T   T   T
  0.8771166653390736  0.8747061205022959  0.4850715289523251   T   T   T
  0.1249999993158326  0.1249999996774775  0.3217247690607294   F   F   F
  0.1249999993158326  0.3749999996774775  0.3217247690607294   F   F   F
  0.1250000002280558  0.6249999990324397  0.3217247690607294   F   F   F
  0.1250000002280558  0.8749999983874019  0.3217247690607294   F   F   F
  0.3749999988597210  0.1249999996774775  0.3217247690607294   F   F   F
  0.3749999997719442  0.3749999996774775  0.3217247690607294   F   F   F
  0.3749999997719442  0.6249999990324397  0.3217247690607294   F   F   F
  0.3749999997719442  0.8749999983874019  0.3217247690607294   F   F   F
  0.6249999993158326  0.1249999996774775  0.3217247690607294   F   F   F
  0.6249999984036094  0.3749999996774775  0.3217247690607294   F   F   F
  0.6249999993158326  0.6249999990324397  0.3217247690607294   F   F   F
  0.6249999993158326  0.8749999983874019  0.3217247690607294   F   F   F
  0.8749999979474978  0.1249999996774775  0.3217247690607294   F   F   F
  0.8749999988597210  0.3749999996774775  0.3217247690607294   F   F   F
  0.8749999988597210  0.6249999990324397  0.3217247690607294   F   F   F
  0.8749999988597210  0.8749999983874019  0.3217247690607294   F   F   F
  0.5513083703100676  0.4145619306576123  0.6138794641122516   T   T   T
  0.6246970528501592  0.4924183462759899  0.6200356687137045   T   T   T
  0.4486502536851091  0.5854453985651631  0.6138640824030475   T   T   T
  0.3753799143820018  0.5076244212059180  0.6199863682023334   T   T   T
  0.5780664420011448  0.5709389341120712  0.6017370188053519   T   T   T
  0.4219210136829261  0.4291090278119327  0.6017181152175652   T   T   T
  0.2255042023358627  0.5111663691761379  0.6540888175139870   T   T   T
  0.4217951367571544  0.6687619115221182  0.6911603740110550   T   T   T
  0.5781842729008417  0.3312824481306222  0.6912050471026063   T   T   T
  0.7744888459640578  0.4888537045275285  0.6541618219740428   T   T   T
 
  0.00000000E+00  0.00000000E+00  0.00000000E+00
  0.00000000E+00  0.00000000E+00  0.00000000E+00
  0.00000000E+00  0.00000000E+00  0.00000000E+00
  0.00000000E+00  0.00000000E+00  0.00000000E+00
  0.00000000E+00  0.00000000E+00  0.00000000E+00
  0.00000000E+00  0.00000000E+00  0.00000000E+00
  0.00000000E+00  0.00000000E+00  0.00000000E+00
  0.00000000E+00  0.00000000E+00  0.00000000E+00
  0.00000000E+00  0.00000000E+00  0.00000000E+00
  0.00000000E+00  0.00000000E+00  0.00000000E+00
  0.00000000E+00  0.00000000E+00  0.00000000E+00
  0.00000000E+00  0.00000000E+00  0.00000000E+00
  0.00000000E+00  0.00000000E+00  0.00000000E+00
  0.00000000E+00  0.00000000E+00  0.00000000E+00
  0.00000000E+00  0.00000000E+00  0.00000000E+00
  0.00000000E+00  0.00000000E+00  0.00000000E+00
  0.00000000E+00  0.00000000E+00  0.00000000E+00
  0.00000000E+00  0.00000000E+00  0.00000000E+00
  0.00000000E+00  0.00000000E+00  0.00000000E+00
  0.00000000E+00  0.00000000E+00  0.00000000E+00
  0.00000000E+00  0.00000000E+00  0.00000000E+00
  0.00000000E+00  0.00000000E+00  0.00000000E+00
  0.00000000E+00  0.00000000E+00  0.00000000E+00
  0.00000000E+00  0.00000000E+00  0.00000000E+00
  0.00000000E+00  0.00000000E+00  0.00000000E+00
  0.00000000E+00  0.00000000E+00  0.00000000E+00
  0.00000000E+00  0.00000000E+00  0.00000000E+00
  0.00000000E+00  0.00000000E+00  0.00000000E+00
  0.00000000E+00  0.00000000E+00  0.00000000E+00
  0.00000000E+00  0.00000000E+00  0.00000000E+00
  0.00000000E+00  0.00000000E+00  0.00000000E+00
  0.00000000E+00  0.00000000E+00  0.00000000E+00
  0.00000000E+00  0.00000000E+00  0.00000000E+00
  0.00000000E+00  0.00000000E+00  0.00000000E+00
  0.00000000E+00  0.00000000E+00  0.00000000E+00
  0.00000000E+00  0.00000000E+00  0.00000000E+00
  0.00000000E+00  0.00000000E+00  0.00000000E+00
  0.00000000E+00  0.00000000E+00  0.00000000E+00
  0.00000000E+00  0.00000000E+00  0.00000000E+00
  0.00000000E+00  0.00000000E+00  0.00000000E+00
  0.00000000E+00  0.00000000E+00  0.00000000E+00
  0.00000000E+00  0.00000000E+00  0.00000000E+00
  0.00000000E+00  0.00000000E+00  0.00000000E+00
  0.00000000E+00  0.00000000E+00  0.00000000E+00
  0.00000000E+00  0.00000000E+00  0.00000000E+00
  0.00000000E+00  0.00000000E+00  0.00000000E+00
  0.00000000E+00  0.00000000E+00  0.00000000E+00
  0.00000000E+00  0.00000000E+00  0.00000000E+00
  0.00000000E+00  0.00000000E+00  0.00000000E+00
  0.00000000E+00  0.00000000E+00  0.00000000E+00
  0.00000000E+00  0.00000000E+00  0.00000000E+00
  0.00000000E+00  0.00000000E+00  0.00000000E+00
  0.00000000E+00  0.00000000E+00  0.00000000E+00
  0.00000000E+00  0.00000000E+00  0.00000000E+00
  0.00000000E+00  0.00000000E+00  0.00000000E+00
  0.00000000E+00  0.00000000E+00  0.00000000E+00
  0.00000000E+00  0.00000000E+00  0.00000000E+00
  0.00000000E+00  0.00000000E+00  0.00000000E+00
