Ag48 C6 Cl2 H4                          
    1.000000000000000     
    11.7702790000000004    0.0000000000000000    0.0000000000000000
     0.0000000000000000   16.6456881000000010    0.0000000000000000
     0.0000000000000000    0.0000000000000000   15.7069352000000002
   Ag   C    Cl   H 
    48     6     2     4
Selective dynamics
Direct
  0.9999986852158003  0.2500249006845578  0.4044740698544089   T   T   T
  0.0000004841671739  0.5000004387156878  0.4045422537515861   T   T   T
  0.0000008998809378  0.7499753112122605  0.4044722873207647   T   T   T
  0.9999990394802012  0.9999993798751348  0.4043758271171356   T   T   T
  0.2497414687542943  0.2498168039040749  0.4041064932243472   T   T   T
  0.2500310066719464  0.5000627181065624  0.4045910197953191   T   T   T
  0.2502068201474330  0.7498339931278082  0.4048224040286215   T   T   T
  0.2499781184499028  0.9999951970730763  0.4045344793304082   T   T   T
  0.5002967770371214  0.2499385798714826  0.4043890905815601   T   T   T
  0.4999992756441998  0.5000012497230486  0.4040547815375461   T   T   T
  0.4997045012397123  0.7500621985793785  0.4043851981878248   T   T   T
  0.5000019591874292  0.9999978093021795  0.4044964207453035   T   T   T
  0.7497941601954352  0.2501645836393465  0.4048245587373529   T   T   T
  0.7499691857287232  0.4999390236043482  0.4045937168331619   T   T   T
  0.7502565166269406  0.7501856495152026  0.4041030482461920   T   T   T
  0.7500208172796192  0.0000019912544076  0.4045303218407525   T   T   T
  0.1250198602009718  0.1250893831509003  0.4905889136631956   T   T   T
  0.1242410607101903  0.3751177987854177  0.4905610801681490   T   T   T
  0.1250968814026621  0.6248885014253318  0.4906565984911850   T   T   T
  0.1250293710679529  0.8749881556989934  0.4905829024272705   T   T   T
  0.3751059100259582  0.1251136022439567  0.4905972200780440   T   T   T
  0.3747598286183660  0.3747527482819066  0.4893038637413696   T   T   T
  0.3749540539415506  0.6242283935573951  0.4910906356058291   T   T   T
  0.3750889273040130  0.8748769140656805  0.4906460314870387   T   T   T
  0.6249100187747345  0.1251223369421410  0.4906469579647492   T   T   T
  0.6250474095250098  0.3757719405971187  0.4910976326578762   T   T   T
  0.6252408968573064  0.6252478018230860  0.4893080631959634   T   T   T
  0.6248940853235325  0.8748860439951045  0.4905808738732205   T   T   T
  0.8749707833691929  0.1250109808634150  0.4905823356502950   T   T   T
  0.8749027384718318  0.3751116402695658  0.4906598091546499   T   T   T
  0.8757572231934176  0.6248829827693498  0.4905617181344297   T   T   T
  0.8749810521394110  0.8749106643478228  0.4905827154310884   T   T   T
  0.1249999995752020  0.1250000004505694  0.3183307205596648   F   F   F
  0.1249999995752020  0.3750000007509442  0.3183307205596648   F   F   F
  0.1249999995752020  0.6250000016520829  0.3183307205596648   F   F   F
  0.1249999995752020  0.8750000019524578  0.3183307205596648   F   F   F
  0.3749999987256061  0.1250000004505694  0.3183307205596648   F   F   F
  0.3749999987256061  0.3750000007509442  0.3183307205596648   F   F   F
  0.3749999987256061  0.6250000016520829  0.3183307205596648   F   F   F
  0.3749999987256061  0.8750000019524578  0.3183307205596648   F   F   F
  0.6249999978760030  0.1250000004505694  0.3183307205596648   F   F   F
  0.6249999978760030  0.3750000007509442  0.3183307205596648   F   F   F
  0.6249999978760030  0.6250000016520829  0.3183307205596648   F   F   F
  0.6249999978760030  0.8750000019524578  0.3183307205596648   F   F   F
  0.8749999970264071  0.1250000004505694  0.3183307205596648   F   F   F
  0.8749999970264071  0.3750000007509442  0.3183307205596648   F   F   F
  0.8749999970264071  0.6250000016520829  0.3183307205596648   F   F   F
  0.8749999970264071  0.8750000019524578  0.3183307205596648   F   F   F
  0.4319789182037681  0.4322185513566339  0.6822546637287559   T   T   T
  0.3813358427886300  0.5079842753574582  0.6813775877556623   T   T   T
  0.4498474495691553  0.5764311564491607  0.6811242375879871   T   T   T
  0.5680201025583429  0.5677804684053527  0.6822682880423656   T   T   T
  0.6186634963075122  0.4920154097366733  0.6813852682282118   T   T   T
  0.5501520107057090  0.4235682148989852  0.6811180050504788   T   T   T
  0.3467720714431479  0.3470991401117303  0.6830506593662093   T   T   T
  0.6532261357006277  0.6528992805300931  0.6830810574680015   T   T   T
  0.2890861518934926  0.5137055454564035  0.6806674763878249   T   T   T
  0.4115783228073582  0.6360908106421306  0.6813770523488145   T   T   T
  0.7109126605985026  0.4862950071180379  0.6806815639924011   T   T   T
  0.5884214930796290  0.3639079643425660  0.6813633288050127   T   T   T
 
  0.00000000E+00  0.00000000E+00  0.00000000E+00
  0.00000000E+00  0.00000000E+00  0.00000000E+00
  0.00000000E+00  0.00000000E+00  0.00000000E+00
  0.00000000E+00  0.00000000E+00  0.00000000E+00
  0.00000000E+00  0.00000000E+00  0.00000000E+00
  0.00000000E+00  0.00000000E+00  0.00000000E+00
  0.00000000E+00  0.00000000E+00  0.00000000E+00
  0.00000000E+00  0.00000000E+00  0.00000000E+00
  0.00000000E+00  0.00000000E+00  0.00000000E+00
  0.00000000E+00  0.00000000E+00  0.00000000E+00
  0.00000000E+00  0.00000000E+00  0.00000000E+00
  0.00000000E+00  0.00000000E+00  0.00000000E+00
  0.00000000E+00  0.00000000E+00  0.00000000E+00
  0.00000000E+00  0.00000000E+00  0.00000000E+00
  0.00000000E+00  0.00000000E+00  0.00000000E+00
  0.00000000E+00  0.00000000E+00  0.00000000E+00
  0.00000000E+00  0.00000000E+00  0.00000000E+00
  0.00000000E+00  0.00000000E+00  0.00000000E+00
  0.00000000E+00  0.00000000E+00  0.00000000E+00
  0.00000000E+00  0.00000000E+00  0.00000000E+00
  0.00000000E+00  0.00000000E+00  0.00000000E+00
  0.00000000E+00  0.00000000E+00  0.00000000E+00
  0.00000000E+00  0.00000000E+00  0.00000000E+00
  0.00000000E+00  0.00000000E+00  0.00000000E+00
  0.00000000E+00  0.00000000E+00  0.00000000E+00
  0.00000000E+00  0.00000000E+00  0.00000000E+00
  0.00000000E+00  0.00000000E+00  0.00000000E+00
  0.00000000E+00  0.00000000E+00  0.00000000E+00
  0.00000000E+00  0.00000000E+00  0.00000000E+00
  0.00000000E+00  0.00000000E+00  0.00000000E+00
  0.00000000E+00  0.00000000E+00  0.00000000E+00
  0.00000000E+00  0.00000000E+00  0.00000000E+00
  0.00000000E+00  0.00000000E+00  0.00000000E+00
  0.00000000E+00  0.00000000E+00  0.00000000E+00
  0.00000000E+00  0.00000000E+00  0.00000000E+00
  0.00000000E+00  0.00000000E+00  0.00000000E+00
  0.00000000E+00  0.00000000E+00  0.00000000E+00
  0.00000000E+00  0.00000000E+00  0.00000000E+00
  0.00000000E+00  0.00000000E+00  0.00000000E+00
  0.00000000E+00  0.00000000E+00  0.00000000E+00
  0.00000000E+00  0.00000000E+00  0.00000000E+00
  0.00000000E+00  0.00000000E+00  0.00000000E+00
  0.00000000E+00  0.00000000E+00  0.00000000E+00
  0.00000000E+00  0.00000000E+00  0.00000000E+00
  0.00000000E+00  0.00000000E+00  0.00000000E+00
  0.00000000E+00  0.00000000E+00  0.00000000E+00
  0.00000000E+00  0.00000000E+00  0.00000000E+00
  0.00000000E+00  0.00000000E+00  0.00000000E+00
  0.00000000E+00  0.00000000E+00  0.00000000E+00
  0.00000000E+00  0.00000000E+00  0.00000000E+00
  0.00000000E+00  0.00000000E+00  0.00000000E+00
  0.00000000E+00  0.00000000E+00  0.00000000E+00
  0.00000000E+00  0.00000000E+00  0.00000000E+00
  0.00000000E+00  0.00000000E+00  0.00000000E+00
  0.00000000E+00  0.00000000E+00  0.00000000E+00
  0.00000000E+00  0.00000000E+00  0.00000000E+00
  0.00000000E+00  0.00000000E+00  0.00000000E+00
  0.00000000E+00  0.00000000E+00  0.00000000E+00
  0.00000000E+00  0.00000000E+00  0.00000000E+00
  0.00000000E+00  0.00000000E+00  0.00000000E+00
