Au  C  F                                
   1.00000000000000     
    11.7981859999999994    0.0000000000000000    0.0000000000000000
    -5.8990929999999997   10.2175279999999997    0.0000000000000000
     0.0000000000000000    0.0000000000000000   25.2248836799999978
   Au   C    F 
    64     6     6
Selective dynamics
Direct
  0.9999999981222629  0.7500000352335690  0.2973254543071064   F   F   F
  0.2499999923717056  0.0000000000000000  0.2973254543071064   F   F   F
  0.2500000016343193  0.2500000117445254  0.2973254543071064   F   F   F
  0.2500000117445254  0.5000000234890507  0.2973254543071064   F   F   F
  0.2500000210071391  0.7500000352335690  0.2973254543071064   F   F   F
  0.4999999847434182  0.0000000000000000  0.2973254543071064   F   F   F
  0.4999999940060320  0.2500000117445254  0.2973254543071064   F   F   F
  0.5000000041162309  0.5000000234890507  0.2973254543071064   F   F   F
  0.7499999771151238  0.0000000000000000  0.2973254543071064   F   F   F
  0.7499999863777376  0.2500000117445254  0.2973254543071064   F   F   F
  0.7499999964879436  0.5000000234890507  0.2973254543071064   F   F   F
  0.7500000057505574  0.7500000352335690  0.2973254543071064   F   F   F
  0.9999999694868364  0.0000000000000000  0.2973254543071064   F   F   F
  0.0000000092626138  0.2500000117445254  0.2973254543071064   F   F   F
  0.9999999888596491  0.5000000234890507  0.2973254543071064   F   F   F
  0.5000000133788447  0.7500000352335690  0.2973254543071064   F   F   F
  0.0833330000000032  0.1666669999999968  0.3927984241947584   F   F   F
  0.0833330000000032  0.4166669999999968  0.3927984241947584   F   F   F
  0.0833330000000032  0.6666669999999968  0.3927984241947584   F   F   F
  0.0833330000000032  0.9166669999999968  0.3927984241947584   F   F   F
  0.3333330000000032  0.1666669999999968  0.3927984241947584   F   F   F
  0.3333330000000032  0.4166669999999968  0.3927984241947584   F   F   F
  0.3333330000000032  0.6666669999999968  0.3927984241947584   F   F   F
  0.3333330000000032  0.9166669999999968  0.3927984241947584   F   F   F
  0.5833330000000032  0.1666669999999968  0.3927984241947584   F   F   F
  0.5833330000000032  0.4166669999999968  0.3927984241947584   F   F   F
  0.5833330000000032  0.6666669999999968  0.3927984241947584   F   F   F
  0.5833330000000032  0.9166669999999968  0.3927984241947584   F   F   F
  0.8333330000000032  0.1666669999999968  0.3927984241947584   F   F   F
  0.8333330000000032  0.4166669999999968  0.3927984241947584   F   F   F
  0.8333330000000032  0.6666669999999968  0.3927984241947584   F   F   F
  0.8333330000000032  0.9166669999999968  0.3927984241947584   F   F   F
  0.2489785017711472  0.2503266061063493  0.5831840808068590   T   T   T
  0.2494872553309410  0.5010840768959287  0.5832261384987419   T   T   T
  0.2490069627537926  0.7504648809249671  0.5832371024020356   T   T   T
  0.2499016524417527  0.0013778348941680  0.5832017729478861   T   T   T
  0.5000121884664960  0.2487445701232738  0.5831799916224518   T   T   T
  0.4998370146723159  0.4998157692076157  0.5810606732442096   T   T   T
  0.4998541265159370  0.7501849156195481  0.5811600632123308   T   T   T
  0.4986630908845696 -0.0000408074716843  0.5831916933849037   T   T   T
  0.7508032246871531  0.2493084540546062  0.5832451125733745   T   T   T
  0.7500481254421059  0.4998236370795769  0.5811404049451232   T   T   T
  0.7500996386489757  0.7501035118827689  0.5810651980456298   T   T   T
  0.7499566048665378  0.0013246525882165  0.5831768675015168   T   T   T
  0.0012576989737332  0.2498342101141725  0.5832390846312530   T   T   T
 -0.0009740178924050  0.4985101378678199  0.5832512912909221   T   T   T
  0.0012926140049816  0.7499309248418874  0.5831907220056447   T   T   T
 -0.0012157113596894 -0.0013190320148788  0.5832472560624680   T   T   T
  0.1666340607163280  0.0833280734096299  0.4864703873898898   T   T   T
  0.1666581067600495  0.3333575794338471  0.4864631136295633   T   T   T
  0.1666343463437507  0.5833499726119983  0.4864693357994064   T   T   T
  0.1666871005538310  0.8333723330333915  0.4864463752700272   T   T   T
  0.4166243882659367  0.0833080388704068  0.4864362056963844   T   T   T
  0.4165613555810747  0.3331204020438669  0.4864205232574160   T   T   T
  0.4164558277451427  0.5832211817956204  0.4863357514236090   T   T   T
  0.4165451177675202  0.8334255919906708  0.4863769462889040   T   T   T
  0.6666320831247636  0.0833182719362814  0.4864559699564136   T   T   T
  0.6665979308770661  0.3331243388434987  0.4864113755014810   T   T   T
  0.6667640319233235  0.5831931024976540  0.4862071334920193   T   T   T
  0.6667898304637165  0.8335075763141934  0.4863551848759547   T   T   T
  0.9166915566860803  0.0833613931102391  0.4864639210766918   T   T   T
  0.9166820848446152  0.3333032681687962  0.4864614528193376   T   T   T
  0.9168514165357347  0.5833872898768971  0.4864275279068763   T   T   T
  0.9168687296004202  0.8334172440123263  0.4863993474496919   T   T   T
  0.6938241459571899  0.7621650703544424  0.7053497622182487   T   T   T
  0.7622190835302762  0.6938055774189511  0.7053651820358409   T   T   T
  0.6938768901788969  0.5572587517783957  0.7058112291451857   T   T   T
  0.5573260395157482  0.4888076052564690  0.7054142947422840   T   T   T
  0.4888803179166015  0.5571822631817469  0.7054057353308746   T   T   T
  0.5572762851873104  0.6937398033633334  0.7057871636808007   T   T   T
  0.7595799809808468  0.8938327864906047  0.7058228158116148   T   T   T
  0.8939076318650734  0.7596301289356391  0.7058302894772783   T   T   T
  0.7599259802255395  0.4915695322901753  0.7067058965202851   T   T   T
  0.4916718047545343  0.3571328298234373  0.7059029756704105   T   T   T
  0.3572328306036885  0.4914957814950575  0.7058801298439052   T   T   T
  0.4914835816409377  0.7596989982397286  0.7066518323474613   T   T   T
 
  0.00000000E+00  0.00000000E+00  0.00000000E+00
  0.00000000E+00  0.00000000E+00  0.00000000E+00
  0.00000000E+00  0.00000000E+00  0.00000000E+00
  0.00000000E+00  0.00000000E+00  0.00000000E+00
  0.00000000E+00  0.00000000E+00  0.00000000E+00
  0.00000000E+00  0.00000000E+00  0.00000000E+00
  0.00000000E+00  0.00000000E+00  0.00000000E+00
  0.00000000E+00  0.00000000E+00  0.00000000E+00
  0.00000000E+00  0.00000000E+00  0.00000000E+00
  0.00000000E+00  0.00000000E+00  0.00000000E+00
  0.00000000E+00  0.00000000E+00  0.00000000E+00
  0.00000000E+00  0.00000000E+00  0.00000000E+00
  0.00000000E+00  0.00000000E+00  0.00000000E+00
  0.00000000E+00  0.00000000E+00  0.00000000E+00
  0.00000000E+00  0.00000000E+00  0.00000000E+00
  0.00000000E+00  0.00000000E+00  0.00000000E+00
  0.00000000E+00  0.00000000E+00  0.00000000E+00
  0.00000000E+00  0.00000000E+00  0.00000000E+00
  0.00000000E+00  0.00000000E+00  0.00000000E+00
  0.00000000E+00  0.00000000E+00  0.00000000E+00
  0.00000000E+00  0.00000000E+00  0.00000000E+00
  0.00000000E+00  0.00000000E+00  0.00000000E+00
  0.00000000E+00  0.00000000E+00  0.00000000E+00
  0.00000000E+00  0.00000000E+00  0.00000000E+00
  0.00000000E+00  0.00000000E+00  0.00000000E+00
  0.00000000E+00  0.00000000E+00  0.00000000E+00
  0.00000000E+00  0.00000000E+00  0.00000000E+00
  0.00000000E+00  0.00000000E+00  0.00000000E+00
  0.00000000E+00  0.00000000E+00  0.00000000E+00
  0.00000000E+00  0.00000000E+00  0.00000000E+00
  0.00000000E+00  0.00000000E+00  0.00000000E+00
  0.00000000E+00  0.00000000E+00  0.00000000E+00
  0.00000000E+00  0.00000000E+00  0.00000000E+00
  0.00000000E+00  0.00000000E+00  0.00000000E+00
  0.00000000E+00  0.00000000E+00  0.00000000E+00
  0.00000000E+00  0.00000000E+00  0.00000000E+00
  0.00000000E+00  0.00000000E+00  0.00000000E+00
  0.00000000E+00  0.00000000E+00  0.00000000E+00
  0.00000000E+00  0.00000000E+00  0.00000000E+00
  0.00000000E+00  0.00000000E+00  0.00000000E+00
  0.00000000E+00  0.00000000E+00  0.00000000E+00
  0.00000000E+00  0.00000000E+00  0.00000000E+00
  0.00000000E+00  0.00000000E+00  0.00000000E+00
  0.00000000E+00  0.00000000E+00  0.00000000E+00
  0.00000000E+00  0.00000000E+00  0.00000000E+00
  0.00000000E+00  0.00000000E+00  0.00000000E+00
  0.00000000E+00  0.00000000E+00  0.00000000E+00
  0.00000000E+00  0.00000000E+00  0.00000000E+00
  0.00000000E+00  0.00000000E+00  0.00000000E+00
  0.00000000E+00  0.00000000E+00  0.00000000E+00
  0.00000000E+00  0.00000000E+00  0.00000000E+00
  0.00000000E+00  0.00000000E+00  0.00000000E+00
  0.00000000E+00  0.00000000E+00  0.00000000E+00
  0.00000000E+00  0.00000000E+00  0.00000000E+00
  0.00000000E+00  0.00000000E+00  0.00000000E+00
  0.00000000E+00  0.00000000E+00  0.00000000E+00
  0.00000000E+00  0.00000000E+00  0.00000000E+00
  0.00000000E+00  0.00000000E+00  0.00000000E+00
  0.00000000E+00  0.00000000E+00  0.00000000E+00
  0.00000000E+00  0.00000000E+00  0.00000000E+00
  0.00000000E+00  0.00000000E+00  0.00000000E+00
  0.00000000E+00  0.00000000E+00  0.00000000E+00
  0.00000000E+00  0.00000000E+00  0.00000000E+00
  0.00000000E+00  0.00000000E+00  0.00000000E+00
  0.00000000E+00  0.00000000E+00  0.00000000E+00
  0.00000000E+00  0.00000000E+00  0.00000000E+00
  0.00000000E+00  0.00000000E+00  0.00000000E+00
  0.00000000E+00  0.00000000E+00  0.00000000E+00
  0.00000000E+00  0.00000000E+00  0.00000000E+00
  0.00000000E+00  0.00000000E+00  0.00000000E+00
  0.00000000E+00  0.00000000E+00  0.00000000E+00
  0.00000000E+00  0.00000000E+00  0.00000000E+00
  0.00000000E+00  0.00000000E+00  0.00000000E+00
  0.00000000E+00  0.00000000E+00  0.00000000E+00
  0.00000000E+00  0.00000000E+00  0.00000000E+00
  0.00000000E+00  0.00000000E+00  0.00000000E+00
