Cu48 C6 Br6                             
    1.000000000000000     
    10.2424769999999992    0.0000000000000000    0.0000000000000000
    -5.1212390000000001    8.8702459999999999    0.0000000000000000
     0.0000000000000000    0.0000000000000000   16.1828779999999988
   Cu   C    Br
    48     6     6
Selective dynamics
Direct
  0.0833330000000032  0.1666669999999968  0.3707619999999991   F   F   F
  0.0833330000000032  0.4166669999999968  0.3707619999999991   F   F   F
  0.0833330000000032  0.6666669999999968  0.3707619999999991   F   F   F
  0.0833330000000032  0.9166669999999968  0.3707619999999991   F   F   F
  0.3333330000000032  0.1666669999999968  0.3707619999999991   F   F   F
  0.3333330000000032  0.4166669999999968  0.3707619999999991   F   F   F
  0.3333330000000032  0.6666669999999968  0.3707619999999991   F   F   F
  0.3333330000000032  0.9166669999999968  0.3707619999999991   F   F   F
  0.5833330000000032  0.1666669999999968  0.3707619999999991   F   F   F
  0.5833330000000032  0.4166669999999968  0.3707619999999991   F   F   F
  0.5833330000000032  0.6666669999999968  0.3707619999999991   F   F   F
  0.5833330000000032  0.9166669999999968  0.3707619999999991   F   F   F
  0.8333330000000032  0.1666669999999968  0.3707619999999991   F   F   F
  0.8333330000000032  0.4166669999999968  0.3707619999999991   F   F   F
  0.8333330000000032  0.6666669999999968  0.3707619999999991   F   F   F
  0.8333330000000032  0.9166669999999968  0.3707619999999991   F   F   F
  0.9960989644554630  0.9991204857883460  0.6226611449496673   T   T   T
  0.9954664208203710  0.2489400120800553  0.6237353941390253   T   T   T
  0.9968378495215120  0.4987510101933594  0.6244935322168885   T   T   T
  0.9977557206805372  0.7522472744267432  0.6251777925517956   T   T   T
  0.2456484248815300  0.9988157665953210  0.6236297387968150   T   T   T
  0.2461641852505920  0.2492826829218870  0.6244586286090268   T   T   T
  0.2466612957992353  0.5033444691246629  0.6275529108301754   T   T   T
  0.2512555488053394  0.7531689083213635  0.6244872612508772   T   T   T
  0.4957751966538737  0.0003157649327719  0.6250616181328326   T   T   T
  0.5004190577667842  0.2495717172116230  0.6282934662436972   T   T   T
  0.5007163864000930  0.5038351415741573  0.6244588214032589   T   T   T
  0.5010550683384736  0.7545361333196539  0.6237335199122072   T   T   T
  0.7487738833268196  0.0012243045225020  0.6248179345525813   T   T   T
  0.7496798728195628  0.2542179787138821  0.6250649759269606   T   T   T
  0.7511817111047137  0.5043505808832265  0.6236328673496558   T   T   T
  0.7508779898718814  0.7539035805672611  0.6226612849834581   T   T   T
  0.1658102725323545  0.0849450319632652  0.4978418625322334   T   T   T
  0.1665141950249662  0.3346965378342901  0.4988786661145781   T   T   T
  0.1665152090746886  0.5834870712678608  0.4980300575696575   T   T   T
  0.1657287330308463  0.8340138177727496  0.4975407755070052   T   T   T
  0.4159665640195982  0.0843115140426818  0.4989694078662126   T   T   T
  0.4164221300517426  0.3335781952057673  0.4991979525820156   T   T   T
  0.4153037631632230  0.5834886136832438  0.4988801271213887   T   T   T
  0.4151522854469292  0.8334224072237930  0.4985258170474935   T   T   T
  0.6652343101893337  0.0847656113181401  0.4977342420151913   T   T   T
  0.6656880343914153  0.3340315278791337  0.4989667117798788   T   T   T
  0.6650537134439247  0.5841905413729194  0.4978430564557570   T   T   T
  0.6656119228665744  0.8351592515801656  0.4975318514914306   T   T   T
  0.9148391846584403  0.0843851676731262  0.4975288756340319   T   T   T
  0.9165751358593042  0.3348482853071317  0.4985208910779804   T   T   T
  0.9159868151897044  0.5842703045653863  0.4975385715101694   T   T   T
  0.9165951702577928  0.8334063777714462  0.4974405345014432   T   T   T
  0.3034720911621847  0.2171185632015380  0.7595687731290681   T   T   T
  0.2240685301034446  0.2954477373947881  0.7557688728448326   T   T   T
  0.2987251937330484  0.4512352211001414  0.7358649487573743   T   T   T
  0.4546037445711733  0.5259727710472362  0.7557742067636752   T   T   T
  0.5328761888133258  0.4464940336090208  0.7595682624736639   T   T   T
  0.4596883392497517  0.2902710341796819  0.7434365126916020   T   T   T
  0.2029491624717821  0.0017669469962911  0.7829512217679451   T   T   T
  0.0087390831518803  0.1997545093216644  0.7803441043351000   T   T   T
  0.0993075931129752  0.6507081236889789  0.7520093020373579   T   T   T
  0.5502932930856730  0.7412587071532286  0.7803449675645453   T   T   T
  0.7482421533519670  0.5470164827623805  0.7829531044197040   T   T   T
  0.6564178048609648  0.0935839743439999  0.7510756817512245   T   T   T
 
  0.00000000E+00  0.00000000E+00  0.00000000E+00
  0.00000000E+00  0.00000000E+00  0.00000000E+00
  0.00000000E+00  0.00000000E+00  0.00000000E+00
  0.00000000E+00  0.00000000E+00  0.00000000E+00
  0.00000000E+00  0.00000000E+00  0.00000000E+00
  0.00000000E+00  0.00000000E+00  0.00000000E+00
  0.00000000E+00  0.00000000E+00  0.00000000E+00
  0.00000000E+00  0.00000000E+00  0.00000000E+00
  0.00000000E+00  0.00000000E+00  0.00000000E+00
  0.00000000E+00  0.00000000E+00  0.00000000E+00
  0.00000000E+00  0.00000000E+00  0.00000000E+00
  0.00000000E+00  0.00000000E+00  0.00000000E+00
  0.00000000E+00  0.00000000E+00  0.00000000E+00
  0.00000000E+00  0.00000000E+00  0.00000000E+00
  0.00000000E+00  0.00000000E+00  0.00000000E+00
  0.00000000E+00  0.00000000E+00  0.00000000E+00
  0.00000000E+00  0.00000000E+00  0.00000000E+00
  0.00000000E+00  0.00000000E+00  0.00000000E+00
  0.00000000E+00  0.00000000E+00  0.00000000E+00
  0.00000000E+00  0.00000000E+00  0.00000000E+00
  0.00000000E+00  0.00000000E+00  0.00000000E+00
  0.00000000E+00  0.00000000E+00  0.00000000E+00
  0.00000000E+00  0.00000000E+00  0.00000000E+00
  0.00000000E+00  0.00000000E+00  0.00000000E+00
  0.00000000E+00  0.00000000E+00  0.00000000E+00
  0.00000000E+00  0.00000000E+00  0.00000000E+00
  0.00000000E+00  0.00000000E+00  0.00000000E+00
  0.00000000E+00  0.00000000E+00  0.00000000E+00
  0.00000000E+00  0.00000000E+00  0.00000000E+00
  0.00000000E+00  0.00000000E+00  0.00000000E+00
  0.00000000E+00  0.00000000E+00  0.00000000E+00
  0.00000000E+00  0.00000000E+00  0.00000000E+00
  0.00000000E+00  0.00000000E+00  0.00000000E+00
  0.00000000E+00  0.00000000E+00  0.00000000E+00
  0.00000000E+00  0.00000000E+00  0.00000000E+00
  0.00000000E+00  0.00000000E+00  0.00000000E+00
  0.00000000E+00  0.00000000E+00  0.00000000E+00
  0.00000000E+00  0.00000000E+00  0.00000000E+00
  0.00000000E+00  0.00000000E+00  0.00000000E+00
  0.00000000E+00  0.00000000E+00  0.00000000E+00
  0.00000000E+00  0.00000000E+00  0.00000000E+00
  0.00000000E+00  0.00000000E+00  0.00000000E+00
  0.00000000E+00  0.00000000E+00  0.00000000E+00
  0.00000000E+00  0.00000000E+00  0.00000000E+00
  0.00000000E+00  0.00000000E+00  0.00000000E+00
  0.00000000E+00  0.00000000E+00  0.00000000E+00
  0.00000000E+00  0.00000000E+00  0.00000000E+00
  0.00000000E+00  0.00000000E+00  0.00000000E+00
  0.00000000E+00  0.00000000E+00  0.00000000E+00
  0.00000000E+00  0.00000000E+00  0.00000000E+00
  0.00000000E+00  0.00000000E+00  0.00000000E+00
  0.00000000E+00  0.00000000E+00  0.00000000E+00
  0.00000000E+00  0.00000000E+00  0.00000000E+00
  0.00000000E+00  0.00000000E+00  0.00000000E+00
  0.00000000E+00  0.00000000E+00  0.00000000E+00
  0.00000000E+00  0.00000000E+00  0.00000000E+00
  0.00000000E+00  0.00000000E+00  0.00000000E+00
  0.00000000E+00  0.00000000E+00  0.00000000E+00
  0.00000000E+00  0.00000000E+00  0.00000000E+00
  0.00000000E+00  0.00000000E+00  0.00000000E+00
