Ir  C  H Cl                             
    1.000000000000000     
    10.9622135000000007    0.0000000000000000    0.0000000000000000
     0.0000000000000000   10.9622135000000007    0.0000000000000000
     0.0000000000000000    0.0000000000000000   23.8135916099999996
   Ir   C    H    Cl
    64     6     2     4
Selective dynamics
Direct
  0.0000000000000000  0.2499999995438884  0.3149461921926360   F   F   F
  0.7499999986316652  0.7499999986316652  0.3149461921926360   F   F   F
  0.0000000000000000  0.4999999990877768  0.3149461921926360   F   F   F
  0.0000000000000000  0.7499999986316652  0.3149461921926360   F   F   F
  0.0000000000000000  0.0000000000000000  0.3149461921926360   F   F   F
  0.2499999995438884  0.2499999995438884  0.3149461921926360   F   F   F
  0.2499999995438884  0.4999999990877768  0.3149461921926360   F   F   F
  0.7499999986316652  0.0000000000000000  0.3149461921926360   F   F   F
  0.2499999995438884  0.7499999986316652  0.3149461921926360   F   F   F
  0.2499999995438884  0.0000000000000000  0.3149461921926360   F   F   F
  0.4999999990877768  0.2499999995438884  0.3149461921926360   F   F   F
  0.4999999990877768  0.4999999990877768  0.3149461921926360   F   F   F
  0.4999999990877768  0.7499999986316652  0.3149461921926360   F   F   F
  0.4999999990877768  0.0000000000000000  0.3149461921926360   F   F   F
  0.7499999986316652  0.2499999995438884  0.3149461921926360   F   F   F
  0.7499999986316652  0.4999999990877768  0.3149461921926360   F   F   F
  0.9981493112247569  0.2498203147136047  0.4780127394135260   T   T   T
  0.0000110140176920  0.5000125087812312  0.4782128605430354   T   T   T
  0.0018598227656156  0.7501925345369476  0.4780102274244963   T   T   T
  0.0000104671697905 -0.0000042546915303  0.4780358412091321   T   T   T
  0.2495467450783068  0.2495276225417804  0.4779043314301785   T   T   T
  0.2504812481848083  0.4995013707444672  0.4786532155880265   T   T   T
  0.2527829523798045  0.7472067828536525  0.4794305655899625   T   T   T
  0.2498289883414468  0.9981207307548614  0.4780220422651269   T   T   T
  0.4995180999201802  0.2504859745335930  0.4786527374044489   T   T   T
  0.5000006056953007  0.5000065372750299  0.4788417391343234   T   T   T
  0.5004883512233954  0.7495142097783392  0.4786548290640795   T   T   T
  0.5000205062484414  0.0000252745733308  0.4782292840522176   T   T   T
  0.7472280444434850  0.2527962610672569  0.4794285120705639   T   T   T
  0.7495251915940663  0.5004851987775588  0.4786427665949984   T   T   T
  0.7504461340511107  0.7504748620612836  0.4779057370082175   T   T   T
  0.7502107674453341  0.0018675165129098  0.4780200412415273   T   T   T
  0.1248841917775732  0.1248635894415023  0.5561041668589254   T   T   T
  0.1231076776849979  0.3734534136765377  0.5560428164500550   T   T   T
  0.1236208169269458  0.6245754486733898  0.5571964222062412   T   T   T
  0.1250725126318334  0.8749111395683493  0.5563438893322400   T   T   T
  0.3734386721103686  0.1231056503592165  0.5560434361282007   T   T   T
  0.3715769877972925  0.3715996591417863  0.5569323213807784   T   T   T
  0.3750866313474290  0.6249212558686449  0.5641244828637509   T   T   T
  0.3754396027648533  0.8763762097360664  0.5571885669778152   T   T   T
  0.6245725613365901  0.1236464520348821  0.5571942818725805   T   T   T
  0.6249265118396754  0.3751218631302830  0.5641260113981466   T   T   T
  0.6284139710287163  0.6284278957652956  0.5569343643597475   T   T   T
  0.6265370467268383  0.8769062717140262  0.5560339268954108   T   T   T
  0.8749430913000039  0.1250690087429654  0.5563348619712319   T   T   T
  0.8763738540340442  0.3754590149512798  0.5571830637487843   T   T   T
  0.8768913350150428  0.6265622522924630  0.5560321309056496   T   T   T
  0.8751118191285771  0.8751015647859351  0.5561137078599879   T   T   T
  0.1250000002280558  0.1250000002280558  0.3963225717718615   F   F   F
  0.1250000002280558  0.3749999997719442  0.3963225717718615   F   F   F
  0.1250000002280558  0.6249999993158326  0.3963225717718615   F   F   F
  0.1250000002280558  0.8749999988597210  0.3963225717718615   F   F   F
  0.3749999997719442  0.1250000002280558  0.3963225717718615   F   F   F
  0.3749999997719442  0.3749999997719442  0.3963225717718615   F   F   F
  0.3749999997719442  0.6249999993158326  0.3963225717718615   F   F   F
  0.3749999997719442  0.8749999988597210  0.3963225717718615   F   F   F
  0.6249999993158326  0.1250000002280558  0.3963225717718615   F   F   F
  0.6249999993158326  0.3749999997719442  0.3963225717718615   F   F   F
  0.6249999993158326  0.6249999993158326  0.3963225717718615   F   F   F
  0.6249999993158326  0.8749999988597210  0.3963225717718615   F   F   F
  0.8749999988597210  0.1250000002280558  0.3963225717718615   F   F   F
  0.8749999988597210  0.3749999997719442  0.3963225717718615   F   F   F
  0.8749999988597210  0.6249999993158326  0.3963225717718615   F   F   F
  0.8749999988597210  0.8749999988597210  0.3963225717718615   F   F   F
  0.5961865932654290  0.5961672594412026  0.6427081549371375   T   T   T
  0.6298791035164015  0.4641248241658228  0.6453008323751058   T   T   T
  0.5357411482376462  0.3700921773149439  0.6452582820445560   T   T   T
  0.4037317570860879  0.4038716831515037  0.6426902166016863   T   T   T
  0.3700786849642971  0.5358520272171049  0.6452884683250586   T   T   T
  0.4642124796745682  0.6299203489585763  0.6452963969372432   T   T   T
  0.6549220053544481  0.6549062043747000  0.6681504795103661   T   T   T
  0.3450690223183146  0.3451297186364650  0.6681637257600292   T   T   T
  0.7691122845301753  0.4382984272924014  0.6802116921852743   T   T   T
  0.5612454517333061  0.2306589454209536  0.6800386510085006   T   T   T
  0.2307939945354575  0.5616072566877020  0.6801562901152948   T   T   T
  0.4384391815070256  0.7692319386296039  0.6801482329006544   T   T   T
 
  0.00000000E+00  0.00000000E+00  0.00000000E+00
  0.00000000E+00  0.00000000E+00  0.00000000E+00
  0.00000000E+00  0.00000000E+00  0.00000000E+00
  0.00000000E+00  0.00000000E+00  0.00000000E+00
  0.00000000E+00  0.00000000E+00  0.00000000E+00
  0.00000000E+00  0.00000000E+00  0.00000000E+00
  0.00000000E+00  0.00000000E+00  0.00000000E+00
  0.00000000E+00  0.00000000E+00  0.00000000E+00
  0.00000000E+00  0.00000000E+00  0.00000000E+00
  0.00000000E+00  0.00000000E+00  0.00000000E+00
  0.00000000E+00  0.00000000E+00  0.00000000E+00
  0.00000000E+00  0.00000000E+00  0.00000000E+00
  0.00000000E+00  0.00000000E+00  0.00000000E+00
  0.00000000E+00  0.00000000E+00  0.00000000E+00
  0.00000000E+00  0.00000000E+00  0.00000000E+00
  0.00000000E+00  0.00000000E+00  0.00000000E+00
  0.00000000E+00  0.00000000E+00  0.00000000E+00
  0.00000000E+00  0.00000000E+00  0.00000000E+00
  0.00000000E+00  0.00000000E+00  0.00000000E+00
  0.00000000E+00  0.00000000E+00  0.00000000E+00
  0.00000000E+00  0.00000000E+00  0.00000000E+00
  0.00000000E+00  0.00000000E+00  0.00000000E+00
  0.00000000E+00  0.00000000E+00  0.00000000E+00
  0.00000000E+00  0.00000000E+00  0.00000000E+00
  0.00000000E+00  0.00000000E+00  0.00000000E+00
  0.00000000E+00  0.00000000E+00  0.00000000E+00
  0.00000000E+00  0.00000000E+00  0.00000000E+00
  0.00000000E+00  0.00000000E+00  0.00000000E+00
  0.00000000E+00  0.00000000E+00  0.00000000E+00
  0.00000000E+00  0.00000000E+00  0.00000000E+00
  0.00000000E+00  0.00000000E+00  0.00000000E+00
  0.00000000E+00  0.00000000E+00  0.00000000E+00
  0.00000000E+00  0.00000000E+00  0.00000000E+00
  0.00000000E+00  0.00000000E+00  0.00000000E+00
  0.00000000E+00  0.00000000E+00  0.00000000E+00
  0.00000000E+00  0.00000000E+00  0.00000000E+00
  0.00000000E+00  0.00000000E+00  0.00000000E+00
  0.00000000E+00  0.00000000E+00  0.00000000E+00
  0.00000000E+00  0.00000000E+00  0.00000000E+00
  0.00000000E+00  0.00000000E+00  0.00000000E+00
  0.00000000E+00  0.00000000E+00  0.00000000E+00
  0.00000000E+00  0.00000000E+00  0.00000000E+00
  0.00000000E+00  0.00000000E+00  0.00000000E+00
  0.00000000E+00  0.00000000E+00  0.00000000E+00
  0.00000000E+00  0.00000000E+00  0.00000000E+00
  0.00000000E+00  0.00000000E+00  0.00000000E+00
  0.00000000E+00  0.00000000E+00  0.00000000E+00
  0.00000000E+00  0.00000000E+00  0.00000000E+00
  0.00000000E+00  0.00000000E+00  0.00000000E+00
  0.00000000E+00  0.00000000E+00  0.00000000E+00
  0.00000000E+00  0.00000000E+00  0.00000000E+00
  0.00000000E+00  0.00000000E+00  0.00000000E+00
  0.00000000E+00  0.00000000E+00  0.00000000E+00
  0.00000000E+00  0.00000000E+00  0.00000000E+00
  0.00000000E+00  0.00000000E+00  0.00000000E+00
  0.00000000E+00  0.00000000E+00  0.00000000E+00
  0.00000000E+00  0.00000000E+00  0.00000000E+00
  0.00000000E+00  0.00000000E+00  0.00000000E+00
  0.00000000E+00  0.00000000E+00  0.00000000E+00
  0.00000000E+00  0.00000000E+00  0.00000000E+00
  0.00000000E+00  0.00000000E+00  0.00000000E+00
  0.00000000E+00  0.00000000E+00  0.00000000E+00
  0.00000000E+00  0.00000000E+00  0.00000000E+00
  0.00000000E+00  0.00000000E+00  0.00000000E+00
  0.00000000E+00  0.00000000E+00  0.00000000E+00
  0.00000000E+00  0.00000000E+00  0.00000000E+00
  0.00000000E+00  0.00000000E+00  0.00000000E+00
  0.00000000E+00  0.00000000E+00  0.00000000E+00
  0.00000000E+00  0.00000000E+00  0.00000000E+00
  0.00000000E+00  0.00000000E+00  0.00000000E+00
  0.00000000E+00  0.00000000E+00  0.00000000E+00
  0.00000000E+00  0.00000000E+00  0.00000000E+00
  0.00000000E+00  0.00000000E+00  0.00000000E+00
  0.00000000E+00  0.00000000E+00  0.00000000E+00
  0.00000000E+00  0.00000000E+00  0.00000000E+00
  0.00000000E+00  0.00000000E+00  0.00000000E+00
