Au  C  H Br                             
   1.00000000000000     
    11.7981859999999994    0.0000000000000000    0.0000000000000000
    -5.8990929999999997   10.2175279999999997    0.0000000000000000
     0.0000000000000000    0.0000000000000000   25.2248836799999978
   Au   C    H    Br
    64     6     2     4
Selective dynamics
Direct
  0.9999999981222629  0.7500000352335690  0.2973254543071064   F   F   F
  0.2499999923717056  0.0000000000000000  0.2973254543071064   F   F   F
  0.2500000016343193  0.2500000117445254  0.2973254543071064   F   F   F
  0.2500000117445254  0.5000000234890507  0.2973254543071064   F   F   F
  0.2500000210071391  0.7500000352335690  0.2973254543071064   F   F   F
  0.4999999847434182  0.0000000000000000  0.2973254543071064   F   F   F
  0.4999999940060320  0.2500000117445254  0.2973254543071064   F   F   F
  0.5000000041162309  0.5000000234890507  0.2973254543071064   F   F   F
  0.7499999771151238  0.0000000000000000  0.2973254543071064   F   F   F
  0.7499999863777376  0.2500000117445254  0.2973254543071064   F   F   F
  0.7499999964879436  0.5000000234890507  0.2973254543071064   F   F   F
  0.7500000057505574  0.7500000352335690  0.2973254543071064   F   F   F
  0.9999999694868364  0.0000000000000000  0.2973254543071064   F   F   F
  0.0000000092626138  0.2500000117445254  0.2973254543071064   F   F   F
  0.9999999888596491  0.5000000234890507  0.2973254543071064   F   F   F
  0.5000000133788447  0.7500000352335690  0.2973254543071064   F   F   F
  0.0833330000000032  0.1666669999999968  0.3927984241947584   F   F   F
  0.0833330000000032  0.4166669999999968  0.3927984241947584   F   F   F
  0.0833330000000032  0.6666669999999968  0.3927984241947584   F   F   F
  0.0833330000000032  0.9166669999999968  0.3927984241947584   F   F   F
  0.3333330000000032  0.1666669999999968  0.3927984241947584   F   F   F
  0.3333330000000032  0.4166669999999968  0.3927984241947584   F   F   F
  0.3333330000000032  0.6666669999999968  0.3927984241947584   F   F   F
  0.3333330000000032  0.9166669999999968  0.3927984241947584   F   F   F
  0.5833330000000032  0.1666669999999968  0.3927984241947584   F   F   F
  0.5833330000000032  0.4166669999999968  0.3927984241947584   F   F   F
  0.5833330000000032  0.6666669999999968  0.3927984241947584   F   F   F
  0.5833330000000032  0.9166669999999968  0.3927984241947584   F   F   F
  0.8333330000000032  0.1666669999999968  0.3927984241947584   F   F   F
  0.8333330000000032  0.4166669999999968  0.3927984241947584   F   F   F
  0.8333330000000032  0.6666669999999968  0.3927984241947584   F   F   F
  0.8333330000000032  0.9166669999999968  0.3927984241947584   F   F   F
  0.2512028907725105  0.2512516738832425  0.5832164736379262   T   T   T
  0.2486154599080055  0.5000537594920909  0.5831527587072353   T   T   T
  0.2500055335948058  0.7500493085149798  0.5844823858337296   T   T   T
  0.2500288316686379 -0.0000271392860001  0.5844412625003079   T   T   T
  0.4999313194561378  0.2497894053667242  0.5842965017602533   T   T   T
  0.4999934061943394  0.5001186311382191  0.5809374129484368   T   T   T
  0.4986419458002458  0.7499630766283933  0.5831112075560834   T   T   T
  0.5000171832676301 -0.0000280917291787  0.5844583028593181   T   T   T
  0.7499757144788168  0.2499287257335903  0.5844420854377090   T   T   T
  0.7486720917801420  0.4986516046476647  0.5831972506503522   T   T   T
  0.7499683158332238  0.7498962865729618  0.5809216626319763   T   T   T
  0.7499088475879181 -0.0013420060623747  0.5831447016746949   T   T   T
 -0.0014981921272807  0.2492685344248466  0.5833166866912951   T   T   T
 -0.0001955106149897  0.4998066456678690  0.5844566977782744   T   T   T
 -0.0000445685628386  0.7485724219557947  0.5831666838925416   T   T   T
  0.0014656103774263  0.0000056292213736  0.5832089641613364   T   T   T
  0.1680323271534743  0.0835092277436640  0.4878172322364351   T   T   T
  0.1663953634347572  0.3343967794432494  0.4878131005636711   T   T   T
  0.1652288916256749  0.5832772704897237  0.4878960280832731   T   T   T
  0.1654077785732517  0.8320518776004220  0.4879045021175612   T   T   T
  0.4167141993174153  0.0820874570432195  0.4879172663383477   T   T   T
  0.4165821526725554  0.3331058411001111  0.4863777911488920   T   T   T
  0.4164081000633712  0.5835464548775033  0.4862817336874800   T   T   T
  0.4152904617476804  0.8330683326812044  0.4878217343954053   T   T   T
  0.6668496698059935  0.0821761839316889  0.4878688037206464   T   T   T
  0.6651180848393642  0.3317882369506885  0.4879229991186853   T   T   T
  0.6668881407864586  0.5831416644305518  0.4862350604950653   T   T   T
  0.6665542130884551  0.8333675745598189  0.4863470314795425   T   T   T
  0.9179759044293144  0.0835535639288712  0.4877896337744419   T   T   T
  0.9150662893896560  0.3324675035569353  0.4873762116049278   T   T   T
  0.9153009243150488  0.5818219313640144  0.4878592492599598   T   T   T
  0.9171270079455884  0.8334297779776987  0.4862729236485143   T   T   T
  0.6926403576531568  0.5561661413250015  0.7051515927381724   T   T   T
  0.5559499761126663  0.4871001956234270  0.7068324164773642   T   T   T
  0.4865566294253844  0.5550258636903046  0.7064685841708032   T   T   T
  0.5549261390288587  0.6916694443798953  0.7044851904759272   T   T   T
  0.6916720646841490  0.7609967027357163  0.7060259884074194   T   T   T
  0.7608695383637749  0.6929359972247180  0.7064210428885033   T   T   T
  0.7462594040193599  0.5031068212718123  0.7042871567545136   T   T   T
  0.5014465573418051  0.7447312311878505  0.7032023642375266   T   T   T
  0.4710242432790918  0.3024896996132680  0.7104240828414526   T   T   T
  0.3015781752112441  0.4681588331903470  0.7097357953325033   T   T   T
  0.7776445204898653  0.9459233132495205  0.7085623975589092   T   T   T
  0.9454192225671323  0.7805314339677670  0.7101090532910325   T   T   T
 
  0.00000000E+00  0.00000000E+00  0.00000000E+00
  0.00000000E+00  0.00000000E+00  0.00000000E+00
  0.00000000E+00  0.00000000E+00  0.00000000E+00
  0.00000000E+00  0.00000000E+00  0.00000000E+00
  0.00000000E+00  0.00000000E+00  0.00000000E+00
  0.00000000E+00  0.00000000E+00  0.00000000E+00
  0.00000000E+00  0.00000000E+00  0.00000000E+00
  0.00000000E+00  0.00000000E+00  0.00000000E+00
  0.00000000E+00  0.00000000E+00  0.00000000E+00
  0.00000000E+00  0.00000000E+00  0.00000000E+00
  0.00000000E+00  0.00000000E+00  0.00000000E+00
  0.00000000E+00  0.00000000E+00  0.00000000E+00
  0.00000000E+00  0.00000000E+00  0.00000000E+00
  0.00000000E+00  0.00000000E+00  0.00000000E+00
  0.00000000E+00  0.00000000E+00  0.00000000E+00
  0.00000000E+00  0.00000000E+00  0.00000000E+00
  0.00000000E+00  0.00000000E+00  0.00000000E+00
  0.00000000E+00  0.00000000E+00  0.00000000E+00
  0.00000000E+00  0.00000000E+00  0.00000000E+00
  0.00000000E+00  0.00000000E+00  0.00000000E+00
  0.00000000E+00  0.00000000E+00  0.00000000E+00
  0.00000000E+00  0.00000000E+00  0.00000000E+00
  0.00000000E+00  0.00000000E+00  0.00000000E+00
  0.00000000E+00  0.00000000E+00  0.00000000E+00
  0.00000000E+00  0.00000000E+00  0.00000000E+00
  0.00000000E+00  0.00000000E+00  0.00000000E+00
  0.00000000E+00  0.00000000E+00  0.00000000E+00
  0.00000000E+00  0.00000000E+00  0.00000000E+00
  0.00000000E+00  0.00000000E+00  0.00000000E+00
  0.00000000E+00  0.00000000E+00  0.00000000E+00
  0.00000000E+00  0.00000000E+00  0.00000000E+00
  0.00000000E+00  0.00000000E+00  0.00000000E+00
  0.00000000E+00  0.00000000E+00  0.00000000E+00
  0.00000000E+00  0.00000000E+00  0.00000000E+00
  0.00000000E+00  0.00000000E+00  0.00000000E+00
  0.00000000E+00  0.00000000E+00  0.00000000E+00
  0.00000000E+00  0.00000000E+00  0.00000000E+00
  0.00000000E+00  0.00000000E+00  0.00000000E+00
  0.00000000E+00  0.00000000E+00  0.00000000E+00
  0.00000000E+00  0.00000000E+00  0.00000000E+00
  0.00000000E+00  0.00000000E+00  0.00000000E+00
  0.00000000E+00  0.00000000E+00  0.00000000E+00
  0.00000000E+00  0.00000000E+00  0.00000000E+00
  0.00000000E+00  0.00000000E+00  0.00000000E+00
  0.00000000E+00  0.00000000E+00  0.00000000E+00
  0.00000000E+00  0.00000000E+00  0.00000000E+00
  0.00000000E+00  0.00000000E+00  0.00000000E+00
  0.00000000E+00  0.00000000E+00  0.00000000E+00
  0.00000000E+00  0.00000000E+00  0.00000000E+00
  0.00000000E+00  0.00000000E+00  0.00000000E+00
  0.00000000E+00  0.00000000E+00  0.00000000E+00
  0.00000000E+00  0.00000000E+00  0.00000000E+00
  0.00000000E+00  0.00000000E+00  0.00000000E+00
  0.00000000E+00  0.00000000E+00  0.00000000E+00
  0.00000000E+00  0.00000000E+00  0.00000000E+00
  0.00000000E+00  0.00000000E+00  0.00000000E+00
  0.00000000E+00  0.00000000E+00  0.00000000E+00
  0.00000000E+00  0.00000000E+00  0.00000000E+00
  0.00000000E+00  0.00000000E+00  0.00000000E+00
  0.00000000E+00  0.00000000E+00  0.00000000E+00
  0.00000000E+00  0.00000000E+00  0.00000000E+00
  0.00000000E+00  0.00000000E+00  0.00000000E+00
  0.00000000E+00  0.00000000E+00  0.00000000E+00
  0.00000000E+00  0.00000000E+00  0.00000000E+00
  0.00000000E+00  0.00000000E+00  0.00000000E+00
  0.00000000E+00  0.00000000E+00  0.00000000E+00
  0.00000000E+00  0.00000000E+00  0.00000000E+00
  0.00000000E+00  0.00000000E+00  0.00000000E+00
  0.00000000E+00  0.00000000E+00  0.00000000E+00
  0.00000000E+00  0.00000000E+00  0.00000000E+00
  0.00000000E+00  0.00000000E+00  0.00000000E+00
  0.00000000E+00  0.00000000E+00  0.00000000E+00
  0.00000000E+00  0.00000000E+00  0.00000000E+00
  0.00000000E+00  0.00000000E+00  0.00000000E+00
  0.00000000E+00  0.00000000E+00  0.00000000E+00
  0.00000000E+00  0.00000000E+00  0.00000000E+00
