Pt48 C4 N2 F4                           
    1.000000000000000     
    11.2480068000000006    0.0000000000000000    0.0000000000000000
     0.0000000000000000   15.9070838000000006    0.0000000000000000
     0.0000000000000000    0.0000000000000000   15.6744472600000009
   Pt   C    N    F 
    48     4     2     4
Selective dynamics
Direct
  0.2493431904375072  0.2496114586695910  0.4013661108942159   T   T   T
  0.2475214614084464  0.4997699402214764  0.3998644224814143   T   T   T
  0.2520168368508564  0.7485852219440332  0.4046420737216323   T   T   T
  0.2503411269380109  0.0000886506270845  0.4026473691260790   T   T   T
  0.5008316564914495  0.2494914790062523  0.4015231912568424   T   T   T
  0.4999993652708952  0.5000020750962761  0.3906760756194956   T   T   T
  0.4991650904147917  0.7504842877189049  0.4015061787355236   T   T   T
  0.4999977131681703  0.0000247155680810  0.4042094811465944   T   T   T
  0.7479569199120277  0.2514175409427892  0.4046334466832349   T   T   T
  0.7524895602023918  0.5002268742377183  0.3998726992401629   T   T   T
  0.7506780234979971  0.7503672337853260  0.4013674163906487   T   T   T
  0.7496465703638577  0.9999327500649144  0.4026218157565395   T   T   T
  0.9980962765272707  0.2499422014398576  0.4017724268204645   T   T   T
  0.9999969021496398  0.4999968358653533  0.4035679653519963   T   T   T
  0.0019147355064248  0.7500617614005591  0.4017864588435955   T   T   T
  0.0000238531445760  0.9999974390789461  0.4024987209772064   T   T   T
  0.1240963251949836  0.1256458109689405  0.4893959521507654   T   T   T
  0.1210178909900534  0.3734140416663791  0.4895018591803790   T   T   T
  0.1273792402541076  0.6248669047411326  0.4895259616877325   T   T   T
  0.1260709392299191  0.8750946385739198  0.4892908455974236   T   T   T
  0.3742987529226767  0.1256885966215719  0.4895544009359725   T   T   T
  0.3712880803288243  0.3750589065960526  0.4873859941658054   T   T   T
  0.3827700166956234  0.6171841933374793  0.4906909707111637   T   T   T
  0.3753189934183681  0.8749218851246923  0.4896776113940433   T   T   T
  0.6246711268735297  0.1250921862776551  0.4897186757832586   T   T   T
  0.6172284788975446  0.3828084372725371  0.4906787065981248   T   T   T
  0.6287125254059305  0.6249351873395952  0.4873761549356956   T   T   T
  0.6257012302921368  0.8743156485812307  0.4895948379486299   T   T   T
  0.8739371443698900  0.1249223348148192  0.4892310984266217   T   T   T
  0.8726053832573868  0.3751248055603469  0.4895788029554566   T   T   T
  0.8789871659541362  0.6265727659186382  0.4895170892357399   T   T   T
  0.8759306257291897  0.8743548543712691  0.4893385038580220   T   T   T
  0.1250000000000000  0.1250000003143228  0.3189905147570755   F   F   F
  0.1250000000000000  0.3750000003143228  0.3189905147570755   F   F   F
  0.1250000008890453  0.6250000009429755  0.3189905147570755   F   F   F
  0.1250000008890453  0.8750000009429755  0.3189905147570755   F   F   F
  0.3750000008890453  0.1250000003143228  0.3189905147570755   F   F   F
  0.3750000008890453  0.3750000003143228  0.3189905147570755   F   F   F
  0.3750000008890453  0.6250000009429755  0.3189905147570755   F   F   F
  0.3750000008890453  0.8750000009429755  0.3189905147570755   F   F   F
  0.6250000017780906  0.1250000003143228  0.3189905147570755   F   F   F
  0.6250000017780906  0.3750000003143228  0.3189905147570755   F   F   F
  0.6250000017780906  0.6250000009429755  0.3189905147570755   F   F   F
  0.6250000026671358  0.8750000009429755  0.3189905147570755   F   F   F
  0.8750000026671358  0.1250000003143228  0.3189905147570755   F   F   F
  0.8750000026671358  0.3750000003143228  0.3189905147570755   F   F   F
  0.8750000035561882  0.6250000009429755  0.3189905147570755   F   F   F
  0.8750000026671358  0.8750000009429755  0.3189905147570755   F   F   F
  0.4470068153269509  0.5825597772637039  0.6090395566146469   T   T   T
  0.3809632719621447  0.5035332883633359  0.6165724136445832   T   T   T
  0.5529794613856041  0.4174403873815677  0.6090471115243474   T   T   T
  0.6190264484862666  0.4964587082843295  0.6165785619449267   T   T   T
  0.4256872551624724  0.4285131489588210  0.6017304402275556   T   T   T
  0.5742921100110223  0.5714733675400296  0.6017342932996783   T   T   T
  0.7349091823349951  0.4919052305010965  0.6360228917212112   T   T   T
  0.5773130565577986  0.3587774488037709  0.6723497270612384   T   T   T
  0.4226600546764701  0.6412213789542847  0.6723539523564597   T   T   T
  0.2650742792775063  0.5080894935291056  0.6360068504840299   T   T   T
 
  0.00000000E+00  0.00000000E+00  0.00000000E+00
  0.00000000E+00  0.00000000E+00  0.00000000E+00
  0.00000000E+00  0.00000000E+00  0.00000000E+00
  0.00000000E+00  0.00000000E+00  0.00000000E+00
  0.00000000E+00  0.00000000E+00  0.00000000E+00
  0.00000000E+00  0.00000000E+00  0.00000000E+00
  0.00000000E+00  0.00000000E+00  0.00000000E+00
  0.00000000E+00  0.00000000E+00  0.00000000E+00
  0.00000000E+00  0.00000000E+00  0.00000000E+00
  0.00000000E+00  0.00000000E+00  0.00000000E+00
  0.00000000E+00  0.00000000E+00  0.00000000E+00
  0.00000000E+00  0.00000000E+00  0.00000000E+00
  0.00000000E+00  0.00000000E+00  0.00000000E+00
  0.00000000E+00  0.00000000E+00  0.00000000E+00
  0.00000000E+00  0.00000000E+00  0.00000000E+00
  0.00000000E+00  0.00000000E+00  0.00000000E+00
  0.00000000E+00  0.00000000E+00  0.00000000E+00
  0.00000000E+00  0.00000000E+00  0.00000000E+00
  0.00000000E+00  0.00000000E+00  0.00000000E+00
  0.00000000E+00  0.00000000E+00  0.00000000E+00
  0.00000000E+00  0.00000000E+00  0.00000000E+00
  0.00000000E+00  0.00000000E+00  0.00000000E+00
  0.00000000E+00  0.00000000E+00  0.00000000E+00
  0.00000000E+00  0.00000000E+00  0.00000000E+00
  0.00000000E+00  0.00000000E+00  0.00000000E+00
  0.00000000E+00  0.00000000E+00  0.00000000E+00
  0.00000000E+00  0.00000000E+00  0.00000000E+00
  0.00000000E+00  0.00000000E+00  0.00000000E+00
  0.00000000E+00  0.00000000E+00  0.00000000E+00
  0.00000000E+00  0.00000000E+00  0.00000000E+00
  0.00000000E+00  0.00000000E+00  0.00000000E+00
  0.00000000E+00  0.00000000E+00  0.00000000E+00
  0.00000000E+00  0.00000000E+00  0.00000000E+00
  0.00000000E+00  0.00000000E+00  0.00000000E+00
  0.00000000E+00  0.00000000E+00  0.00000000E+00
  0.00000000E+00  0.00000000E+00  0.00000000E+00
  0.00000000E+00  0.00000000E+00  0.00000000E+00
  0.00000000E+00  0.00000000E+00  0.00000000E+00
  0.00000000E+00  0.00000000E+00  0.00000000E+00
  0.00000000E+00  0.00000000E+00  0.00000000E+00
  0.00000000E+00  0.00000000E+00  0.00000000E+00
  0.00000000E+00  0.00000000E+00  0.00000000E+00
  0.00000000E+00  0.00000000E+00  0.00000000E+00
  0.00000000E+00  0.00000000E+00  0.00000000E+00
  0.00000000E+00  0.00000000E+00  0.00000000E+00
  0.00000000E+00  0.00000000E+00  0.00000000E+00
  0.00000000E+00  0.00000000E+00  0.00000000E+00
  0.00000000E+00  0.00000000E+00  0.00000000E+00
  0.00000000E+00  0.00000000E+00  0.00000000E+00
  0.00000000E+00  0.00000000E+00  0.00000000E+00
  0.00000000E+00  0.00000000E+00  0.00000000E+00
  0.00000000E+00  0.00000000E+00  0.00000000E+00
  0.00000000E+00  0.00000000E+00  0.00000000E+00
  0.00000000E+00  0.00000000E+00  0.00000000E+00
  0.00000000E+00  0.00000000E+00  0.00000000E+00
  0.00000000E+00  0.00000000E+00  0.00000000E+00
  0.00000000E+00  0.00000000E+00  0.00000000E+00
  0.00000000E+00  0.00000000E+00  0.00000000E+00
