Ir  C  H Br                             
   1.00000000000000     
    10.9622130000000002    0.0000000000000000    0.0000000000000000
    -5.4811069999999997    9.4935550000000006    0.0000000000000000
     0.0000000000000000    0.0000000000000000   24.7129573799999989
   Ir   C    H    Br
    64     6     2     4
Selective dynamics
Direct
  0.7500000643925233  0.7500000284403470  0.3034845196661777   F   F   F
  0.0000000000000000  0.0000000000000000  0.3034845196661777   F   F   F
  0.0000000102134052  0.2500000094801180  0.3034845196661777   F   F   F
  0.0000000213390337  0.5000000189602289  0.3034845196661777   F   F   F
  0.0000000753392229  0.7500000284403470  0.3034845196661777   F   F   F
  0.2500000109466924  0.0000000000000000  0.3034845196661777   F   F   F
  0.2500000211600977  0.2500000094801180  0.3034845196661777   F   F   F
  0.2500000322857332  0.5000000189602289  0.3034845196661777   F   F   F
  0.5000000218933920  0.0000000000000000  0.3034845196661777   F   F   F
  0.5000000321067972  0.2500000094801180  0.3034845196661777   F   F   F
  0.5000000432324256  0.5000000189602289  0.3034845196661777   F   F   F
  0.5000000534458309  0.7500000284403470  0.3034845196661777   F   F   F
  0.7500000328400844  0.0000000000000000  0.3034845196661777   F   F   F
  0.7500000430534897  0.2500000094801180  0.3034845196661777   F   F   F
  0.7500000541791181  0.5000000189602289  0.3034845196661777   F   F   F
  0.2500000424991384  0.7500000284403470  0.3034845196661777   F   F   F
  0.0833330000000032  0.1666669999999968  0.3940302372665698   F   F   F
  0.0833330000000032  0.4166669999999968  0.3940302372665698   F   F   F
  0.0833330000000032  0.6666669999999968  0.3940302372665698   F   F   F
  0.0833330000000032  0.9166669999999968  0.3940302372665698   F   F   F
  0.3333330000000032  0.1666669999999968  0.3940302372665698   F   F   F
  0.3333330000000032  0.4166669999999968  0.3940302372665698   F   F   F
  0.3333330000000032  0.6666669999999968  0.3940302372665698   F   F   F
  0.3333330000000032  0.9166669999999968  0.3940302372665698   F   F   F
  0.5833330000000032  0.1666669999999968  0.3940302372665698   F   F   F
  0.5833330000000032  0.4166669999999968  0.3940302372665698   F   F   F
  0.5833330000000032  0.6666669999999968  0.3940302372665698   F   F   F
  0.5833330000000032  0.9166669999999968  0.3940302372665698   F   F   F
  0.8333330000000032  0.1666669999999968  0.3940302372665698   F   F   F
  0.8333330000000032  0.4166669999999968  0.3940302372665698   F   F   F
  0.8333330000000032  0.6666669999999968  0.3940302372665698   F   F   F
  0.8333330000000032  0.9166669999999968  0.3940302372665698   F   F   F
  0.9993875632644599 -0.0005590165630920  0.5727309566173802   T   T   T
 -0.0000043183011495  0.2499644626431377  0.5735173614721005   T   T   T
  0.0003636589064313  0.5004540619581973  0.5730774703130833   T   T   T
 -0.0000611047149178  0.7500636309101865  0.5730101118956779   T   T   T
  0.2498830329494992  0.0001131095605711  0.5735601941012551   T   T   T
  0.2505028257166027  0.2504328060683638  0.5724550453644048   T   T   T
  0.2498901886145294  0.5002076238629827  0.5729942606271524   T   T   T
  0.2498927097433131  0.7499002036861364  0.5730983491366894   T   T   T
  0.5004075148373627  0.0005062316124060  0.5731195548618180   T   T   T
  0.4998948919067625  0.2500186508323471  0.5730175862350303   T   T   T
  0.4991073929344647  0.4991828598128120  0.5722137346378543   T   T   T
  0.5000731405492040  0.7499691686652099  0.5735237178225072   T   T   T
  0.7497660663797806  0.0002498477134666  0.5729014981561986   T   T   T
  0.7498702537556639  0.2498174304475338  0.5731246887730860   T   T   T
  0.7499187364743551  0.5001696704234637  0.5735605072636246   T   T   T
  0.7503794903978008  0.7503238718359906  0.5728971643553524   T   T   T
  0.1666431533722400  0.0832576538362012  0.4833922799562467   T   T   T
  0.1661961569277038  0.3332704603599814  0.4835989077178763   T   T   T
  0.1667754015137969  0.5833524477729993  0.4835284036459097   T   T   T
  0.1669057114011397  0.8335002023749267  0.4836983764345682   T   T   T
  0.4163570277767138  0.0831965255678710  0.4836126640633885   T   T   T
  0.4168405574048828  0.3331238818617364  0.4830396541239088   T   T   T
  0.4166954826512400  0.5836967417215005  0.4833831606443964   T   T   T
  0.4168500986222557  0.8333931381256638  0.4837073468983737   T   T   T
  0.6666372383425396  0.0834447313611544  0.4834642043276267   T   T   T
  0.6669211837663607  0.3338348607994009  0.4837981551285481   T   T   T
  0.6666913489239886  0.5833497587934995  0.4834059206563229   T   T   T
  0.6666197147693772  0.8333505865696600  0.4836314662130297   T   T   T
  0.9166589754079204  0.0834140178698831  0.4834401280032196   T   T   T
  0.9167029346220595  0.3332819654630108  0.4837050101242645   T   T   T
  0.9166057321128441  0.5832519438388100  0.4835218828345361   T   T   T
  0.9167605221805457  0.8331855667830531  0.4833505784644983   T   T   T
  0.3008324707970837  0.4477488909468325  0.7045109073556798   T   T   T
  0.4480558040854635  0.5218795052209870  0.7052624126373007   T   T   T
  0.5221181894734331  0.4480199072647555  0.7055180107450691   T   T   T
  0.4479873670858280  0.3007396135087386  0.7050805388210473   T   T   T
  0.3007623559863933  0.2266048756632447  0.7055417664031357   T   T   T
  0.2267163756922488  0.3004859654116639  0.7052303268893328   T   T   T
  0.2435727886607187  0.5051775190589222  0.7034461743485002   T   T   T
  0.5054180601122327  0.2434415076141911  0.7043690010725866   T   T   T
  0.5398342174270627  0.7207642300319936  0.7040288538248897   T   T   T
  0.7210079095860232  0.5402144873858583  0.7043086000597966   T   T   T
  0.2089929451248969  0.0279171123547090  0.7047329416543612   T   T   T
  0.0280380279823137  0.2087636257812762  0.7039289692050795   T   T   T
 
  0.00000000E+00  0.00000000E+00  0.00000000E+00
  0.00000000E+00  0.00000000E+00  0.00000000E+00
  0.00000000E+00  0.00000000E+00  0.00000000E+00
  0.00000000E+00  0.00000000E+00  0.00000000E+00
  0.00000000E+00  0.00000000E+00  0.00000000E+00
  0.00000000E+00  0.00000000E+00  0.00000000E+00
  0.00000000E+00  0.00000000E+00  0.00000000E+00
  0.00000000E+00  0.00000000E+00  0.00000000E+00
  0.00000000E+00  0.00000000E+00  0.00000000E+00
  0.00000000E+00  0.00000000E+00  0.00000000E+00
  0.00000000E+00  0.00000000E+00  0.00000000E+00
  0.00000000E+00  0.00000000E+00  0.00000000E+00
  0.00000000E+00  0.00000000E+00  0.00000000E+00
  0.00000000E+00  0.00000000E+00  0.00000000E+00
  0.00000000E+00  0.00000000E+00  0.00000000E+00
  0.00000000E+00  0.00000000E+00  0.00000000E+00
  0.00000000E+00  0.00000000E+00  0.00000000E+00
  0.00000000E+00  0.00000000E+00  0.00000000E+00
  0.00000000E+00  0.00000000E+00  0.00000000E+00
  0.00000000E+00  0.00000000E+00  0.00000000E+00
  0.00000000E+00  0.00000000E+00  0.00000000E+00
  0.00000000E+00  0.00000000E+00  0.00000000E+00
  0.00000000E+00  0.00000000E+00  0.00000000E+00
  0.00000000E+00  0.00000000E+00  0.00000000E+00
  0.00000000E+00  0.00000000E+00  0.00000000E+00
  0.00000000E+00  0.00000000E+00  0.00000000E+00
  0.00000000E+00  0.00000000E+00  0.00000000E+00
  0.00000000E+00  0.00000000E+00  0.00000000E+00
  0.00000000E+00  0.00000000E+00  0.00000000E+00
  0.00000000E+00  0.00000000E+00  0.00000000E+00
  0.00000000E+00  0.00000000E+00  0.00000000E+00
  0.00000000E+00  0.00000000E+00  0.00000000E+00
  0.00000000E+00  0.00000000E+00  0.00000000E+00
  0.00000000E+00  0.00000000E+00  0.00000000E+00
  0.00000000E+00  0.00000000E+00  0.00000000E+00
  0.00000000E+00  0.00000000E+00  0.00000000E+00
  0.00000000E+00  0.00000000E+00  0.00000000E+00
  0.00000000E+00  0.00000000E+00  0.00000000E+00
  0.00000000E+00  0.00000000E+00  0.00000000E+00
  0.00000000E+00  0.00000000E+00  0.00000000E+00
  0.00000000E+00  0.00000000E+00  0.00000000E+00
  0.00000000E+00  0.00000000E+00  0.00000000E+00
  0.00000000E+00  0.00000000E+00  0.00000000E+00
  0.00000000E+00  0.00000000E+00  0.00000000E+00
  0.00000000E+00  0.00000000E+00  0.00000000E+00
  0.00000000E+00  0.00000000E+00  0.00000000E+00
  0.00000000E+00  0.00000000E+00  0.00000000E+00
  0.00000000E+00  0.00000000E+00  0.00000000E+00
  0.00000000E+00  0.00000000E+00  0.00000000E+00
  0.00000000E+00  0.00000000E+00  0.00000000E+00
  0.00000000E+00  0.00000000E+00  0.00000000E+00
  0.00000000E+00  0.00000000E+00  0.00000000E+00
  0.00000000E+00  0.00000000E+00  0.00000000E+00
  0.00000000E+00  0.00000000E+00  0.00000000E+00
  0.00000000E+00  0.00000000E+00  0.00000000E+00
  0.00000000E+00  0.00000000E+00  0.00000000E+00
  0.00000000E+00  0.00000000E+00  0.00000000E+00
  0.00000000E+00  0.00000000E+00  0.00000000E+00
  0.00000000E+00  0.00000000E+00  0.00000000E+00
  0.00000000E+00  0.00000000E+00  0.00000000E+00
  0.00000000E+00  0.00000000E+00  0.00000000E+00
  0.00000000E+00  0.00000000E+00  0.00000000E+00
  0.00000000E+00  0.00000000E+00  0.00000000E+00
  0.00000000E+00  0.00000000E+00  0.00000000E+00
  0.00000000E+00  0.00000000E+00  0.00000000E+00
  0.00000000E+00  0.00000000E+00  0.00000000E+00
  0.00000000E+00  0.00000000E+00  0.00000000E+00
  0.00000000E+00  0.00000000E+00  0.00000000E+00
  0.00000000E+00  0.00000000E+00  0.00000000E+00
  0.00000000E+00  0.00000000E+00  0.00000000E+00
  0.00000000E+00  0.00000000E+00  0.00000000E+00
  0.00000000E+00  0.00000000E+00  0.00000000E+00
  0.00000000E+00  0.00000000E+00  0.00000000E+00
  0.00000000E+00  0.00000000E+00  0.00000000E+00
  0.00000000E+00  0.00000000E+00  0.00000000E+00
  0.00000000E+00  0.00000000E+00  0.00000000E+00
