Ir  C  H Cl                             
   1.00000000000000     
    10.9622130000000002    0.0000000000000000    0.0000000000000000
    -5.4811069999999997    9.4935550000000006    0.0000000000000000
     0.0000000000000000    0.0000000000000000   24.7129573799999989
   Ir   C    H    Cl
    64     6     4     2
Selective dynamics
Direct
  0.7500000643925233  0.7500000284403470  0.3034845196661777   F   F   F
  0.0000000000000000  0.0000000000000000  0.3034845196661777   F   F   F
  0.0000000102134052  0.2500000094801180  0.3034845196661777   F   F   F
  0.0000000213390337  0.5000000189602289  0.3034845196661777   F   F   F
  0.0000000753392229  0.7500000284403470  0.3034845196661777   F   F   F
  0.2500000109466924  0.0000000000000000  0.3034845196661777   F   F   F
  0.2500000211600977  0.2500000094801180  0.3034845196661777   F   F   F
  0.2500000322857332  0.5000000189602289  0.3034845196661777   F   F   F
  0.5000000218933920  0.0000000000000000  0.3034845196661777   F   F   F
  0.5000000321067972  0.2500000094801180  0.3034845196661777   F   F   F
  0.5000000432324256  0.5000000189602289  0.3034845196661777   F   F   F
  0.5000000534458309  0.7500000284403470  0.3034845196661777   F   F   F
  0.7500000328400844  0.0000000000000000  0.3034845196661777   F   F   F
  0.7500000430534897  0.2500000094801180  0.3034845196661777   F   F   F
  0.7500000541791181  0.5000000189602289  0.3034845196661777   F   F   F
  0.2500000424991384  0.7500000284403470  0.3034845196661777   F   F   F
  0.0833330000000032  0.1666669999999968  0.3940302372665698   F   F   F
  0.0833330000000032  0.4166669999999968  0.3940302372665698   F   F   F
  0.0833330000000032  0.6666669999999968  0.3940302372665698   F   F   F
  0.0833330000000032  0.9166669999999968  0.3940302372665698   F   F   F
  0.3333330000000032  0.1666669999999968  0.3940302372665698   F   F   F
  0.3333330000000032  0.4166669999999968  0.3940302372665698   F   F   F
  0.3333330000000032  0.6666669999999968  0.3940302372665698   F   F   F
  0.3333330000000032  0.9166669999999968  0.3940302372665698   F   F   F
  0.5833330000000032  0.1666669999999968  0.3940302372665698   F   F   F
  0.5833330000000032  0.4166669999999968  0.3940302372665698   F   F   F
  0.5833330000000032  0.6666669999999968  0.3940302372665698   F   F   F
  0.5833330000000032  0.9166669999999968  0.3940302372665698   F   F   F
  0.8333330000000032  0.1666669999999968  0.3940302372665698   F   F   F
  0.8333330000000032  0.4166669999999968  0.3940302372665698   F   F   F
  0.8333330000000032  0.6666669999999968  0.3940302372665698   F   F   F
  0.8333330000000032  0.9166669999999968  0.3940302372665698   F   F   F
  0.9971793662018477  0.9966953914389529  0.5721908628788100   T   T   T
  0.9952934830162253  0.2481296184055577  0.5721151072463441   T   T   T
  0.0014199224448009  0.4997838045865513  0.5725188772932348   T   T   T
  0.0008020828438267  0.7492821141420533  0.5725697663276405   T   T   T
  0.2484043567078890  0.9948859660486585  0.5720197701018725   T   T   T
  0.2438397810803034  0.2425005566528803  0.5774176266054932   T   T   T
  0.2506717335596733  0.4995584606072914  0.5770301650988479   T   T   T
  0.2504697417528181  0.7493069792196272  0.5727282984533184   T   T   T
  0.5011009176875257  0.0013829259180433  0.5727864316503558   T   T   T
  0.5002405359480370  0.2499715692762890  0.5778029192225662   T   T   T
  0.5078366887538079  0.5067163544195901  0.5774781831017498   T   T   T
  0.5019832099443341  0.7550988512770300  0.5722061766583315   T   T   T
  0.7501839564468109  0.0000076758614379  0.5726566468159578   T   T   T
  0.7495798616075352  0.2496420225860795  0.5728090237602458   T   T   T
  0.7557744034150844  0.5021100684713653  0.5719598314431842   T   T   T
  0.7534876274880535  0.7530434675478802  0.5722722552725577   T   T   T
  0.1674793707538670  0.0850875793549827  0.4837639964028795   T   T   T
  0.1684626556031051  0.3343320416276289  0.4842127048383748   T   T   T
  0.1683132209128159  0.5818362555397441  0.4839076152729423   T   T   T
  0.1680380601784663  0.8337898450069180  0.4833103827849798   T   T   T
  0.4173921167350905  0.0856929863591801  0.4839956153029953   T   T   T
  0.4161140635933677  0.3338462504352878  0.4853900575489494   T   T   T
  0.4158131116407264  0.5818743794978161  0.4842922785456536   T   T   T
  0.4169105548840063  0.8333915270160935  0.4834836535064449   T   T   T
  0.6664870124304809  0.0836134846707729  0.4832803421842931   T   T   T
  0.6644441594160488  0.3328069447153766  0.4840296110720834   T   T   T
  0.6649810519051530  0.5824978119416834  0.4837656702151921   T   T   T
  0.6661004154306672  0.8325456214095875  0.4832491097552912   T   T   T
  0.9172699304824559  0.0837845853712283  0.4830798184209529   T   T   T
  0.9167977154991322  0.3332671512472396  0.4833394067724264   T   T   T
  0.9165071479610210  0.5824025671611192  0.4831083633779580   T   T   T
  0.9171309312896813  0.8329718551688066  0.4827569406926492   T   T   T
  0.2939841646496014  0.4555923598074555  0.6578091554802457   T   T   T
  0.4506152151943960  0.5253980249324484  0.6600558840909159   T   T   T
  0.5263517794492586  0.4498636960591770  0.6601486000800241   T   T   T
  0.4566083833324303  0.2930522807383059  0.6582779169409694   T   T   T
  0.2997083974761899  0.2233143099145155  0.6600035082133083   T   T   T
  0.2241511726851484  0.2989087778693277  0.6599164934748948   T   T   T
  0.5051665326793953  0.6338633100654698  0.6747885525892295   T   T   T
  0.6346392188803766  0.5047721120214640  0.6751036685321450   T   T   T
  0.2449774826281182  0.1150767431424338  0.6750498406929369   T   T   T
  0.1156647761635662  0.2442270865659327  0.6746951196999242   T   T   T
  0.2254058800054331  0.5233851295737525  0.7078684899680165   T   T   T
  0.5225504637531914  0.2252819544723428  0.7093879833451678   T   T   T
 
  0.00000000E+00  0.00000000E+00  0.00000000E+00
  0.00000000E+00  0.00000000E+00  0.00000000E+00
  0.00000000E+00  0.00000000E+00  0.00000000E+00
  0.00000000E+00  0.00000000E+00  0.00000000E+00
  0.00000000E+00  0.00000000E+00  0.00000000E+00
  0.00000000E+00  0.00000000E+00  0.00000000E+00
  0.00000000E+00  0.00000000E+00  0.00000000E+00
  0.00000000E+00  0.00000000E+00  0.00000000E+00
  0.00000000E+00  0.00000000E+00  0.00000000E+00
  0.00000000E+00  0.00000000E+00  0.00000000E+00
  0.00000000E+00  0.00000000E+00  0.00000000E+00
  0.00000000E+00  0.00000000E+00  0.00000000E+00
  0.00000000E+00  0.00000000E+00  0.00000000E+00
  0.00000000E+00  0.00000000E+00  0.00000000E+00
  0.00000000E+00  0.00000000E+00  0.00000000E+00
  0.00000000E+00  0.00000000E+00  0.00000000E+00
  0.00000000E+00  0.00000000E+00  0.00000000E+00
  0.00000000E+00  0.00000000E+00  0.00000000E+00
  0.00000000E+00  0.00000000E+00  0.00000000E+00
  0.00000000E+00  0.00000000E+00  0.00000000E+00
  0.00000000E+00  0.00000000E+00  0.00000000E+00
  0.00000000E+00  0.00000000E+00  0.00000000E+00
  0.00000000E+00  0.00000000E+00  0.00000000E+00
  0.00000000E+00  0.00000000E+00  0.00000000E+00
  0.00000000E+00  0.00000000E+00  0.00000000E+00
  0.00000000E+00  0.00000000E+00  0.00000000E+00
  0.00000000E+00  0.00000000E+00  0.00000000E+00
  0.00000000E+00  0.00000000E+00  0.00000000E+00
  0.00000000E+00  0.00000000E+00  0.00000000E+00
  0.00000000E+00  0.00000000E+00  0.00000000E+00
  0.00000000E+00  0.00000000E+00  0.00000000E+00
  0.00000000E+00  0.00000000E+00  0.00000000E+00
  0.00000000E+00  0.00000000E+00  0.00000000E+00
  0.00000000E+00  0.00000000E+00  0.00000000E+00
  0.00000000E+00  0.00000000E+00  0.00000000E+00
  0.00000000E+00  0.00000000E+00  0.00000000E+00
  0.00000000E+00  0.00000000E+00  0.00000000E+00
  0.00000000E+00  0.00000000E+00  0.00000000E+00
  0.00000000E+00  0.00000000E+00  0.00000000E+00
  0.00000000E+00  0.00000000E+00  0.00000000E+00
  0.00000000E+00  0.00000000E+00  0.00000000E+00
  0.00000000E+00  0.00000000E+00  0.00000000E+00
  0.00000000E+00  0.00000000E+00  0.00000000E+00
  0.00000000E+00  0.00000000E+00  0.00000000E+00
  0.00000000E+00  0.00000000E+00  0.00000000E+00
  0.00000000E+00  0.00000000E+00  0.00000000E+00
  0.00000000E+00  0.00000000E+00  0.00000000E+00
  0.00000000E+00  0.00000000E+00  0.00000000E+00
  0.00000000E+00  0.00000000E+00  0.00000000E+00
  0.00000000E+00  0.00000000E+00  0.00000000E+00
  0.00000000E+00  0.00000000E+00  0.00000000E+00
  0.00000000E+00  0.00000000E+00  0.00000000E+00
  0.00000000E+00  0.00000000E+00  0.00000000E+00
  0.00000000E+00  0.00000000E+00  0.00000000E+00
  0.00000000E+00  0.00000000E+00  0.00000000E+00
  0.00000000E+00  0.00000000E+00  0.00000000E+00
  0.00000000E+00  0.00000000E+00  0.00000000E+00
  0.00000000E+00  0.00000000E+00  0.00000000E+00
  0.00000000E+00  0.00000000E+00  0.00000000E+00
  0.00000000E+00  0.00000000E+00  0.00000000E+00
  0.00000000E+00  0.00000000E+00  0.00000000E+00
  0.00000000E+00  0.00000000E+00  0.00000000E+00
  0.00000000E+00  0.00000000E+00  0.00000000E+00
  0.00000000E+00  0.00000000E+00  0.00000000E+00
  0.00000000E+00  0.00000000E+00  0.00000000E+00
  0.00000000E+00  0.00000000E+00  0.00000000E+00
  0.00000000E+00  0.00000000E+00  0.00000000E+00
  0.00000000E+00  0.00000000E+00  0.00000000E+00
  0.00000000E+00  0.00000000E+00  0.00000000E+00
  0.00000000E+00  0.00000000E+00  0.00000000E+00
  0.00000000E+00  0.00000000E+00  0.00000000E+00
  0.00000000E+00  0.00000000E+00  0.00000000E+00
  0.00000000E+00  0.00000000E+00  0.00000000E+00
  0.00000000E+00  0.00000000E+00  0.00000000E+00
  0.00000000E+00  0.00000000E+00  0.00000000E+00
  0.00000000E+00  0.00000000E+00  0.00000000E+00
