Ir48 C4 N2 F4                           
    1.000000000000000     
    10.9622135000000007    0.0000000000000000    0.0000000000000000
     0.0000000000000000   10.9622135000000007    0.0000000000000000
     0.0000000000000000    0.0000000000000000   16.7325000400000015
   Ir   C    N    F 
    48     4     2     4
Selective dynamics
Direct
  0.9990722949276289  0.2494502930786595  0.4094137551567485   T   T   T
  0.0000008349888603  0.4999981181089481  0.4094287097302356   T   T   T
  0.0009263990323518  0.7505602192838339  0.4094079755636599   T   T   T
  0.9999998280899050  0.9999922583076000  0.4093923642203379   T   T   T
  0.2506136180789440  0.2506131401677436  0.4102709303902685   T   T   T
  0.2508624028365318  0.4997636139562616  0.4102840024019727   T   T   T
  0.2528310466279535  0.7471692283767553  0.4119074274007062   T   T   T
  0.2494440772115496  0.9990728968280678  0.4094113952951730   T   T   T
  0.4997667714522436  0.2508656387826207  0.4102870129124412   T   T   T
  0.4999981975319230  0.4999972292626254  0.4111131219735142   T   T   T
  0.5002347735240278  0.7491408907962906  0.4102855234748333   T   T   T
  0.4999993324511678  0.0000006676174493  0.4094259787775627   T   T   T
  0.7471679932597581  0.2528412193184124  0.4119119406403371   T   T   T
  0.7491402574784018  0.5002265965248327  0.4102904853008980   T   T   T
  0.7493961423719924  0.7493939141929218  0.4102689150999623   T   T   T
  0.7505590364823789  0.0009230210779165  0.4094073773211875   T   T   T
  0.1248497841173801  0.1248483374456484  0.5211334428658034   T   T   T
  0.1225735734577142  0.3744957891911795  0.5209948129330613   T   T   T
  0.1233706136683637  0.6247043904559533  0.5218908086108911   T   T   T
  0.1249094419225472  0.8750909344026070  0.5211714152056857   T   T   T
  0.3744981417097293  0.1225757783842951  0.5209975208023323   T   T   T
  0.3719833544685827  0.3719881601321617  0.5229636425382935   T   T   T
  0.3741958227044222  0.6258039859197311  0.5313600218929437   T   T   T
  0.3753006733049418  0.8766312399702514  0.5218927941724161   T   T   T
  0.6247040896770031  0.1233703138811180  0.5218951387396373   T   T   T
  0.6257986551207324  0.3742008498144216  0.5313806473921616   T   T   T
  0.6280146078072661  0.6280237778137234  0.5229621625966061   T   T   T
  0.6255069673782074  0.8774250368216556  0.5209954227294773   T   T   T
  0.8750911581851213  0.1249105320791912  0.5211770626787384   T   T   T
  0.8766280881426738  0.3752963959916258  0.5218904569450729   T   T   T
  0.8774249298017622  0.6255038865534246  0.5209944238298476   T   T   T
  0.8751509064047625  0.8751515937111023  0.5211294912118021   T   T   T
  0.1250000002280558  0.1250000002280558  0.2988196616194330   F   F   F
  0.1250000002280558  0.3749999997719442  0.2988196616194330   F   F   F
  0.1250000002280558  0.6249999993158326  0.2988196616194330   F   F   F
  0.1250000002280558  0.8749999988597210  0.2988196616194330   F   F   F
  0.3749999997719442  0.1250000002280558  0.2988196616194330   F   F   F
  0.3749999997719442  0.3749999997719442  0.2988196616194330   F   F   F
  0.3749999997719442  0.6249999993158326  0.2988196616194330   F   F   F
  0.3749999997719442  0.8749999988597210  0.2988196616194330   F   F   F
  0.6249999993158326  0.1250000002280558  0.2988196616194330   F   F   F
  0.6249999993158326  0.3749999997719442  0.2988196616194330   F   F   F
  0.6249999993158326  0.6249999993158326  0.2988196616194330   F   F   F
  0.6249999993158326  0.8749999988597210  0.2988196616194330   F   F   F
  0.8749999988597210  0.1250000002280558  0.2988196616194330   F   F   F
  0.8749999988597210  0.3749999997719442  0.2988196616194330   F   F   F
  0.8749999988597210  0.6249999993158326  0.2988196616194330   F   F   F
  0.8749999988597210  0.8749999988597210  0.2988196616194330   F   F   F
  0.5301612056671416  0.3764187481463850  0.6472211261003622   T   T   T
  0.6235746096850860  0.4698222331151669  0.6472220693405504   T   T   T
  0.4698465984933975  0.6235779142535876  0.6472312454429243   T   T   T
  0.3764263508503660  0.5301581745582098  0.6472282603078909   T   T   T
  0.5935490195052324  0.5935285430858386  0.6425405880438149   T   T   T
  0.4064444466116797  0.4064652390933148  0.6425431816266141   T   T   T
  0.2727989361142917  0.5512050277150422  0.6905843281890682   T   T   T
  0.4488183193240829  0.7272050871933970  0.6905708608173953   T   T   T
  0.5511747729880696  0.2727811080730831  0.6905775942895573   T   T   T
  0.7272012861759478  0.4487940087182594  0.6905859305528921   T   T   T
 
  0.00000000E+00  0.00000000E+00  0.00000000E+00
  0.00000000E+00  0.00000000E+00  0.00000000E+00
  0.00000000E+00  0.00000000E+00  0.00000000E+00
  0.00000000E+00  0.00000000E+00  0.00000000E+00
  0.00000000E+00  0.00000000E+00  0.00000000E+00
  0.00000000E+00  0.00000000E+00  0.00000000E+00
  0.00000000E+00  0.00000000E+00  0.00000000E+00
  0.00000000E+00  0.00000000E+00  0.00000000E+00
  0.00000000E+00  0.00000000E+00  0.00000000E+00
  0.00000000E+00  0.00000000E+00  0.00000000E+00
  0.00000000E+00  0.00000000E+00  0.00000000E+00
  0.00000000E+00  0.00000000E+00  0.00000000E+00
  0.00000000E+00  0.00000000E+00  0.00000000E+00
  0.00000000E+00  0.00000000E+00  0.00000000E+00
  0.00000000E+00  0.00000000E+00  0.00000000E+00
  0.00000000E+00  0.00000000E+00  0.00000000E+00
  0.00000000E+00  0.00000000E+00  0.00000000E+00
  0.00000000E+00  0.00000000E+00  0.00000000E+00
  0.00000000E+00  0.00000000E+00  0.00000000E+00
  0.00000000E+00  0.00000000E+00  0.00000000E+00
  0.00000000E+00  0.00000000E+00  0.00000000E+00
  0.00000000E+00  0.00000000E+00  0.00000000E+00
  0.00000000E+00  0.00000000E+00  0.00000000E+00
  0.00000000E+00  0.00000000E+00  0.00000000E+00
  0.00000000E+00  0.00000000E+00  0.00000000E+00
  0.00000000E+00  0.00000000E+00  0.00000000E+00
  0.00000000E+00  0.00000000E+00  0.00000000E+00
  0.00000000E+00  0.00000000E+00  0.00000000E+00
  0.00000000E+00  0.00000000E+00  0.00000000E+00
  0.00000000E+00  0.00000000E+00  0.00000000E+00
  0.00000000E+00  0.00000000E+00  0.00000000E+00
  0.00000000E+00  0.00000000E+00  0.00000000E+00
  0.00000000E+00  0.00000000E+00  0.00000000E+00
  0.00000000E+00  0.00000000E+00  0.00000000E+00
  0.00000000E+00  0.00000000E+00  0.00000000E+00
  0.00000000E+00  0.00000000E+00  0.00000000E+00
  0.00000000E+00  0.00000000E+00  0.00000000E+00
  0.00000000E+00  0.00000000E+00  0.00000000E+00
  0.00000000E+00  0.00000000E+00  0.00000000E+00
  0.00000000E+00  0.00000000E+00  0.00000000E+00
  0.00000000E+00  0.00000000E+00  0.00000000E+00
  0.00000000E+00  0.00000000E+00  0.00000000E+00
  0.00000000E+00  0.00000000E+00  0.00000000E+00
  0.00000000E+00  0.00000000E+00  0.00000000E+00
  0.00000000E+00  0.00000000E+00  0.00000000E+00
  0.00000000E+00  0.00000000E+00  0.00000000E+00
  0.00000000E+00  0.00000000E+00  0.00000000E+00
  0.00000000E+00  0.00000000E+00  0.00000000E+00
  0.00000000E+00  0.00000000E+00  0.00000000E+00
  0.00000000E+00  0.00000000E+00  0.00000000E+00
  0.00000000E+00  0.00000000E+00  0.00000000E+00
  0.00000000E+00  0.00000000E+00  0.00000000E+00
  0.00000000E+00  0.00000000E+00  0.00000000E+00
  0.00000000E+00  0.00000000E+00  0.00000000E+00
  0.00000000E+00  0.00000000E+00  0.00000000E+00
  0.00000000E+00  0.00000000E+00  0.00000000E+00
  0.00000000E+00  0.00000000E+00  0.00000000E+00
  0.00000000E+00  0.00000000E+00  0.00000000E+00
