Pt48 C6 F6                              
    1.000000000000000     
    11.2480069999999994    0.0000000000000000    0.0000000000000000
    -5.6240030000000001    9.7410599999999992    0.0000000000000000
     0.0000000000000000    0.0000000000000000   16.5919799999999995
   Pt   C    F 
    48     6     6
Selective dynamics
Direct
  0.0833330000000032  0.1666669999999968  0.3616209999999995   F   F   F
  0.0833330000000032  0.4166669999999968  0.3616209999999995   F   F   F
  0.0833330000000032  0.6666669999999968  0.3616209999999995   F   F   F
  0.0833330000000032  0.9166669999999968  0.3616209999999995   F   F   F
  0.3333330000000032  0.1666669999999968  0.3616209999999995   F   F   F
  0.3333330000000032  0.4166669999999968  0.3616209999999995   F   F   F
  0.3333330000000032  0.6666669999999968  0.3616209999999995   F   F   F
  0.3333330000000032  0.9166669999999968  0.3616209999999995   F   F   F
  0.5833330000000032  0.1666669999999968  0.3616209999999995   F   F   F
  0.5833330000000032  0.4166669999999968  0.3616209999999995   F   F   F
  0.5833330000000032  0.6666669999999968  0.3616209999999995   F   F   F
  0.5833330000000032  0.9166669999999968  0.3616209999999995   F   F   F
  0.8333330000000032  0.1666669999999968  0.3616209999999995   F   F   F
  0.8333330000000032  0.4166669999999968  0.3616209999999995   F   F   F
  0.8333330000000032  0.6666669999999968  0.3616209999999995   F   F   F
  0.8333330000000032  0.9166669999999968  0.3616209999999995   F   F   F
  0.2452644531229069  0.2451970901209890  0.6400103487886426   T   T   T
  0.2423941227410609  0.4978220864851579  0.6383756624490005   T   T   T
  0.2507239589533725  0.7497660102373160  0.6422275914618041   T   T   T
  0.2509685392787802  0.9990239095447535  0.6414043961723621   T   T   T
  0.4978383158535706  0.2429601696382875  0.6383505385601183   T   T   T
  0.4907367142929004  0.4917914162873842  0.6484776776045535   T   T   T
  0.4990714090210844  0.7509237957923744  0.6508370432580506   T   T   T
  0.5002307301271074  0.9992721024393134  0.6422283035013550   T   T   T
  0.7498240774181042  0.2511126185580679  0.6424039685310134   T   T   T
  0.7497564002425889  0.5002464912745523  0.6502271007679212   T   T   T
  0.7582154047900076  0.7592681049951082  0.6484726708436384   T   T   T
  0.7521743762028876  0.0076088014994937  0.6383769275925744   T   T   T
  0.9988991426866392  0.2510917414763369  0.6416671229583955   T   T   T
  0.9988809785827044  0.5001713510222601  0.6424110110549393   T   T   T
  0.0070375866961925  0.7521575944538696  0.6383454873903105   T   T   T
  0.0047989426416208  0.0047308873960432  0.6400214720393862   T   T   T
  0.1680375436456316  0.0819463667686762  0.4994912192183207   T   T   T
  0.1668259123298270  0.3328739738692406  0.5002693812893853   T   T   T
  0.1656473523810504  0.5839936345122680  0.5001697538160244   T   T   T
  0.1681114809435940  0.8328020792218425  0.4998201731460412   T   T   T
  0.4171949318170860  0.0818837225947604  0.4998224204627988   T   T   T
  0.4176527200966902  0.3353228536416353  0.5028459978630480   T   T   T
  0.4180267270714779  0.5837957236959994  0.5045976960094265   T   T   T
  0.4188519607073076  0.8311504303933290  0.5043980563055470   T   T   T
  0.6660023705339881  0.0843478824678385  0.5001715020703159   T   T   T
  0.6677317114611228  0.3359054715626186  0.5031888688810611   T   T   T
  0.6665678403924389  0.5834356841248010  0.5055389035055953   T   T   T
  0.6662011774080767  0.8319683097641715  0.5045988010247200   T   T   T
  0.9171288768833250  0.0831692297435183  0.5002744439288875   T   T   T
  0.9164784383983076  0.3335192652820709  0.5012519588548585   T   T   T
  0.9140923926861930  0.5822655457932981  0.5031891709652854   T   T   T
  0.9146782475062665  0.8323476254067614  0.5028474405897043   T   T   T
  0.6976473827866698  0.7723027665925173  0.7679253941920479   T   T   T
  0.7721827150419927  0.6981734273266866  0.7676812078783897   T   T   T
  0.7060156119569285  0.5439983717394981  0.7646316641192001   T   T   T
  0.5518349905821012  0.4778218589388672  0.7676848884128802   T   T   T
  0.4777040014819107  0.5523508986443701  0.7679289231613922   T   T   T
  0.5435912918450896  0.7064062914376024  0.7650618648806358   T   T   T
  0.7604536456554811  0.8960370931827200  0.8054087433930661   T   T   T
  0.8955931763738860  0.7606195034792478  0.8054991326855259   T   T   T
  0.7530347964881656  0.4969950407586197  0.8269070192689867   T   T   T
  0.4893915467471359  0.3544165110067325  0.8054981833582602   T   T   T
  0.3539719638932795  0.4895341639713209  0.8054085696136610   T   T   T
  0.4967189902313720  0.7532855839623878  0.8274918517227050   T   T   T
 
  0.00000000E+00  0.00000000E+00  0.00000000E+00
  0.00000000E+00  0.00000000E+00  0.00000000E+00
  0.00000000E+00  0.00000000E+00  0.00000000E+00
  0.00000000E+00  0.00000000E+00  0.00000000E+00
  0.00000000E+00  0.00000000E+00  0.00000000E+00
  0.00000000E+00  0.00000000E+00  0.00000000E+00
  0.00000000E+00  0.00000000E+00  0.00000000E+00
  0.00000000E+00  0.00000000E+00  0.00000000E+00
  0.00000000E+00  0.00000000E+00  0.00000000E+00
  0.00000000E+00  0.00000000E+00  0.00000000E+00
  0.00000000E+00  0.00000000E+00  0.00000000E+00
  0.00000000E+00  0.00000000E+00  0.00000000E+00
  0.00000000E+00  0.00000000E+00  0.00000000E+00
  0.00000000E+00  0.00000000E+00  0.00000000E+00
  0.00000000E+00  0.00000000E+00  0.00000000E+00
  0.00000000E+00  0.00000000E+00  0.00000000E+00
  0.00000000E+00  0.00000000E+00  0.00000000E+00
  0.00000000E+00  0.00000000E+00  0.00000000E+00
  0.00000000E+00  0.00000000E+00  0.00000000E+00
  0.00000000E+00  0.00000000E+00  0.00000000E+00
  0.00000000E+00  0.00000000E+00  0.00000000E+00
  0.00000000E+00  0.00000000E+00  0.00000000E+00
  0.00000000E+00  0.00000000E+00  0.00000000E+00
  0.00000000E+00  0.00000000E+00  0.00000000E+00
  0.00000000E+00  0.00000000E+00  0.00000000E+00
  0.00000000E+00  0.00000000E+00  0.00000000E+00
  0.00000000E+00  0.00000000E+00  0.00000000E+00
  0.00000000E+00  0.00000000E+00  0.00000000E+00
  0.00000000E+00  0.00000000E+00  0.00000000E+00
  0.00000000E+00  0.00000000E+00  0.00000000E+00
  0.00000000E+00  0.00000000E+00  0.00000000E+00
  0.00000000E+00  0.00000000E+00  0.00000000E+00
  0.00000000E+00  0.00000000E+00  0.00000000E+00
  0.00000000E+00  0.00000000E+00  0.00000000E+00
  0.00000000E+00  0.00000000E+00  0.00000000E+00
  0.00000000E+00  0.00000000E+00  0.00000000E+00
  0.00000000E+00  0.00000000E+00  0.00000000E+00
  0.00000000E+00  0.00000000E+00  0.00000000E+00
  0.00000000E+00  0.00000000E+00  0.00000000E+00
  0.00000000E+00  0.00000000E+00  0.00000000E+00
  0.00000000E+00  0.00000000E+00  0.00000000E+00
  0.00000000E+00  0.00000000E+00  0.00000000E+00
  0.00000000E+00  0.00000000E+00  0.00000000E+00
  0.00000000E+00  0.00000000E+00  0.00000000E+00
  0.00000000E+00  0.00000000E+00  0.00000000E+00
  0.00000000E+00  0.00000000E+00  0.00000000E+00
  0.00000000E+00  0.00000000E+00  0.00000000E+00
  0.00000000E+00  0.00000000E+00  0.00000000E+00
  0.00000000E+00  0.00000000E+00  0.00000000E+00
  0.00000000E+00  0.00000000E+00  0.00000000E+00
  0.00000000E+00  0.00000000E+00  0.00000000E+00
  0.00000000E+00  0.00000000E+00  0.00000000E+00
  0.00000000E+00  0.00000000E+00  0.00000000E+00
  0.00000000E+00  0.00000000E+00  0.00000000E+00
  0.00000000E+00  0.00000000E+00  0.00000000E+00
  0.00000000E+00  0.00000000E+00  0.00000000E+00
  0.00000000E+00  0.00000000E+00  0.00000000E+00
  0.00000000E+00  0.00000000E+00  0.00000000E+00
  0.00000000E+00  0.00000000E+00  0.00000000E+00
  0.00000000E+00  0.00000000E+00  0.00000000E+00
