Cu  C Br                                
    1.000000000000000     
    10.2424774999999997    0.0000000000000000    0.0000000000000000
     0.0000000000000000   14.4850505999999992    0.0000000000000000
     0.0000000000000000    0.0000000000000000   21.8409290399999989
   Cu   C    Br
    64     6     6
Selective dynamics
Direct
  0.2499999995118358  0.2499999993096296  0.3433919860398049   F   F   F
  0.0000000000000000  0.7499999965481621  0.3433919860398049   F   F   F
  0.2499999995118358  0.4999999986192663  0.3433919860398049   F   F   F
  0.2499999995118358  0.7499999979288958  0.3433919860398049   F   F   F
  0.2499999995118358  0.0000000000000000  0.3433919860398049   F   F   F
  0.4999999990236716  0.2499999993096296  0.3433919860398049   F   F   F
  0.4999999990236716  0.4999999986192663  0.3433919860398049   F   F   F
  0.0000000000000000  0.0000000000000000  0.3433919860398049   F   F   F
  0.4999999990236716  0.7499999979288958  0.3433919860398049   F   F   F
  0.4999999990236716  0.0000000000000000  0.3433919860398049   F   F   F
  0.7499999985355075  0.2499999993096296  0.3433919860398049   F   F   F
  0.7499999985355075  0.4999999986192663  0.3433919860398049   F   F   F
  0.7499999985355075  0.7499999979288958  0.3433919860398049   F   F   F
  0.7499999985355075  0.0000000000000000  0.3433919860398049   F   F   F
  0.9999999980473504  0.2499999993096296  0.3433919860398049   F   F   F
  0.0000000000000000  0.4999999986192663  0.3433919860398049   F   F   F
  0.2484325321700183  0.2489180351295155  0.4600410342990271   T   T   T
  0.2496728305585280  0.5006423543315408  0.4605125327631482   T   T   T
  0.2492667307780639  0.7504812904479894  0.4617386114010110   T   T   T
  0.2499135752730890  0.9994283475919710  0.4618385543966586   T   T   T
  0.5004784437357073  0.2499425029099362  0.4601040303751455   T   T   T
  0.4993640130689095  0.4994206049552490  0.4601840941578795   T   T   T
  0.4996742039737588  0.7507208444985076  0.4612295766813192   T   T   T
  0.5002458235305757  0.0001976224141750  0.4618117774732062   T   T   T
  0.7489163472979243  0.2514852146719438  0.4601393267886246   T   T   T
  0.7485431948934241  0.4995044263365460  0.4592154930924482   T   T   T
  0.7500261094200553  0.7499540143640056  0.4615563535073737   T   T   T
  0.7498471796723836  0.0001797303371858  0.4609772968344523   T   T   T
  0.9990783637176845  0.2499081183295988  0.4612741708544434   T   T   T
  0.0004994990081192  0.5003458865719479  0.4600802254059863   T   T   T
  0.0000102771903069  0.7499396075521727  0.4619840808881857   T   T   T
  0.9994291743859111  0.0004031500079625  0.4618230548738383   T   T   T
  0.1254577673156147  0.1248819900762436  0.5161795931136842   T   T   T
  0.1231741474378018  0.3753501668274794  0.5154704589540976   T   T   T
  0.1254330860789936  0.6245801102215336  0.5168444251179075   T   T   T
  0.1246504875789369  0.8753191475268912  0.5170326760020610   T   T   T
  0.3740629921302001  0.1249634324725423  0.5156511271409676   T   T   T
  0.3717931979138389  0.3737494907766273  0.5135948848765094   T   T   T
  0.3740893200898154  0.6261220993661831  0.5153319487721888   T   T   T
  0.3748152635686801  0.8748786312846305  0.5170696034362714   T   T   T
  0.6231663680690154  0.1254931245828638  0.5179213665710579   T   T   T
  0.6243139580677154  0.3748391155930901  0.5207326574770040   T   T   T
  0.6232999835723445  0.6252100571414179  0.5157812381648043   T   T   T
  0.6250197061558241  0.8748240960891579  0.5164097328003333   T   T   T
  0.8759260775239958  0.1253100324461138  0.5182017617053197   T   T   T
  0.8747901348579317  0.3756366246598344  0.5162843146877699   T   T   T
  0.8751667052809057  0.6251121809939575  0.5163917251473842   T   T   T
  0.8748858265780136  0.8750290091782582  0.5165469563317706   T   T   T
  0.1250000002440785  0.1249999996548183  0.4020117305412967   F   F   F
  0.1250000002440785  0.3749999989644479  0.4020117305412967   F   F   F
  0.1250000002440785  0.6249999982740846  0.4020117305412967   F   F   F
  0.1250000002440785  0.8749999975837142  0.4020117305412967   F   F   F
  0.3749999997559215  0.1249999996548183  0.4020117305412967   F   F   F
  0.3749999997559215  0.3749999989644479  0.4020117305412967   F   F   F
  0.3749999997559215  0.6249999982740846  0.4020117305412967   F   F   F
  0.3749999997559215  0.8749999975837142  0.4020117305412967   F   F   F
  0.6249999982914289  0.1249999996548183  0.4020117305412967   F   F   F
  0.6249999992677573  0.3749999989644479  0.4020117305412967   F   F   F
  0.6249999992677573  0.6249999982740846  0.4020117305412967   F   F   F
  0.6249999992677573  0.8749999975837142  0.4020117305412967   F   F   F
  0.8749999987795931  0.1249999996548183  0.4020117305412967   F   F   F
  0.8749999978032648  0.3749999989644479  0.4020117305412967   F   F   F
  0.8749999987795931  0.6249999982740846  0.4020117305412967   F   F   F
  0.8749999987795931  0.8749999975837142  0.4020117305412967   F   F   F
  0.3877412695970203  0.5295608525652877  0.6376341325379266   T   T   T
  0.4610192273534638  0.6115547655692353  0.6430767192382887   T   T   T
  0.5983942096057925  0.6075865466883728  0.6350645064284218   T   T   T
  0.6519037116775950  0.5245913741299101  0.6131998972778097   T   T   T
  0.5808853423227290  0.4458067987813238  0.5981839975242613   T   T   T
  0.4521726878818051  0.4487885622456577  0.6190909022439802   T   T   T
  0.2037326398947390  0.5313343021128956  0.6504861829935435   T   T   T
  0.3786156291845827  0.7247383809162565  0.6616396672897786   T   T   T
  0.7042337976161649  0.7106017028097403  0.6565908624627190   T   T   T
  0.8450745797865794  0.5144766649603575  0.6063942329387263   T   T   T
  0.7480377147113952  0.1732117492207534  0.6060201616321571   T   T   T
  0.3563579524283191  0.3318693224313440  0.6224710563628895   T   T   T
 
  0.00000000E+00  0.00000000E+00  0.00000000E+00
  0.00000000E+00  0.00000000E+00  0.00000000E+00
  0.00000000E+00  0.00000000E+00  0.00000000E+00
  0.00000000E+00  0.00000000E+00  0.00000000E+00
  0.00000000E+00  0.00000000E+00  0.00000000E+00
  0.00000000E+00  0.00000000E+00  0.00000000E+00
  0.00000000E+00  0.00000000E+00  0.00000000E+00
  0.00000000E+00  0.00000000E+00  0.00000000E+00
  0.00000000E+00  0.00000000E+00  0.00000000E+00
  0.00000000E+00  0.00000000E+00  0.00000000E+00
  0.00000000E+00  0.00000000E+00  0.00000000E+00
  0.00000000E+00  0.00000000E+00  0.00000000E+00
  0.00000000E+00  0.00000000E+00  0.00000000E+00
  0.00000000E+00  0.00000000E+00  0.00000000E+00
  0.00000000E+00  0.00000000E+00  0.00000000E+00
  0.00000000E+00  0.00000000E+00  0.00000000E+00
  0.00000000E+00  0.00000000E+00  0.00000000E+00
  0.00000000E+00  0.00000000E+00  0.00000000E+00
  0.00000000E+00  0.00000000E+00  0.00000000E+00
  0.00000000E+00  0.00000000E+00  0.00000000E+00
  0.00000000E+00  0.00000000E+00  0.00000000E+00
  0.00000000E+00  0.00000000E+00  0.00000000E+00
  0.00000000E+00  0.00000000E+00  0.00000000E+00
  0.00000000E+00  0.00000000E+00  0.00000000E+00
  0.00000000E+00  0.00000000E+00  0.00000000E+00
  0.00000000E+00  0.00000000E+00  0.00000000E+00
  0.00000000E+00  0.00000000E+00  0.00000000E+00
  0.00000000E+00  0.00000000E+00  0.00000000E+00
  0.00000000E+00  0.00000000E+00  0.00000000E+00
  0.00000000E+00  0.00000000E+00  0.00000000E+00
  0.00000000E+00  0.00000000E+00  0.00000000E+00
  0.00000000E+00  0.00000000E+00  0.00000000E+00
  0.00000000E+00  0.00000000E+00  0.00000000E+00
  0.00000000E+00  0.00000000E+00  0.00000000E+00
  0.00000000E+00  0.00000000E+00  0.00000000E+00
  0.00000000E+00  0.00000000E+00  0.00000000E+00
  0.00000000E+00  0.00000000E+00  0.00000000E+00
  0.00000000E+00  0.00000000E+00  0.00000000E+00
  0.00000000E+00  0.00000000E+00  0.00000000E+00
  0.00000000E+00  0.00000000E+00  0.00000000E+00
  0.00000000E+00  0.00000000E+00  0.00000000E+00
  0.00000000E+00  0.00000000E+00  0.00000000E+00
  0.00000000E+00  0.00000000E+00  0.00000000E+00
  0.00000000E+00  0.00000000E+00  0.00000000E+00
  0.00000000E+00  0.00000000E+00  0.00000000E+00
  0.00000000E+00  0.00000000E+00  0.00000000E+00
  0.00000000E+00  0.00000000E+00  0.00000000E+00
  0.00000000E+00  0.00000000E+00  0.00000000E+00
  0.00000000E+00  0.00000000E+00  0.00000000E+00
  0.00000000E+00  0.00000000E+00  0.00000000E+00
  0.00000000E+00  0.00000000E+00  0.00000000E+00
  0.00000000E+00  0.00000000E+00  0.00000000E+00
  0.00000000E+00  0.00000000E+00  0.00000000E+00
  0.00000000E+00  0.00000000E+00  0.00000000E+00
  0.00000000E+00  0.00000000E+00  0.00000000E+00
  0.00000000E+00  0.00000000E+00  0.00000000E+00
  0.00000000E+00  0.00000000E+00  0.00000000E+00
  0.00000000E+00  0.00000000E+00  0.00000000E+00
  0.00000000E+00  0.00000000E+00  0.00000000E+00
  0.00000000E+00  0.00000000E+00  0.00000000E+00
  0.00000000E+00  0.00000000E+00  0.00000000E+00
  0.00000000E+00  0.00000000E+00  0.00000000E+00
  0.00000000E+00  0.00000000E+00  0.00000000E+00
  0.00000000E+00  0.00000000E+00  0.00000000E+00
  0.00000000E+00  0.00000000E+00  0.00000000E+00
  0.00000000E+00  0.00000000E+00  0.00000000E+00
  0.00000000E+00  0.00000000E+00  0.00000000E+00
  0.00000000E+00  0.00000000E+00  0.00000000E+00
  0.00000000E+00  0.00000000E+00  0.00000000E+00
  0.00000000E+00  0.00000000E+00  0.00000000E+00
  0.00000000E+00  0.00000000E+00  0.00000000E+00
  0.00000000E+00  0.00000000E+00  0.00000000E+00
  0.00000000E+00  0.00000000E+00  0.00000000E+00
  0.00000000E+00  0.00000000E+00  0.00000000E+00
  0.00000000E+00  0.00000000E+00  0.00000000E+00
  0.00000000E+00  0.00000000E+00  0.00000000E+00
