Pt48 C6 F6                              
    1.000000000000000     
    11.2480068000000006    0.0000000000000000    0.0000000000000000
     0.0000000000000000   15.9070838000000006    0.0000000000000000
     0.0000000000000000    0.0000000000000000   15.6744472600000009
   Pt   C    F 
    48     6     6
Selective dynamics
Direct
  0.2502443691662606  0.2514946325745626  0.4027876514187909   T   T   T
  0.2448445158524919  0.5000908998779607  0.3984807315809320   T   T   T
  0.2540797212258070  0.7460071129809407  0.4071022728817368   T   T   T
  0.2506005685629802  0.0000500925674203  0.4033271839694663   T   T   T
  0.5000963578255480  0.2534760237678242  0.4065881319119669   T   T   T
  0.5000000017780906  0.5000000006286527  0.3870183755903938   T   T   T
  0.4999036457306332  0.7465239781181268  0.4065881312739847   T   T   T
  0.5000000017780906  0.0000000000000000  0.4045855622431560   T   T   T
  0.7459202823303741  0.2539928889050103  0.4071022735197189   T   T   T
  0.7551554877036892  0.4999091013793446  0.3984807322189141   T   T   T
  0.7497556343899205  0.7485053693113883  0.4027876520567730   T   T   T
  0.7493994349932009  0.9999499074325797  0.4033271839694663   T   T   T
  0.9981739459358749  0.2512398817656418  0.4027161365891772   T   T   T
  0.0000000035561882  0.5000000006286527  0.4044720761469804   T   T   T
  0.0018260611765015  0.7487601201203091  0.4027161365891772   T   T   T
  0.0000000035561882  0.0000000000000000  0.4030365081884000   T   T   T
  0.1240135181591029  0.1262776877781917  0.4883279195753190   T   T   T
  0.1216228654115525  0.3745729798213375  0.4902764107794297   T   T   T
  0.1279394636708275  0.6242595091207406  0.4906134203055217   T   T   T
  0.1269477339738643  0.8736961418047500  0.4877543799428565   T   T   T
  0.3745811782892758  0.1268984807886042  0.4883990949095605   T   T   T
  0.3695836066001448  0.3835307185730059  0.4892161839891287   T   T   T
  0.3829238174502052  0.6073744245080590  0.4973464674714378   T   T   T
  0.3761516852316760  0.8735008736599426  0.4888720358887042   T   T   T
  0.6238483183245052  0.1264991275973557  0.4888720358887042   T   T   T
  0.6170761861059759  0.3926255767492393  0.4973464674714378   T   T   T
  0.6304163969560364  0.6164692826842924  0.4892161839891287   T   T   T
  0.6254188252669053  0.8731015204686940  0.4883990949095605   T   T   T
  0.8730522695823169  0.1263038594525483  0.4877543799428565   T   T   T
  0.8720605398853536  0.3757404921365577  0.4906134203055217   T   T   T
  0.8783771381446357  0.6254270214359607  0.4902764107794297   T   T   T
  0.8759864845080330  0.8737223134791066  0.4883279195753190   T   T   T
  0.1250000000000000  0.1250000003143228  0.3189905147570755   F   F   F
  0.1250000000000000  0.3750000003143228  0.3189905147570755   F   F   F
  0.1250000008890453  0.6250000009429755  0.3189905147570755   F   F   F
  0.1250000008890453  0.8750000009429755  0.3189905147570755   F   F   F
  0.3750000008890453  0.1250000003143228  0.3189905147570755   F   F   F
  0.3750000008890453  0.3750000003143228  0.3189905147570755   F   F   F
  0.3750000008890453  0.6250000009429755  0.3189905147570755   F   F   F
  0.3750000008890453  0.8750000009429755  0.3189905147570755   F   F   F
  0.6250000017780906  0.1250000003143228  0.3189905147570755   F   F   F
  0.6250000017780906  0.3750000003143228  0.3189905147570755   F   F   F
  0.6250000017780906  0.6250000009429755  0.3189905147570755   F   F   F
  0.6250000026671358  0.8750000009429755  0.3189905147570755   F   F   F
  0.8750000026671358  0.1250000003143228  0.3189905147570755   F   F   F
  0.8750000026671358  0.3750000003143228  0.3189905147570755   F   F   F
  0.8750000035561882  0.6250000009429755  0.3189905147570755   F   F   F
  0.8750000026671358  0.8750000009429755  0.3189905147570755   F   F   F
  0.6255401777031082  0.4718442936298359  0.6079537160177111   T   T   T
  0.5315371651848793  0.4100130021540807  0.6166114622900736   T   T   T
  0.4008806458373257  0.4329783566696648  0.6059522846613348   T   T   T
  0.3744598507463763  0.5281557202004805  0.6079537160177111   T   T   T
  0.4684628125889603  0.5899869865302065  0.6166114622900736   T   T   T
  0.5991193577188554  0.5670216445876406  0.6059522846613348   T   T   T
  0.7273586387804372  0.4561316605464327  0.6527986878121226   T   T   T
  0.5502637507717907  0.3456165187284199  0.6721966350014270   T   T   T
  0.3357665528598446  0.3953551035598935  0.6712650584679025   T   T   T
  0.2726413647757511  0.5438683407108726  0.6527986878121226   T   T   T
  0.4497361869949614  0.6543834624120564  0.6721966350014270   T   T   T
  0.6642334258030402  0.6046448851243937  0.6712650584679025   T   T   T
 
  0.00000000E+00  0.00000000E+00  0.00000000E+00
  0.00000000E+00  0.00000000E+00  0.00000000E+00
  0.00000000E+00  0.00000000E+00  0.00000000E+00
  0.00000000E+00  0.00000000E+00  0.00000000E+00
  0.00000000E+00  0.00000000E+00  0.00000000E+00
  0.00000000E+00  0.00000000E+00  0.00000000E+00
  0.00000000E+00  0.00000000E+00  0.00000000E+00
  0.00000000E+00  0.00000000E+00  0.00000000E+00
  0.00000000E+00  0.00000000E+00  0.00000000E+00
  0.00000000E+00  0.00000000E+00  0.00000000E+00
  0.00000000E+00  0.00000000E+00  0.00000000E+00
  0.00000000E+00  0.00000000E+00  0.00000000E+00
  0.00000000E+00  0.00000000E+00  0.00000000E+00
  0.00000000E+00  0.00000000E+00  0.00000000E+00
  0.00000000E+00  0.00000000E+00  0.00000000E+00
  0.00000000E+00  0.00000000E+00  0.00000000E+00
  0.00000000E+00  0.00000000E+00  0.00000000E+00
  0.00000000E+00  0.00000000E+00  0.00000000E+00
  0.00000000E+00  0.00000000E+00  0.00000000E+00
  0.00000000E+00  0.00000000E+00  0.00000000E+00
  0.00000000E+00  0.00000000E+00  0.00000000E+00
  0.00000000E+00  0.00000000E+00  0.00000000E+00
  0.00000000E+00  0.00000000E+00  0.00000000E+00
  0.00000000E+00  0.00000000E+00  0.00000000E+00
  0.00000000E+00  0.00000000E+00  0.00000000E+00
  0.00000000E+00  0.00000000E+00  0.00000000E+00
  0.00000000E+00  0.00000000E+00  0.00000000E+00
  0.00000000E+00  0.00000000E+00  0.00000000E+00
  0.00000000E+00  0.00000000E+00  0.00000000E+00
  0.00000000E+00  0.00000000E+00  0.00000000E+00
  0.00000000E+00  0.00000000E+00  0.00000000E+00
  0.00000000E+00  0.00000000E+00  0.00000000E+00
  0.00000000E+00  0.00000000E+00  0.00000000E+00
  0.00000000E+00  0.00000000E+00  0.00000000E+00
  0.00000000E+00  0.00000000E+00  0.00000000E+00
  0.00000000E+00  0.00000000E+00  0.00000000E+00
  0.00000000E+00  0.00000000E+00  0.00000000E+00
  0.00000000E+00  0.00000000E+00  0.00000000E+00
  0.00000000E+00  0.00000000E+00  0.00000000E+00
  0.00000000E+00  0.00000000E+00  0.00000000E+00
  0.00000000E+00  0.00000000E+00  0.00000000E+00
  0.00000000E+00  0.00000000E+00  0.00000000E+00
  0.00000000E+00  0.00000000E+00  0.00000000E+00
  0.00000000E+00  0.00000000E+00  0.00000000E+00
  0.00000000E+00  0.00000000E+00  0.00000000E+00
  0.00000000E+00  0.00000000E+00  0.00000000E+00
  0.00000000E+00  0.00000000E+00  0.00000000E+00
  0.00000000E+00  0.00000000E+00  0.00000000E+00
  0.00000000E+00  0.00000000E+00  0.00000000E+00
  0.00000000E+00  0.00000000E+00  0.00000000E+00
  0.00000000E+00  0.00000000E+00  0.00000000E+00
  0.00000000E+00  0.00000000E+00  0.00000000E+00
  0.00000000E+00  0.00000000E+00  0.00000000E+00
  0.00000000E+00  0.00000000E+00  0.00000000E+00
  0.00000000E+00  0.00000000E+00  0.00000000E+00
  0.00000000E+00  0.00000000E+00  0.00000000E+00
  0.00000000E+00  0.00000000E+00  0.00000000E+00
  0.00000000E+00  0.00000000E+00  0.00000000E+00
  0.00000000E+00  0.00000000E+00  0.00000000E+00
  0.00000000E+00  0.00000000E+00  0.00000000E+00
