Pd48 C6 H2 Br4                          
    1.000000000000000     
    11.1817229999999999    0.0000000000000000    0.0000000000000000
     0.0000000000000000   11.1817229999999999    0.0000000000000000
     0.0000000000000000    0.0000000000000000   16.9060714899999986
   Pd   C    H    Br
    48     6     2     4
Selective dynamics
Direct
  0.9943556015932629  0.2516020522711457  0.4119106856735968   T   T   T
  0.0000027380127250  0.4999966972495855  0.4127170268587435   T   T   T
  0.0056752855560234  0.7484008314825488  0.4119162875416080   T   T   T
  0.0000136554654162  0.9999985602312194  0.4095890567952054   T   T   T
  0.2475711667303884  0.2475666366506815  0.4092610742310612   T   T   T
  0.2487287420638893  0.5004634967908501  0.4113390536942489   T   T   T
  0.2534103725677923  0.7465973566291666  0.4140875482517572   T   T   T
  0.2515896735087679  0.9943343037023666  0.4119149534602542   T   T   T
  0.5004587371517175  0.2487172543267349  0.4113279792440139   T   T   T
  0.4999897798554258  0.5000139287598699  0.4080282559156956   T   T   T
  0.4995313692963492  0.7512713661995818  0.4113418237291668   T   T   T
  0.4999988898549148  0.9999854269242761  0.4127237015969527   T   T   T
  0.7466085755540064  0.2533935521613060  0.4140805719525389   T   T   T
  0.7512780274139743  0.4995396573531465  0.4113273711451839   T   T   T
  0.7524335310449288  0.7524280055824661  0.4092585812689720   T   T   T
  0.7483913248803518  0.0056671767601131  0.4119141362249152   T   T   T
  0.1221259430817341  0.1221072940267476  0.5257416613101711   T   T   T
  0.1218523815142802  0.3688910787971835  0.5252811913099791   T   T   T
  0.1249766407782502  0.6224279516827025  0.5368063421057414   T   T   T
  0.1253330158756967  0.8746628411840973  0.5268965235634369   T   T   T
  0.3689089877407810  0.1218335480167099  0.5252582547922771   T   T   T
  0.3653912329085784  0.3653869363308004  0.5263085182880047   T   T   T
  0.3814977330062987  0.6184885902588491  0.5298419404211288   T   T   T
  0.3775584081186949  0.8750262405448055  0.5368109152880649   T   T   T
  0.6224440836167915  0.1249517195945344  0.5367883020126456   T   T   T
  0.6185016246580801  0.3815030192264786  0.5298177166402098   T   T   T
  0.6346147123908494  0.6346084680582251  0.5263118471291790   T   T   T
  0.6311084751081708  0.8781636924622589  0.5252759130695992   T   T   T
  0.8746809095595722  0.1253222635419959  0.5268768555117802   T   T   T
  0.8750578725228095  0.3775582917306437  0.5367885004658319   T   T   T
  0.8781629248441334  0.6311007598381977  0.5252793464684800   T   T   T
  0.8778967145423522  0.8778880709303678  0.5257163951094697   T   T   T
  0.1249999995528412  0.1249999995528412  0.2957517364668405   F   F   F
  0.1249999995528412  0.3749999986585237  0.2957517364668405   F   F   F
  0.1249999995528412  0.6249999977642062  0.2957517364668405   F   F   F
  0.1249999995528412  0.8749999968698887  0.2957517364668405   F   F   F
  0.3749999986585237  0.1249999995528412  0.2957517364668405   F   F   F
  0.3749999986585237  0.3749999986585237  0.2957517364668405   F   F   F
  0.3749999986585237  0.6249999977642062  0.2957517364668405   F   F   F
  0.3749999986585237  0.8749999968698887  0.2957517364668405   F   F   F
  0.6249999977642062  0.1249999995528412  0.2957517364668405   F   F   F
  0.6249999977642062  0.3749999986585237  0.2957517364668405   F   F   F
  0.6249999977642062  0.6249999977642062  0.2957517364668405   F   F   F
  0.6249999977642062  0.8749999968698887  0.2957517364668405   F   F   F
  0.8749999968698887  0.1249999995528412  0.2957517364668405   F   F   F
  0.8749999968698887  0.3749999986585237  0.2957517364668405   F   F   F
  0.8749999968698887  0.6249999977642062  0.2957517364668405   F   F   F
  0.8749999968698887  0.8749999968698887  0.2957517364668405   F   F   F
  0.5932824378499788  0.5933260837062519  0.6442203969569960   T   T   T
  0.6249871382281000  0.4661816471225606  0.6436436288039786   T   T   T
  0.5338353727752434  0.3750664547681026  0.6436416407650398   T   T   T
  0.4066410717288420  0.4067062530349546  0.6442290497620959   T   T   T
  0.3750431304924007  0.5337787997650452  0.6436631007944129   T   T   T
  0.4662109123265310  0.6248880059698934  0.6436620237164092   T   T   T
  0.6537524673496620  0.6537457520385388  0.6757110545263387   T   T   T
  0.3462858413082870  0.3462406919526160  0.6756878606701022   T   T   T
  0.7898817595241567  0.4309368258072865  0.6766848366590850   T   T   T
  0.5691220193690896  0.2101008548099443  0.6766942099880282   T   T   T
  0.2101449378983915  0.5690696072522243  0.6767435604412171   T   T   T
  0.4308960644056796  0.7898868869207263  0.6767509855541363   T   T   T
 
  0.00000000E+00  0.00000000E+00  0.00000000E+00
  0.00000000E+00  0.00000000E+00  0.00000000E+00
  0.00000000E+00  0.00000000E+00  0.00000000E+00
  0.00000000E+00  0.00000000E+00  0.00000000E+00
  0.00000000E+00  0.00000000E+00  0.00000000E+00
  0.00000000E+00  0.00000000E+00  0.00000000E+00
  0.00000000E+00  0.00000000E+00  0.00000000E+00
  0.00000000E+00  0.00000000E+00  0.00000000E+00
  0.00000000E+00  0.00000000E+00  0.00000000E+00
  0.00000000E+00  0.00000000E+00  0.00000000E+00
  0.00000000E+00  0.00000000E+00  0.00000000E+00
  0.00000000E+00  0.00000000E+00  0.00000000E+00
  0.00000000E+00  0.00000000E+00  0.00000000E+00
  0.00000000E+00  0.00000000E+00  0.00000000E+00
  0.00000000E+00  0.00000000E+00  0.00000000E+00
  0.00000000E+00  0.00000000E+00  0.00000000E+00
  0.00000000E+00  0.00000000E+00  0.00000000E+00
  0.00000000E+00  0.00000000E+00  0.00000000E+00
  0.00000000E+00  0.00000000E+00  0.00000000E+00
  0.00000000E+00  0.00000000E+00  0.00000000E+00
  0.00000000E+00  0.00000000E+00  0.00000000E+00
  0.00000000E+00  0.00000000E+00  0.00000000E+00
  0.00000000E+00  0.00000000E+00  0.00000000E+00
  0.00000000E+00  0.00000000E+00  0.00000000E+00
  0.00000000E+00  0.00000000E+00  0.00000000E+00
  0.00000000E+00  0.00000000E+00  0.00000000E+00
  0.00000000E+00  0.00000000E+00  0.00000000E+00
  0.00000000E+00  0.00000000E+00  0.00000000E+00
  0.00000000E+00  0.00000000E+00  0.00000000E+00
  0.00000000E+00  0.00000000E+00  0.00000000E+00
  0.00000000E+00  0.00000000E+00  0.00000000E+00
  0.00000000E+00  0.00000000E+00  0.00000000E+00
  0.00000000E+00  0.00000000E+00  0.00000000E+00
  0.00000000E+00  0.00000000E+00  0.00000000E+00
  0.00000000E+00  0.00000000E+00  0.00000000E+00
  0.00000000E+00  0.00000000E+00  0.00000000E+00
  0.00000000E+00  0.00000000E+00  0.00000000E+00
  0.00000000E+00  0.00000000E+00  0.00000000E+00
  0.00000000E+00  0.00000000E+00  0.00000000E+00
  0.00000000E+00  0.00000000E+00  0.00000000E+00
  0.00000000E+00  0.00000000E+00  0.00000000E+00
  0.00000000E+00  0.00000000E+00  0.00000000E+00
  0.00000000E+00  0.00000000E+00  0.00000000E+00
  0.00000000E+00  0.00000000E+00  0.00000000E+00
  0.00000000E+00  0.00000000E+00  0.00000000E+00
  0.00000000E+00  0.00000000E+00  0.00000000E+00
  0.00000000E+00  0.00000000E+00  0.00000000E+00
  0.00000000E+00  0.00000000E+00  0.00000000E+00
  0.00000000E+00  0.00000000E+00  0.00000000E+00
  0.00000000E+00  0.00000000E+00  0.00000000E+00
  0.00000000E+00  0.00000000E+00  0.00000000E+00
  0.00000000E+00  0.00000000E+00  0.00000000E+00
  0.00000000E+00  0.00000000E+00  0.00000000E+00
  0.00000000E+00  0.00000000E+00  0.00000000E+00
  0.00000000E+00  0.00000000E+00  0.00000000E+00
  0.00000000E+00  0.00000000E+00  0.00000000E+00
  0.00000000E+00  0.00000000E+00  0.00000000E+00
  0.00000000E+00  0.00000000E+00  0.00000000E+00
  0.00000000E+00  0.00000000E+00  0.00000000E+00
  0.00000000E+00  0.00000000E+00  0.00000000E+00
