Pd  C  H Cl                             
   1.00000000000000     
    11.1922750000000004    0.0000000000000000    0.0000000000000000
    -5.5961369999999997    9.6927939999999992    0.0000000000000000
     0.0000000000000000    0.0000000000000000   24.8538405000000040
   Pd   C    H    Cl
    64     6     4     2
Selective dynamics
Direct
  0.9999999513476965  0.0000000206338839  0.3017642283493345   F   F   F
  0.2499999873901899  0.2500000051584692  0.3017642283493345   F   F   F
  0.2499999828216346  0.5000000103169455  0.3017642283493345   F   F   F
  0.2499999773596073  0.7500000154754147  0.3017642283493345   F   F   F
  0.2499999727910591  0.0000000206338839  0.3017642283493345   F   F   F
  0.4999999802424000  0.2500000051584692  0.3017642283493345   F   F   F
  0.4999999756738518  0.5000000103169455  0.3017642283493345   F   F   F
  0.4999999702118245  0.7500000154754147  0.3017642283493345   F   F   F
  0.7499999730946101  0.2500000051584692  0.3017642283493345   F   F   F
  0.7499999685260619  0.5000000103169455  0.3017642283493345   F   F   F
  0.7499999630640346  0.7500000154754147  0.3017642283493345   F   F   F
  0.7499999584954864  0.0000000206338839  0.3017642283493345   F   F   F
  0.9999999659468273  0.2500000051584692  0.3017642283493345   F   F   F
  0.9999999613782720  0.5000000103169455  0.3017642283493345   F   F   F
  0.9999999559162518  0.7500000154754147  0.3017642283493345   F   F   F
  0.4999999656432692  0.0000000206338839  0.3017642283493345   F   F   F
  0.0833330000000032  0.1666669999999968  0.3936861790032040   F   F   F
  0.0833330000000032  0.4166669999999968  0.3936861790032040   F   F   F
  0.0833330000000032  0.6666669999999968  0.3936861790032040   F   F   F
  0.0833330000000032  0.9166669999999968  0.3936861790032040   F   F   F
  0.3333330000000032  0.1666669999999968  0.3936861790032040   F   F   F
  0.3333330000000032  0.4166669999999968  0.3936861790032040   F   F   F
  0.3333330000000032  0.6666669999999968  0.3936861790032040   F   F   F
  0.3333330000000032  0.9166669999999968  0.3936861790032040   F   F   F
  0.5833330000000032  0.1666669999999968  0.3936861790032040   F   F   F
  0.5833330000000032  0.4166669999999968  0.3936861790032040   F   F   F
  0.5833330000000032  0.6666669999999968  0.3936861790032040   F   F   F
  0.5833330000000032  0.9166669999999968  0.3936861790032040   F   F   F
  0.8333330000000032  0.1666669999999968  0.3936861790032040   F   F   F
  0.8333330000000032  0.4166669999999968  0.3936861790032040   F   F   F
  0.8333330000000032  0.6666669999999968  0.3936861790032040   F   F   F
  0.8333330000000032  0.9166669999999968  0.3936861790032040   F   F   F
  0.2468951713007596  0.9937815152437478  0.5739967845665297   T   T   T
  0.2565654735902320  0.2532672560990564  0.5814873813921331   T   T   T
  0.2469218216310426  0.5031216298104779  0.5739887410153663   T   T   T
  0.2484503813428474  0.7492182933708788  0.5755541475144069   T   T   T
  0.5002389869015018  0.9958383709388771  0.5749319501283539   T   T   T
  0.5029056527273749  0.2408972631392725  0.5774434842753611   T   T   T
  0.5028910211158703  0.5120035228506065  0.5774369151907102   T   T   T
  0.5002499928670758  0.7543911453779963  0.5749338731952506   T   T   T
  0.7520715614610388  0.0010377369417247  0.5753462366977327   T   T   T
  0.7557971700192037  0.2484618375402798  0.5743118793544333   T   T   T
  0.7489791649855484  0.4994875496202922  0.5823825840847783   T   T   T
  0.7558133598837270  0.7573478139685171  0.5743151384331053   T   T   T
  0.0020514819844015  0.0015312948793267  0.5756578298782781   T   T   T
  0.0020720092001770  0.2505345104390216  0.5756531844955721   T   T   T
  0.9996672663816223  0.4999092785536886  0.5760287396023683   T   T   T
  0.9996752869021579  0.7497633220951713  0.5760332314337747   T   T   T
  0.1685439471347007  0.0863078482233465  0.4850442521923112   T   T   T
  0.1685206529757119  0.3322550397361108  0.4850434651824849   T   T   T
  0.1649619492642006  0.5825133223706065  0.4833812235792897   T   T   T
  0.1649836331978233  0.8324698740765796  0.4833799862760761   T   T   T
  0.4171900963960098  0.0843865836874131  0.4841064836117536   T   T   T
  0.4182112193592540  0.3341080240592519  0.4850325564796842   T   T   T
  0.4171917669770302  0.5828130541908353  0.4841019847587290   T   T   T
  0.4152460113697104  0.8326178954816535  0.4831923767405532   T   T   T
  0.6665902383565097  0.0828509528551000  0.4834425158390005   T   T   T
  0.6657479549656996  0.3328812443181043  0.4850705579143679   T   T   T
  0.6657479092404621  0.5828654712944691  0.4850733226309263   T   T   T
  0.6665837447982850  0.8337320507284113  0.4834473546014811   T   T   T
  0.9173389689471075  0.0836744162159215  0.4838560476689123   T   T   T
  0.9176549209164575  0.3333700231984116  0.4835594177784169   T   T   T
  0.9114957302506199  0.5807575253222619  0.4858923442711709   T   T   T
  0.9176534484079311  0.8342973104847680  0.4835597850189928   T   T   T
  0.3467351251707201  0.2983389405438571  0.6586363244721041   T   T   T
  0.4260637945061818  0.4493781771239257  0.6592938893781588   T   T   T
  0.5737536751757909  0.5232071831105165  0.6594755460361597   T   T   T
  0.6532885163235841  0.4516376350736196  0.6587911772227464   T   T   T
  0.5737618497713217  0.3005240860983748  0.6594798704758114   T   T   T
  0.4260636049263162  0.2266661698727349  0.6592918664953450   T   T   T
  0.3722424635415152  0.5027294004159044  0.6729648516528437   T   T   T
  0.6272920360997192  0.6302018022004632  0.6733658285432896   T   T   T
  0.6272862570108334  0.2470762213869702  0.6733558612115697   T   T   T
  0.3722499916025957  0.1194615982274335  0.6729655824007952   T   T   T
  0.1996619035753637  0.2248008362862174  0.7010337554137340   T   T   T
  0.7996946549513243  0.5248266790957670  0.7015702839078498   T   T   T
 
  0.00000000E+00  0.00000000E+00  0.00000000E+00
  0.00000000E+00  0.00000000E+00  0.00000000E+00
  0.00000000E+00  0.00000000E+00  0.00000000E+00
  0.00000000E+00  0.00000000E+00  0.00000000E+00
  0.00000000E+00  0.00000000E+00  0.00000000E+00
  0.00000000E+00  0.00000000E+00  0.00000000E+00
  0.00000000E+00  0.00000000E+00  0.00000000E+00
  0.00000000E+00  0.00000000E+00  0.00000000E+00
  0.00000000E+00  0.00000000E+00  0.00000000E+00
  0.00000000E+00  0.00000000E+00  0.00000000E+00
  0.00000000E+00  0.00000000E+00  0.00000000E+00
  0.00000000E+00  0.00000000E+00  0.00000000E+00
  0.00000000E+00  0.00000000E+00  0.00000000E+00
  0.00000000E+00  0.00000000E+00  0.00000000E+00
  0.00000000E+00  0.00000000E+00  0.00000000E+00
  0.00000000E+00  0.00000000E+00  0.00000000E+00
  0.00000000E+00  0.00000000E+00  0.00000000E+00
  0.00000000E+00  0.00000000E+00  0.00000000E+00
  0.00000000E+00  0.00000000E+00  0.00000000E+00
  0.00000000E+00  0.00000000E+00  0.00000000E+00
  0.00000000E+00  0.00000000E+00  0.00000000E+00
  0.00000000E+00  0.00000000E+00  0.00000000E+00
  0.00000000E+00  0.00000000E+00  0.00000000E+00
  0.00000000E+00  0.00000000E+00  0.00000000E+00
  0.00000000E+00  0.00000000E+00  0.00000000E+00
  0.00000000E+00  0.00000000E+00  0.00000000E+00
  0.00000000E+00  0.00000000E+00  0.00000000E+00
  0.00000000E+00  0.00000000E+00  0.00000000E+00
  0.00000000E+00  0.00000000E+00  0.00000000E+00
  0.00000000E+00  0.00000000E+00  0.00000000E+00
  0.00000000E+00  0.00000000E+00  0.00000000E+00
  0.00000000E+00  0.00000000E+00  0.00000000E+00
  0.00000000E+00  0.00000000E+00  0.00000000E+00
  0.00000000E+00  0.00000000E+00  0.00000000E+00
  0.00000000E+00  0.00000000E+00  0.00000000E+00
  0.00000000E+00  0.00000000E+00  0.00000000E+00
  0.00000000E+00  0.00000000E+00  0.00000000E+00
  0.00000000E+00  0.00000000E+00  0.00000000E+00
  0.00000000E+00  0.00000000E+00  0.00000000E+00
  0.00000000E+00  0.00000000E+00  0.00000000E+00
  0.00000000E+00  0.00000000E+00  0.00000000E+00
  0.00000000E+00  0.00000000E+00  0.00000000E+00
  0.00000000E+00  0.00000000E+00  0.00000000E+00
  0.00000000E+00  0.00000000E+00  0.00000000E+00
  0.00000000E+00  0.00000000E+00  0.00000000E+00
  0.00000000E+00  0.00000000E+00  0.00000000E+00
  0.00000000E+00  0.00000000E+00  0.00000000E+00
  0.00000000E+00  0.00000000E+00  0.00000000E+00
  0.00000000E+00  0.00000000E+00  0.00000000E+00
  0.00000000E+00  0.00000000E+00  0.00000000E+00
  0.00000000E+00  0.00000000E+00  0.00000000E+00
  0.00000000E+00  0.00000000E+00  0.00000000E+00
  0.00000000E+00  0.00000000E+00  0.00000000E+00
  0.00000000E+00  0.00000000E+00  0.00000000E+00
  0.00000000E+00  0.00000000E+00  0.00000000E+00
  0.00000000E+00  0.00000000E+00  0.00000000E+00
  0.00000000E+00  0.00000000E+00  0.00000000E+00
  0.00000000E+00  0.00000000E+00  0.00000000E+00
  0.00000000E+00  0.00000000E+00  0.00000000E+00
  0.00000000E+00  0.00000000E+00  0.00000000E+00
  0.00000000E+00  0.00000000E+00  0.00000000E+00
  0.00000000E+00  0.00000000E+00  0.00000000E+00
  0.00000000E+00  0.00000000E+00  0.00000000E+00
  0.00000000E+00  0.00000000E+00  0.00000000E+00
  0.00000000E+00  0.00000000E+00  0.00000000E+00
  0.00000000E+00  0.00000000E+00  0.00000000E+00
  0.00000000E+00  0.00000000E+00  0.00000000E+00
  0.00000000E+00  0.00000000E+00  0.00000000E+00
  0.00000000E+00  0.00000000E+00  0.00000000E+00
  0.00000000E+00  0.00000000E+00  0.00000000E+00
  0.00000000E+00  0.00000000E+00  0.00000000E+00
  0.00000000E+00  0.00000000E+00  0.00000000E+00
  0.00000000E+00  0.00000000E+00  0.00000000E+00
  0.00000000E+00  0.00000000E+00  0.00000000E+00
  0.00000000E+00  0.00000000E+00  0.00000000E+00
  0.00000000E+00  0.00000000E+00  0.00000000E+00
