Pt  C  H Cl                             
   1.00000000000000     
    11.2480069999999994    0.0000000000000000    0.0000000000000000
    -5.6240030000000001    9.7410599999999992    0.0000000000000000
     0.0000000000000000    0.0000000000000000   24.8879693399999979
   Pt   C    H    Cl
    64     6     2     4
Selective dynamics
Direct
  0.9999999587182344  0.7499999743354451  0.3013504194553178   F   F   F
  0.2499999964438118  0.0000000000000000  0.3013504194553178   F   F   F
  0.2499999825579735  0.2499999917873410  0.3013504194553178   F   F   F
  0.2499999690478916  0.4999999825481041  0.3013504194553178   F   F   F
  0.2499999551620533  0.7499999743354451  0.3013504194553178   F   F   F
  0.4999999928876306  0.0000000000000000  0.3013504194553178   F   F   F
  0.4999999790017924  0.2499999917873410  0.3013504194553178   F   F   F
  0.4999999654917033  0.4999999825481041  0.3013504194553178   F   F   F
  0.7499999893314424  0.0000000000000000  0.3013504194553178   F   F   F
  0.7499999754456042  0.2499999917873410  0.3013504194553178   F   F   F
  0.7499999619355222  0.4999999825481041  0.3013504194553178   F   F   F
  0.7499999480496840  0.7499999743354451  0.3013504194553178   F   F   F
  0.0000000000000000  0.0000000000000000  0.3013504194553178   F   F   F
  0.9999999861141617  0.2499999917873410  0.3013504194553178   F   F   F
  0.9999999583793340  0.4999999825481041  0.3013504194553178   F   F   F
  0.4999999516058651  0.7499999743354451  0.3013504194553178   F   F   F
  0.0833330000000032  0.1666669999999968  0.3936034172243978   F   F   F
  0.0833330000000032  0.4166669999999968  0.3936034172243978   F   F   F
  0.0833330000000032  0.6666669999999968  0.3936034172243978   F   F   F
  0.0833330000000032  0.9166669999999968  0.3936034172243978   F   F   F
  0.3333330000000032  0.1666669999999968  0.3936034172243978   F   F   F
  0.3333330000000032  0.4166669999999968  0.3936034172243978   F   F   F
  0.3333330000000032  0.6666669999999968  0.3936034172243978   F   F   F
  0.3333330000000032  0.9166669999999968  0.3936034172243978   F   F   F
  0.5833330000000032  0.1666669999999968  0.3936034172243978   F   F   F
  0.5833330000000032  0.4166669999999968  0.3936034172243978   F   F   F
  0.5833330000000032  0.6666669999999968  0.3936034172243978   F   F   F
  0.5833330000000032  0.9166669999999968  0.3936034172243978   F   F   F
  0.8333330000000032  0.1666669999999968  0.3936034172243978   F   F   F
  0.8333330000000032  0.4166669999999968  0.3936034172243978   F   F   F
  0.8333330000000032  0.6666669999999968  0.3936034172243978   F   F   F
  0.8333330000000032  0.9166669999999968  0.3936034172243978   F   F   F
  0.2496516850577460  0.2500860177776723  0.5785207459476966   T   T   T
  0.2493672570952526  0.5001345998155847  0.5787537634328979   T   T   T
  0.2500220909662103  0.7502169063719630  0.5790923556045429   T   T   T
  0.2499010503431432  0.0001305231120699  0.5788958521841624   T   T   T
  0.4997355055526140  0.2497665852431953  0.5787415818090024   T   T   T
  0.4997079837483053  0.5001357766525800  0.5771343311837844   T   T   T
  0.4998592903546060  0.7501921046751390  0.5786342272145008   T   T   T
  0.4998059963529639  0.0000070201304898  0.5790967909595816   T   T   T
  0.7498756919106643  0.2504367991779182  0.5790803453424197   T   T   T
  0.7495853041635249  0.5004486771463093  0.5787167343297960   T   T   T
  0.7498845701618230  0.7503188994551524  0.5771322641194454   T   T   T
  0.7499111926432906  0.0006810991805177  0.5787645668660565   T   T   T
  0.9996994778752462  0.2503326516295097  0.5788731145568546   T   T   T
  0.9995828902461666  0.5001373891148805  0.5790797749204757   T   T   T
  0.0002740158014246  0.7502997460376194  0.5787423009840664   T   T   T
  0.9999474951141398  0.0003807686946032  0.5785291343345074   T   T   T
  0.1666495237733439  0.0833657509500037  0.4853969295133381   T   T   T
  0.1665005680386460  0.3335911542938385  0.4853815263231739   T   T   T
  0.1664481835249965  0.5835338348258357  0.4855788741487997   T   T   T
  0.1667200688976963  0.8335049175875311  0.4854710461142508   T   T   T
  0.4164989257411998  0.0832926348967897  0.4854721948744575   T   T   T
  0.4162350199807648  0.3327545580967015  0.4851262606194872   T   T   T
  0.4161386006051747  0.5837444042885440  0.4851124050643248   T   T   T
  0.4163280090169356  0.8336813598365366  0.4855423399851143   T   T   T
  0.6664688610637882  0.0835588328995784  0.4855826501930025   T   T   T
  0.6665490394437696  0.3332232135309624  0.4855056603817586   T   T   T
  0.6669293117175031  0.5830813430500025  0.4847473806097499   T   T   T
  0.6662736226504170  0.8338828605912417  0.4851121541410721   T   T   T
  0.9164146239892378  0.0835038695737466  0.4853838588595545   T   T   T
  0.9164633553567524  0.3335303595087589  0.4855599876284444   T   T   T
  0.9167907376203295  0.5834560313291668  0.4855042365334296   T   T   T
  0.9172636871878843  0.8337755015300045  0.4851274806651024   T   T   T
  0.6968035645700024  0.5530954349619530  0.7046103399245657   T   T   T
  0.5534012058048529  0.4807628883637304  0.7056499544800283   T   T   T
  0.4810800253907754  0.5530414470178282  0.7056283139095866   T   T   T
  0.5533816780553419  0.6965792160477796  0.7045317807901370   T   T   T
  0.6969076957694647  0.7688728181349513  0.7056374277304135   T   T   T
  0.7691312086618163  0.6965355846204696  0.7056616790955006   T   T   T
  0.7526952977857989  0.4971951388393531  0.7045527683182562   T   T   T
  0.4973611556671120  0.7524131557125394  0.7044390024017776   T   T   T
  0.4682949846435338  0.3046152851126200  0.7079394148932699   T   T   T
  0.3047826943924000  0.4680337622715578  0.7079458277215085   T   T   T
  0.7818360168884396  0.9449844698402090  0.7079238977307019   T   T   T
  0.9451302136867398  0.7815660457140204  0.7079131643238997   T   T   T
 
  0.00000000E+00  0.00000000E+00  0.00000000E+00
  0.00000000E+00  0.00000000E+00  0.00000000E+00
  0.00000000E+00  0.00000000E+00  0.00000000E+00
  0.00000000E+00  0.00000000E+00  0.00000000E+00
  0.00000000E+00  0.00000000E+00  0.00000000E+00
  0.00000000E+00  0.00000000E+00  0.00000000E+00
  0.00000000E+00  0.00000000E+00  0.00000000E+00
  0.00000000E+00  0.00000000E+00  0.00000000E+00
  0.00000000E+00  0.00000000E+00  0.00000000E+00
  0.00000000E+00  0.00000000E+00  0.00000000E+00
  0.00000000E+00  0.00000000E+00  0.00000000E+00
  0.00000000E+00  0.00000000E+00  0.00000000E+00
  0.00000000E+00  0.00000000E+00  0.00000000E+00
  0.00000000E+00  0.00000000E+00  0.00000000E+00
  0.00000000E+00  0.00000000E+00  0.00000000E+00
  0.00000000E+00  0.00000000E+00  0.00000000E+00
  0.00000000E+00  0.00000000E+00  0.00000000E+00
  0.00000000E+00  0.00000000E+00  0.00000000E+00
  0.00000000E+00  0.00000000E+00  0.00000000E+00
  0.00000000E+00  0.00000000E+00  0.00000000E+00
  0.00000000E+00  0.00000000E+00  0.00000000E+00
  0.00000000E+00  0.00000000E+00  0.00000000E+00
  0.00000000E+00  0.00000000E+00  0.00000000E+00
  0.00000000E+00  0.00000000E+00  0.00000000E+00
  0.00000000E+00  0.00000000E+00  0.00000000E+00
  0.00000000E+00  0.00000000E+00  0.00000000E+00
  0.00000000E+00  0.00000000E+00  0.00000000E+00
  0.00000000E+00  0.00000000E+00  0.00000000E+00
  0.00000000E+00  0.00000000E+00  0.00000000E+00
  0.00000000E+00  0.00000000E+00  0.00000000E+00
  0.00000000E+00  0.00000000E+00  0.00000000E+00
  0.00000000E+00  0.00000000E+00  0.00000000E+00
  0.00000000E+00  0.00000000E+00  0.00000000E+00
  0.00000000E+00  0.00000000E+00  0.00000000E+00
  0.00000000E+00  0.00000000E+00  0.00000000E+00
  0.00000000E+00  0.00000000E+00  0.00000000E+00
  0.00000000E+00  0.00000000E+00  0.00000000E+00
  0.00000000E+00  0.00000000E+00  0.00000000E+00
  0.00000000E+00  0.00000000E+00  0.00000000E+00
  0.00000000E+00  0.00000000E+00  0.00000000E+00
  0.00000000E+00  0.00000000E+00  0.00000000E+00
  0.00000000E+00  0.00000000E+00  0.00000000E+00
  0.00000000E+00  0.00000000E+00  0.00000000E+00
  0.00000000E+00  0.00000000E+00  0.00000000E+00
  0.00000000E+00  0.00000000E+00  0.00000000E+00
  0.00000000E+00  0.00000000E+00  0.00000000E+00
  0.00000000E+00  0.00000000E+00  0.00000000E+00
  0.00000000E+00  0.00000000E+00  0.00000000E+00
  0.00000000E+00  0.00000000E+00  0.00000000E+00
  0.00000000E+00  0.00000000E+00  0.00000000E+00
  0.00000000E+00  0.00000000E+00  0.00000000E+00
  0.00000000E+00  0.00000000E+00  0.00000000E+00
  0.00000000E+00  0.00000000E+00  0.00000000E+00
  0.00000000E+00  0.00000000E+00  0.00000000E+00
  0.00000000E+00  0.00000000E+00  0.00000000E+00
  0.00000000E+00  0.00000000E+00  0.00000000E+00
  0.00000000E+00  0.00000000E+00  0.00000000E+00
  0.00000000E+00  0.00000000E+00  0.00000000E+00
  0.00000000E+00  0.00000000E+00  0.00000000E+00
  0.00000000E+00  0.00000000E+00  0.00000000E+00
  0.00000000E+00  0.00000000E+00  0.00000000E+00
  0.00000000E+00  0.00000000E+00  0.00000000E+00
  0.00000000E+00  0.00000000E+00  0.00000000E+00
  0.00000000E+00  0.00000000E+00  0.00000000E+00
  0.00000000E+00  0.00000000E+00  0.00000000E+00
  0.00000000E+00  0.00000000E+00  0.00000000E+00
  0.00000000E+00  0.00000000E+00  0.00000000E+00
  0.00000000E+00  0.00000000E+00  0.00000000E+00
  0.00000000E+00  0.00000000E+00  0.00000000E+00
  0.00000000E+00  0.00000000E+00  0.00000000E+00
  0.00000000E+00  0.00000000E+00  0.00000000E+00
  0.00000000E+00  0.00000000E+00  0.00000000E+00
  0.00000000E+00  0.00000000E+00  0.00000000E+00
  0.00000000E+00  0.00000000E+00  0.00000000E+00
  0.00000000E+00  0.00000000E+00  0.00000000E+00
  0.00000000E+00  0.00000000E+00  0.00000000E+00
