Cu48 C6 F6                              
    1.000000000000000     
    10.2424774999999997    0.0000000000000000    0.0000000000000000
     0.0000000000000000   14.4850505999999992    0.0000000000000000
     0.0000000000000000    0.0000000000000000   15.4644450100000004
   Cu   C    F 
    48     6     6
Selective dynamics
Direct
  0.2499523340148500  0.2500028279288458  0.4028256384603495   T   T   T
  0.2499185941511257  0.5000075230558920  0.4029234490818610   T   T   T
  0.2499598683377187  0.7499667727277455  0.4028740429158617   T   T   T
  0.2500170058079831  0.0000107268283074  0.4028833856283782   T   T   T
  0.4999962809169531  0.2498892715822905  0.4027825205305859   T   T   T
  0.4999999990236716  0.4999999986192663  0.4027173990838619   T   T   T
  0.5000037171303902  0.7501107256562349  0.4027825205305859   T   T   T
  0.4999999990236716  0.0000000000000000  0.4028765700533015   T   T   T
  0.7500401297096246  0.2500332245107799  0.4028740429158617   T   T   T
  0.7500814038962176  0.4999924741826405  0.4029234490818610   T   T   T
  0.7500476640324933  0.7499971693096796  0.4028256384603495   T   T   T
  0.7499829922393602  0.9999892731716926  0.4028833856283782   T   T   T
  0.9999929762300752  0.2500865973691049  0.4029065368323472   T   T   T
  0.0000000000000000  0.4999999986192663  0.4028727202699471   T   T   T
  0.0000070218172752  0.7499133984886868  0.4029065368323472   T   T   T
  0.0000000000000000  0.0000000000000000  0.4028758893646724   T   T   T
  0.1250006487900848  0.1250363557370235  0.4821801551017160   T   T   T
  0.1250391437290546  0.3750775125878789  0.4823509601240943   T   T   T
  0.1250818977708903  0.6249024920937956  0.4824304164798932   T   T   T
  0.1250116752146511  0.8749672282908207  0.4821959489784291   T   T   T
  0.3750046179845938  0.1250685419220758  0.4822025938542467   T   T   T
  0.3751340851366507  0.3751294698167129  0.4818843383428373   T   T   T
  0.3751432067805638  0.6248500791056060  0.4819611794282537   T   T   T
  0.3749996331476311  0.8749409338272756  0.4822160020936224   T   T   T
  0.6250003658760477  0.1250590634112569  0.4822160020936224   T   T   T
  0.6248567922431150  0.3751499181329265  0.4819611794282537   T   T   T
  0.6248659138870281  0.6248705274218196  0.4818843383428373   T   T   T
  0.6249953810390849  0.8749314553164567  0.4822025938542467   T   T   T
  0.8749883238090206  0.1250327689477118  0.4821959489784291   T   T   T
  0.8749181012527814  0.3750975051447369  0.4824304164798932   T   T   T
  0.8749608552946171  0.6249224846506536  0.4823509601240943   T   T   T
  0.8749993502335869  0.8749636415015090  0.4821801551017160   T   T   T
  0.1250000002440785  0.1249999996548183  0.3233223046004383   F   F   F
  0.1250000002440785  0.3749999989644479  0.3233223046004383   F   F   F
  0.1250000002440785  0.6249999982740846  0.3233223046004383   F   F   F
  0.1250000002440785  0.8749999975837142  0.3233223046004383   F   F   F
  0.3749999997559215  0.1249999996548183  0.3233223046004383   F   F   F
  0.3749999997559215  0.3749999989644479  0.3233223046004383   F   F   F
  0.3749999997559215  0.6249999982740846  0.3233223046004383   F   F   F
  0.3749999997559215  0.8749999975837142  0.3233223046004383   F   F   F
  0.6249999982914289  0.1249999996548183  0.3233223046004383   F   F   F
  0.6249999992677573  0.3749999989644479  0.3233223046004383   F   F   F
  0.6249999992677573  0.6249999982740846  0.3233223046004383   F   F   F
  0.6249999992677573  0.8749999975837142  0.3233223046004383   F   F   F
  0.8749999987795931  0.1249999996548183  0.3233223046004383   F   F   F
  0.8749999978032648  0.3749999989644479  0.3233223046004383   F   F   F
  0.8749999987795931  0.6249999982740846  0.3233223046004383   F   F   F
  0.8749999987795931  0.8749999975837142  0.3233223046004383   F   F   F
  0.3641133666162162  0.5087968381549501  0.6761805683901656   T   T   T
  0.4427924178479827  0.5874799078181283  0.6760054822014254   T   T   T
  0.5786973953081542  0.5786256453135934  0.6761019435164997   T   T   T
  0.6358866040939901  0.4912031452762449  0.6761805683901656   T   T   T
  0.5572076094891543  0.4125201032277417  0.6760054822014254   T   T   T
  0.4213026037155245  0.4213743519249391  0.6761019435164997   T   T   T
  0.2333342200952870  0.5172478402301834  0.6765705047169774   T   T   T
  0.3875705193588885  0.6719328964439342  0.6775962243818725   T   T   T
  0.6547319819312989  0.6546159973624412  0.6775645510654371   T   T   T
  0.7666657789283846  0.4827521570083491  0.6765705047169774   T   T   T
  0.6124295509366036  0.3280671228863383  0.6775962243818725   T   T   T
  0.3452680454058381  0.3453840136834287  0.6775645510654371   T   T   T
 
  0.00000000E+00  0.00000000E+00  0.00000000E+00
  0.00000000E+00  0.00000000E+00  0.00000000E+00
  0.00000000E+00  0.00000000E+00  0.00000000E+00
  0.00000000E+00  0.00000000E+00  0.00000000E+00
  0.00000000E+00  0.00000000E+00  0.00000000E+00
  0.00000000E+00  0.00000000E+00  0.00000000E+00
  0.00000000E+00  0.00000000E+00  0.00000000E+00
  0.00000000E+00  0.00000000E+00  0.00000000E+00
  0.00000000E+00  0.00000000E+00  0.00000000E+00
  0.00000000E+00  0.00000000E+00  0.00000000E+00
  0.00000000E+00  0.00000000E+00  0.00000000E+00
  0.00000000E+00  0.00000000E+00  0.00000000E+00
  0.00000000E+00  0.00000000E+00  0.00000000E+00
  0.00000000E+00  0.00000000E+00  0.00000000E+00
  0.00000000E+00  0.00000000E+00  0.00000000E+00
  0.00000000E+00  0.00000000E+00  0.00000000E+00
  0.00000000E+00  0.00000000E+00  0.00000000E+00
  0.00000000E+00  0.00000000E+00  0.00000000E+00
  0.00000000E+00  0.00000000E+00  0.00000000E+00
  0.00000000E+00  0.00000000E+00  0.00000000E+00
  0.00000000E+00  0.00000000E+00  0.00000000E+00
  0.00000000E+00  0.00000000E+00  0.00000000E+00
  0.00000000E+00  0.00000000E+00  0.00000000E+00
  0.00000000E+00  0.00000000E+00  0.00000000E+00
  0.00000000E+00  0.00000000E+00  0.00000000E+00
  0.00000000E+00  0.00000000E+00  0.00000000E+00
  0.00000000E+00  0.00000000E+00  0.00000000E+00
  0.00000000E+00  0.00000000E+00  0.00000000E+00
  0.00000000E+00  0.00000000E+00  0.00000000E+00
  0.00000000E+00  0.00000000E+00  0.00000000E+00
  0.00000000E+00  0.00000000E+00  0.00000000E+00
  0.00000000E+00  0.00000000E+00  0.00000000E+00
  0.00000000E+00  0.00000000E+00  0.00000000E+00
  0.00000000E+00  0.00000000E+00  0.00000000E+00
  0.00000000E+00  0.00000000E+00  0.00000000E+00
  0.00000000E+00  0.00000000E+00  0.00000000E+00
  0.00000000E+00  0.00000000E+00  0.00000000E+00
  0.00000000E+00  0.00000000E+00  0.00000000E+00
  0.00000000E+00  0.00000000E+00  0.00000000E+00
  0.00000000E+00  0.00000000E+00  0.00000000E+00
  0.00000000E+00  0.00000000E+00  0.00000000E+00
  0.00000000E+00  0.00000000E+00  0.00000000E+00
  0.00000000E+00  0.00000000E+00  0.00000000E+00
  0.00000000E+00  0.00000000E+00  0.00000000E+00
  0.00000000E+00  0.00000000E+00  0.00000000E+00
  0.00000000E+00  0.00000000E+00  0.00000000E+00
  0.00000000E+00  0.00000000E+00  0.00000000E+00
  0.00000000E+00  0.00000000E+00  0.00000000E+00
  0.00000000E+00  0.00000000E+00  0.00000000E+00
  0.00000000E+00  0.00000000E+00  0.00000000E+00
  0.00000000E+00  0.00000000E+00  0.00000000E+00
  0.00000000E+00  0.00000000E+00  0.00000000E+00
  0.00000000E+00  0.00000000E+00  0.00000000E+00
  0.00000000E+00  0.00000000E+00  0.00000000E+00
  0.00000000E+00  0.00000000E+00  0.00000000E+00
  0.00000000E+00  0.00000000E+00  0.00000000E+00
  0.00000000E+00  0.00000000E+00  0.00000000E+00
  0.00000000E+00  0.00000000E+00  0.00000000E+00
  0.00000000E+00  0.00000000E+00  0.00000000E+00
  0.00000000E+00  0.00000000E+00  0.00000000E+00
