Cu48 C6 Cl6                             
    1.000000000000000     
    10.2424774999999997    0.0000000000000000    0.0000000000000000
     0.0000000000000000   10.2424774999999997    0.0000000000000000
     0.0000000000000000    0.0000000000000000   16.5495968500000004
   Cu   C    Cl
    48     6     6
Selective dynamics
Direct
  0.2498853269278598  0.9998503346195449  0.4092905547282726   T   T   T
  0.2496246065040282  0.2495869623354494  0.4090282282284505   T   T   T
  0.2490548746797572  0.4999303825711365  0.4089333649332332   T   T   T
  0.2496719219328085  0.7503334343343511  0.4092651424901206   T   T   T
  0.5000141297153320  0.0000462191662223  0.4093734365503963   T   T   T
  0.4999988617545768  0.2490770718324242  0.4088439691847867   T   T   T
  0.5000613358978256  0.4999511318619057  0.4080723795877361   T   T   T
  0.5000771980771361  0.7509428600469477  0.4089213876361342   T   T   T
  0.7501130590630680  0.0002038181552422  0.4092726088768472   T   T   T
  0.7502820506615890  0.2497227891174418  0.4091558316196924   T   T   T
  0.7509220008857085  0.5000086234221754  0.4088398300729068   T   T   T
  0.7504076936368165  0.7503714424753696  0.4090242117382061   T   T   T
  0.9999878926770407  0.0000091557787201  0.4090389735693307   T   T   T
  0.9997883512162389  0.2498869730166859  0.4092726185345228   T   T   T
  0.9999412971054724  0.4999881907986961  0.4093823702197810   T   T   T
  0.0001425891519489  0.7501155496800251  0.4092991290297761   T   T   T
  0.1246368574151049  0.1246792097446914  0.5164031481540476   T   T   T
  0.1248245047405447  0.3745136010633985  0.5163761072004860   T   T   T
  0.1250211529427929  0.6250701321696539  0.5166975841201875   T   T   T
  0.1247664437551492  0.8752327894456613  0.5167171608177412   T   T   T
  0.3746222086186179  0.1249202204176783  0.5163376571353666   T   T   T
  0.3753364333053568  0.3752048226400930  0.5145713423927845   T   T   T
  0.3754807253624364  0.6245374012501301  0.5145284966530070   T   T   T
  0.3749452521786480  0.8749769851362856  0.5166937243843108   T   T   T
  0.6251123952091930  0.1251370045879199  0.5166341895289648   T   T   T
  0.6246358156283165  0.3753720486262324  0.5145671686223423   T   T   T
  0.6248023263184095  0.6246833095516706  0.5145799267362037   T   T   T
  0.6254865440251791  0.8751694736007991  0.5163647641250080   T   T   T
  0.8751274419188775  0.1248609168580757  0.5166304881062089   T   T   T
  0.8748465283866906  0.3748923745293737  0.5166389004368241   T   T   T
  0.8750624020743558  0.6253904669272501  0.5163301802508897   T   T   T
  0.8753051065309165  0.8753593526850167  0.5163902854565094   T   T   T
  0.1250000002440785  0.1249999992677573  0.3021221631752340   F   F   F
  0.1250000002440785  0.3749999997559215  0.3021221631752340   F   F   F
  0.1250000002440785  0.6249999982914289  0.3021221631752340   F   F   F
  0.1250000002440785  0.8749999987795931  0.3021221631752340   F   F   F
  0.3749999997559215  0.1249999992677573  0.3021221631752340   F   F   F
  0.3749999997559215  0.3749999997559215  0.3021221631752340   F   F   F
  0.3749999997559215  0.6249999982914289  0.3021221631752340   F   F   F
  0.3749999997559215  0.8749999987795931  0.3021221631752340   F   F   F
  0.6249999982914289  0.1249999992677573  0.3021221631752340   F   F   F
  0.6249999982914289  0.3749999997559215  0.3021221631752340   F   F   F
  0.6249999992677573  0.6249999982914289  0.3021221631752340   F   F   F
  0.6249999992677573  0.8749999987795931  0.3021221631752340   F   F   F
  0.8749999987795931  0.1249999992677573  0.3021221631752340   F   F   F
  0.8749999978032648  0.3749999997559215  0.3021221631752340   F   F   F
  0.8749999987795931  0.6249999982914289  0.3021221631752340   F   F   F
  0.8749999987795931  0.8749999987795931  0.3021221631752340   F   F   F
  0.3671224903791455  0.5356713752499616  0.6975815149918745   T   T   T
  0.4643406825105885  0.6328640200008948  0.6975842521340425   T   T   T
  0.5971064389874670  0.5970872492437991  0.6974126123045465   T   T   T
  0.6328642858969573  0.4643170989055605  0.6975731761915114   T   T   T
  0.5356453728479380  0.3671191289303621  0.6975627348935447   T   T   T
  0.4028771968481237  0.4029002632528247  0.6974019354805066   T   T   T
  0.2056861774037770  0.5787284984501042  0.6997279918563777   T   T   T
  0.4213224804038518  0.7943192508630474  0.6997293526778492   T   T   T
  0.7153026368483353  0.7152561502807373  0.6991315168509260   T   T   T
  0.7943051150029561  0.4212624203676256  0.6997170865109013   T   T   T
  0.5786672693102659  0.2056637504766528  0.6996824772178911   T   T   T
  0.2846825405554227  0.2847384020452566  0.6991130653268556   T   T   T
 
  0.00000000E+00  0.00000000E+00  0.00000000E+00
  0.00000000E+00  0.00000000E+00  0.00000000E+00
  0.00000000E+00  0.00000000E+00  0.00000000E+00
  0.00000000E+00  0.00000000E+00  0.00000000E+00
  0.00000000E+00  0.00000000E+00  0.00000000E+00
  0.00000000E+00  0.00000000E+00  0.00000000E+00
  0.00000000E+00  0.00000000E+00  0.00000000E+00
  0.00000000E+00  0.00000000E+00  0.00000000E+00
  0.00000000E+00  0.00000000E+00  0.00000000E+00
  0.00000000E+00  0.00000000E+00  0.00000000E+00
  0.00000000E+00  0.00000000E+00  0.00000000E+00
  0.00000000E+00  0.00000000E+00  0.00000000E+00
  0.00000000E+00  0.00000000E+00  0.00000000E+00
  0.00000000E+00  0.00000000E+00  0.00000000E+00
  0.00000000E+00  0.00000000E+00  0.00000000E+00
  0.00000000E+00  0.00000000E+00  0.00000000E+00
  0.00000000E+00  0.00000000E+00  0.00000000E+00
  0.00000000E+00  0.00000000E+00  0.00000000E+00
  0.00000000E+00  0.00000000E+00  0.00000000E+00
  0.00000000E+00  0.00000000E+00  0.00000000E+00
  0.00000000E+00  0.00000000E+00  0.00000000E+00
  0.00000000E+00  0.00000000E+00  0.00000000E+00
  0.00000000E+00  0.00000000E+00  0.00000000E+00
  0.00000000E+00  0.00000000E+00  0.00000000E+00
  0.00000000E+00  0.00000000E+00  0.00000000E+00
  0.00000000E+00  0.00000000E+00  0.00000000E+00
  0.00000000E+00  0.00000000E+00  0.00000000E+00
  0.00000000E+00  0.00000000E+00  0.00000000E+00
  0.00000000E+00  0.00000000E+00  0.00000000E+00
  0.00000000E+00  0.00000000E+00  0.00000000E+00
  0.00000000E+00  0.00000000E+00  0.00000000E+00
  0.00000000E+00  0.00000000E+00  0.00000000E+00
  0.00000000E+00  0.00000000E+00  0.00000000E+00
  0.00000000E+00  0.00000000E+00  0.00000000E+00
  0.00000000E+00  0.00000000E+00  0.00000000E+00
  0.00000000E+00  0.00000000E+00  0.00000000E+00
  0.00000000E+00  0.00000000E+00  0.00000000E+00
  0.00000000E+00  0.00000000E+00  0.00000000E+00
  0.00000000E+00  0.00000000E+00  0.00000000E+00
  0.00000000E+00  0.00000000E+00  0.00000000E+00
  0.00000000E+00  0.00000000E+00  0.00000000E+00
  0.00000000E+00  0.00000000E+00  0.00000000E+00
  0.00000000E+00  0.00000000E+00  0.00000000E+00
  0.00000000E+00  0.00000000E+00  0.00000000E+00
  0.00000000E+00  0.00000000E+00  0.00000000E+00
  0.00000000E+00  0.00000000E+00  0.00000000E+00
  0.00000000E+00  0.00000000E+00  0.00000000E+00
  0.00000000E+00  0.00000000E+00  0.00000000E+00
  0.00000000E+00  0.00000000E+00  0.00000000E+00
  0.00000000E+00  0.00000000E+00  0.00000000E+00
  0.00000000E+00  0.00000000E+00  0.00000000E+00
  0.00000000E+00  0.00000000E+00  0.00000000E+00
  0.00000000E+00  0.00000000E+00  0.00000000E+00
  0.00000000E+00  0.00000000E+00  0.00000000E+00
  0.00000000E+00  0.00000000E+00  0.00000000E+00
  0.00000000E+00  0.00000000E+00  0.00000000E+00
  0.00000000E+00  0.00000000E+00  0.00000000E+00
  0.00000000E+00  0.00000000E+00  0.00000000E+00
  0.00000000E+00  0.00000000E+00  0.00000000E+00
  0.00000000E+00  0.00000000E+00  0.00000000E+00
