Pd  C  N  F                             
   1.00000000000000     
    11.1922750000000004    0.0000000000000000    0.0000000000000000
    -5.5961369999999997    9.6927939999999992    0.0000000000000000
     0.0000000000000000    0.0000000000000000   24.8538405000000040
   Pd   C    N    F 
    64     4     2     4
Selective dynamics
Direct
  0.9999999513476965  0.0000000206338839  0.3017642283493345   F   F   F
  0.2499999873901899  0.2500000051584692  0.3017642283493345   F   F   F
  0.2499999828216346  0.5000000103169455  0.3017642283493345   F   F   F
  0.2499999773596073  0.7500000154754147  0.3017642283493345   F   F   F
  0.2499999727910591  0.0000000206338839  0.3017642283493345   F   F   F
  0.4999999802424000  0.2500000051584692  0.3017642283493345   F   F   F
  0.4999999756738518  0.5000000103169455  0.3017642283493345   F   F   F
  0.4999999702118245  0.7500000154754147  0.3017642283493345   F   F   F
  0.7499999730946101  0.2500000051584692  0.3017642283493345   F   F   F
  0.7499999685260619  0.5000000103169455  0.3017642283493345   F   F   F
  0.7499999630640346  0.7500000154754147  0.3017642283493345   F   F   F
  0.7499999584954864  0.0000000206338839  0.3017642283493345   F   F   F
  0.9999999659468273  0.2500000051584692  0.3017642283493345   F   F   F
  0.9999999613782720  0.5000000103169455  0.3017642283493345   F   F   F
  0.9999999559162518  0.7500000154754147  0.3017642283493345   F   F   F
  0.4999999656432692  0.0000000206338839  0.3017642283493345   F   F   F
  0.0833330000000032  0.1666669999999968  0.3936861790032040   F   F   F
  0.0833330000000032  0.4166669999999968  0.3936861790032040   F   F   F
  0.0833330000000032  0.6666669999999968  0.3936861790032040   F   F   F
  0.0833330000000032  0.9166669999999968  0.3936861790032040   F   F   F
  0.3333330000000032  0.1666669999999968  0.3936861790032040   F   F   F
  0.3333330000000032  0.4166669999999968  0.3936861790032040   F   F   F
  0.3333330000000032  0.6666669999999968  0.3936861790032040   F   F   F
  0.3333330000000032  0.9166669999999968  0.3936861790032040   F   F   F
  0.5833330000000032  0.1666669999999968  0.3936861790032040   F   F   F
  0.5833330000000032  0.4166669999999968  0.3936861790032040   F   F   F
  0.5833330000000032  0.6666669999999968  0.3936861790032040   F   F   F
  0.5833330000000032  0.9166669999999968  0.3936861790032040   F   F   F
  0.8333330000000032  0.1666669999999968  0.3936861790032040   F   F   F
  0.8333330000000032  0.4166669999999968  0.3936861790032040   F   F   F
  0.8333330000000032  0.6666669999999968  0.3936861790032040   F   F   F
  0.8333330000000032  0.9166669999999968  0.3936861790032040   F   F   F
  0.2462477231861099  0.9932759911948394  0.5736213775018818   T   T   T
  0.2510213989698351  0.2504925384877129  0.5827706420071780   T   T   T
  0.2462294553610823  0.5029955362016800  0.5736318957900175   T   T   T
  0.2490816916289620  0.7495464472192302  0.5755355853326849   T   T   T
  0.5000667107861874  0.9964753756067388  0.5750869075132836   T   T   T
  0.5012484978410300  0.2405680883215264  0.5797727114802173   T   T   T
  0.5012344511172699  0.5106609267969358  0.5797747934849421   T   T   T
  0.5000468095529051  0.7535984430658138  0.5750864677993527   T   T   T
  0.7508528757490135  0.0004202498140358  0.5750583941144789   T   T   T
  0.7553720194096237  0.2484805862120525  0.5737984789301003   T   T   T
  0.7515323275699073  0.5007718835202918  0.5831070745187308   T   T   T
  0.7553799905289966  0.7568922732738302  0.5737944707945813   T   T   T
  0.0008160401706609  0.0006414943777030  0.5753956141150297   T   T   T
  0.0007977584507866  0.2501748889957052  0.5753933924711239   T   T   T
  0.0000974067002681  0.5004159287190081  0.5757641712801475   T   T   T
  0.0001395494275053  0.7496619122493489  0.5757343903446287   T   T   T
  0.1690517219343326  0.0869100859599254  0.4852785512814644   T   T   T
  0.1690645161556048  0.3321366023709028  0.4852944084112341   T   T   T
  0.1652110185462292  0.5828161709369516  0.4831420510815933   T   T   T
  0.1652293742622223  0.8323947543302015  0.4831491681560877   T   T   T
  0.4179274900365665  0.0851337151997952  0.4844602325902976   T   T   T
  0.4176508233273797  0.3338378512963346  0.4860188820392927   T   T   T
  0.4179215523509643  0.5828155639834859  0.4844616066668017   T   T   T
  0.4156063570337103  0.8328130861479014  0.4834054857619351   T   T   T
  0.6666406685828997  0.0832179359015507  0.4833731600462262   T   T   T
  0.6655974711056011  0.3334413735975618  0.4855070536406400   T   T   T
  0.6655694280959399  0.5821208192548598  0.4855097327102395   T   T   T
  0.6666377891260553  0.8334195130653950  0.4833726222412108   T   T   T
  0.9173378789597785  0.0836675117354236  0.4837803026612038   T   T   T
  0.9181431575994052  0.3334478656679180  0.4832906499037617   T   T   T
  0.9106413094404375  0.5803103635884038  0.4859503820693234   T   T   T
  0.9181405692821815  0.8346967856407106  0.4832881092448995   T   T   T
  0.5748233401039010  0.5152570340404260  0.6618132874715953   T   T   T
  0.4257826493264683  0.4408017339355631  0.6618587343365280   T   T   T
  0.4257365687509245  0.2350039283954727  0.6618829204711112   T   T   T
  0.5746287273114521  0.3094104540803063  0.6618139350405856   T   T   T
  0.3500750171830526  0.3000387208567346  0.6615969850283985   T   T   T
  0.6505838565012593  0.4502015606357346  0.6615006001211582   T   T   T
  0.6403531885618665  0.2467990448184673  0.6839591944986567   T   T   T
  0.3599804307973713  0.1065718657124166  0.6838456405723193   T   T   T
  0.6406268186122983  0.6437026618988345  0.6839582909222756   T   T   T
  0.3601530059862048  0.5036795598174258  0.6838772614738680   T   T   T
 
  0.00000000E+00  0.00000000E+00  0.00000000E+00
  0.00000000E+00  0.00000000E+00  0.00000000E+00
  0.00000000E+00  0.00000000E+00  0.00000000E+00
  0.00000000E+00  0.00000000E+00  0.00000000E+00
  0.00000000E+00  0.00000000E+00  0.00000000E+00
  0.00000000E+00  0.00000000E+00  0.00000000E+00
  0.00000000E+00  0.00000000E+00  0.00000000E+00
  0.00000000E+00  0.00000000E+00  0.00000000E+00
  0.00000000E+00  0.00000000E+00  0.00000000E+00
  0.00000000E+00  0.00000000E+00  0.00000000E+00
  0.00000000E+00  0.00000000E+00  0.00000000E+00
  0.00000000E+00  0.00000000E+00  0.00000000E+00
  0.00000000E+00  0.00000000E+00  0.00000000E+00
  0.00000000E+00  0.00000000E+00  0.00000000E+00
  0.00000000E+00  0.00000000E+00  0.00000000E+00
  0.00000000E+00  0.00000000E+00  0.00000000E+00
  0.00000000E+00  0.00000000E+00  0.00000000E+00
  0.00000000E+00  0.00000000E+00  0.00000000E+00
  0.00000000E+00  0.00000000E+00  0.00000000E+00
  0.00000000E+00  0.00000000E+00  0.00000000E+00
  0.00000000E+00  0.00000000E+00  0.00000000E+00
  0.00000000E+00  0.00000000E+00  0.00000000E+00
  0.00000000E+00  0.00000000E+00  0.00000000E+00
  0.00000000E+00  0.00000000E+00  0.00000000E+00
  0.00000000E+00  0.00000000E+00  0.00000000E+00
  0.00000000E+00  0.00000000E+00  0.00000000E+00
  0.00000000E+00  0.00000000E+00  0.00000000E+00
  0.00000000E+00  0.00000000E+00  0.00000000E+00
  0.00000000E+00  0.00000000E+00  0.00000000E+00
  0.00000000E+00  0.00000000E+00  0.00000000E+00
  0.00000000E+00  0.00000000E+00  0.00000000E+00
  0.00000000E+00  0.00000000E+00  0.00000000E+00
  0.00000000E+00  0.00000000E+00  0.00000000E+00
  0.00000000E+00  0.00000000E+00  0.00000000E+00
  0.00000000E+00  0.00000000E+00  0.00000000E+00
  0.00000000E+00  0.00000000E+00  0.00000000E+00
  0.00000000E+00  0.00000000E+00  0.00000000E+00
  0.00000000E+00  0.00000000E+00  0.00000000E+00
  0.00000000E+00  0.00000000E+00  0.00000000E+00
  0.00000000E+00  0.00000000E+00  0.00000000E+00
  0.00000000E+00  0.00000000E+00  0.00000000E+00
  0.00000000E+00  0.00000000E+00  0.00000000E+00
  0.00000000E+00  0.00000000E+00  0.00000000E+00
  0.00000000E+00  0.00000000E+00  0.00000000E+00
  0.00000000E+00  0.00000000E+00  0.00000000E+00
  0.00000000E+00  0.00000000E+00  0.00000000E+00
  0.00000000E+00  0.00000000E+00  0.00000000E+00
  0.00000000E+00  0.00000000E+00  0.00000000E+00
  0.00000000E+00  0.00000000E+00  0.00000000E+00
  0.00000000E+00  0.00000000E+00  0.00000000E+00
  0.00000000E+00  0.00000000E+00  0.00000000E+00
  0.00000000E+00  0.00000000E+00  0.00000000E+00
  0.00000000E+00  0.00000000E+00  0.00000000E+00
  0.00000000E+00  0.00000000E+00  0.00000000E+00
  0.00000000E+00  0.00000000E+00  0.00000000E+00
  0.00000000E+00  0.00000000E+00  0.00000000E+00
  0.00000000E+00  0.00000000E+00  0.00000000E+00
  0.00000000E+00  0.00000000E+00  0.00000000E+00
  0.00000000E+00  0.00000000E+00  0.00000000E+00
  0.00000000E+00  0.00000000E+00  0.00000000E+00
  0.00000000E+00  0.00000000E+00  0.00000000E+00
  0.00000000E+00  0.00000000E+00  0.00000000E+00
  0.00000000E+00  0.00000000E+00  0.00000000E+00
  0.00000000E+00  0.00000000E+00  0.00000000E+00
  0.00000000E+00  0.00000000E+00  0.00000000E+00
  0.00000000E+00  0.00000000E+00  0.00000000E+00
  0.00000000E+00  0.00000000E+00  0.00000000E+00
  0.00000000E+00  0.00000000E+00  0.00000000E+00
  0.00000000E+00  0.00000000E+00  0.00000000E+00
  0.00000000E+00  0.00000000E+00  0.00000000E+00
  0.00000000E+00  0.00000000E+00  0.00000000E+00
  0.00000000E+00  0.00000000E+00  0.00000000E+00
  0.00000000E+00  0.00000000E+00  0.00000000E+00
  0.00000000E+00  0.00000000E+00  0.00000000E+00
