Ir  C  H Br                             
    1.000000000000000     
    10.9622135000000007    0.0000000000000000    0.0000000000000000
     0.0000000000000000   15.5029109999999992    0.0000000000000000
     0.0000000000000000    0.0000000000000000   22.1108300437499992
   Ir   C    H    Br
    64     6     4     2
Selective dynamics
Direct
  0.2499999995438884  0.0000000000000000  0.3392002916742598   F   F   F
  0.9999999981755536  0.4999999993549622  0.3392002916742598   F   F   F
  0.2499999995438884  0.2499999993549622  0.3392002916742598   F   F   F
  0.2499999995438884  0.4999999993549622  0.3392002916742598   F   F   F
  0.2499999995438884  0.7499999987099173  0.3392002916742598   F   F   F
  0.4999999990877768  0.0000000000000000  0.3392002916742598   F   F   F
  0.4999999990877768  0.2499999993549622  0.3392002916742598   F   F   F
  0.4999999990877768  0.4999999993549622  0.3392002916742598   F   F   F
  0.4999999990877768  0.7499999987099173  0.3392002916742598   F   F   F
  0.7499999986316652  0.0000000000000000  0.3392002916742598   F   F   F
  0.7499999986316652  0.2499999993549622  0.3392002916742598   F   F   F
  0.7499999986316652  0.4999999993549622  0.3392002916742598   F   F   F
  0.0000000000000000  0.0000000000000000  0.3392002916742598   F   F   F
  0.9999999981755536  0.2499999993549622  0.3392002916742598   F   F   F
  0.9999999981755536  0.7499999987099173  0.3392002916742598   F   F   F
  0.7499999986316652  0.7499999987099173  0.3392002916742598   F   F   F
  0.2502845661517415 -0.0000184905721172  0.4621633553255314   T   T   T
  0.2493570852214826  0.2498095728311711  0.4607726986669174   T   T   T
  0.2492555308873750  0.4999714578397219  0.4603017348841041   T   T   T
  0.2527575194634792  0.7473656840014313  0.4645851568017245   T   T   T
  0.4999870688529998  0.0000070140652061  0.4627373162366391   T   T   T
  0.4991104948252260  0.2512939663650834  0.4630121831905986   T   T   T
  0.4999944414322251  0.4999996834899475  0.4594036579637146   T   T   T
  0.5008797455423343  0.7486993313714480  0.4630128825872136   T   T   T
  0.7497206533615048  0.0000296338549636  0.4621344037850739   T   T   T
  0.7472479330996299  0.2526213245169358  0.4645797488979150   T   T   T
  0.7507448711008003  0.5000259672539088  0.4602854023168920   T   T   T
  0.7506438959576587  0.7501832811836801  0.4607439184943297   T   T   T
 -0.0000024904821126  0.0000088868789244  0.4631944145326985   T   T   T
  0.9992353764672970  0.2495967772791710  0.4626128418543978   T   T   T
  0.0000066619248748  0.5000021363358468  0.4627034485302042   T   T   T
  0.0007589910631831  0.7503935605387069  0.4626106899849792   T   T   T
  0.1231363229831546  0.1253549440974797  0.5217246534210382   T   T   T
  0.1205068754092201  0.3748552193430930  0.5197368374110892   T   T   T
  0.1237654035698359  0.6243954925670673  0.5200911248784016   T   T   T
  0.1275014895565526  0.8746579018380471  0.5197878167715007   T   T   T
  0.3771493316729434  0.1254196398049698  0.5215583545295629   T   T   T
  0.3657659668395786  0.3761335208207797  0.5224353284786918   T   T   T
  0.3745106189055101  0.6169948864741408  0.5255783242370055   T   T   T
  0.3729869888881737  0.8744920516164570  0.5196220403302542   T   T   T
  0.6270248944972856  0.1255190003166437  0.5195984851376001   T   T   T
  0.6255229037016224  0.3830054430518069  0.5255778929586236   T   T   T
  0.6342698208102338  0.6238701985345095  0.5224340983202350   T   T   T
  0.6228189253762134  0.8745806944980556  0.5215438062424917   T   T   T
  0.8724951562901937  0.1253418774945488  0.5197497874496969   T   T   T
  0.8762407025088514  0.3756229085494859  0.5200875873675221   T   T   T
  0.8794928528676047  0.6251538783457763  0.5197230772389978   T   T   T
  0.8768658269948506  0.8746488390469135  0.5217338275078512   T   T   T
  0.1249999993158326  0.1249999996774775  0.4011733916681877   F   F   F
  0.1249999993158326  0.3749999996774775  0.4011733916681877   F   F   F
  0.1250000002280558  0.6249999990324397  0.4011733916681877   F   F   F
  0.1250000002280558  0.8749999983874019  0.4011733916681877   F   F   F
  0.3749999988597210  0.1249999996774775  0.4011733916681877   F   F   F
  0.3749999997719442  0.3749999996774775  0.4011733916681877   F   F   F
  0.3749999997719442  0.6249999990324397  0.4011733916681877   F   F   F
  0.3749999997719442  0.8749999983874019  0.4011733916681877   F   F   F
  0.6249999993158326  0.1249999996774775  0.4011733916681877   F   F   F
  0.6249999984036094  0.3749999996774775  0.4011733916681877   F   F   F
  0.6249999993158326  0.6249999990324397  0.4011733916681877   F   F   F
  0.6249999993158326  0.8749999983874019  0.4011733916681877   F   F   F
  0.8749999979474978  0.1249999996774775  0.4011733916681877   F   F   F
  0.8749999988597210  0.3749999996774775  0.4011733916681877   F   F   F
  0.8749999988597210  0.6249999990324397  0.4011733916681877   F   F   F
  0.8749999988597210  0.8749999983874019  0.4011733916681877   F   F   F
  0.5913797325427066  0.5614839774360176  0.5935712102609857   T   T   T
  0.6280702298149574  0.4718787344925773  0.6060486016188531   T   T   T
  0.5317914489950477  0.4095705574741160  0.6116750122630797   T   T   T
  0.4087150626050029  0.4384880524746982  0.5935810728566593   T   T   T
  0.3720363535445660  0.5281120360459123  0.6060459336526446   T   T   T
  0.4683354878861277  0.5904059097682244  0.6116678233831425   T   T   T
  0.7178969192320888  0.4613628829603927  0.6263814539220383   T   T   T
  0.5408083268736489  0.3513210259879808  0.6392647684739834   T   T   T
  0.2822323746270112  0.5386080563903468  0.6263719943884206   T   T   T
  0.4592868458789824  0.6486458899928330  0.6392430604323552   T   T   T
  0.7500411613852340  0.8723909998267019  0.6157127838765373   T   T   T
  0.2499704142265626  0.1275719315901227  0.6156766586807076   T   T   T
 
  0.00000000E+00  0.00000000E+00  0.00000000E+00
  0.00000000E+00  0.00000000E+00  0.00000000E+00
  0.00000000E+00  0.00000000E+00  0.00000000E+00
  0.00000000E+00  0.00000000E+00  0.00000000E+00
  0.00000000E+00  0.00000000E+00  0.00000000E+00
  0.00000000E+00  0.00000000E+00  0.00000000E+00
  0.00000000E+00  0.00000000E+00  0.00000000E+00
  0.00000000E+00  0.00000000E+00  0.00000000E+00
  0.00000000E+00  0.00000000E+00  0.00000000E+00
  0.00000000E+00  0.00000000E+00  0.00000000E+00
  0.00000000E+00  0.00000000E+00  0.00000000E+00
  0.00000000E+00  0.00000000E+00  0.00000000E+00
  0.00000000E+00  0.00000000E+00  0.00000000E+00
  0.00000000E+00  0.00000000E+00  0.00000000E+00
  0.00000000E+00  0.00000000E+00  0.00000000E+00
  0.00000000E+00  0.00000000E+00  0.00000000E+00
  0.00000000E+00  0.00000000E+00  0.00000000E+00
  0.00000000E+00  0.00000000E+00  0.00000000E+00
  0.00000000E+00  0.00000000E+00  0.00000000E+00
  0.00000000E+00  0.00000000E+00  0.00000000E+00
  0.00000000E+00  0.00000000E+00  0.00000000E+00
  0.00000000E+00  0.00000000E+00  0.00000000E+00
  0.00000000E+00  0.00000000E+00  0.00000000E+00
  0.00000000E+00  0.00000000E+00  0.00000000E+00
  0.00000000E+00  0.00000000E+00  0.00000000E+00
  0.00000000E+00  0.00000000E+00  0.00000000E+00
  0.00000000E+00  0.00000000E+00  0.00000000E+00
  0.00000000E+00  0.00000000E+00  0.00000000E+00
  0.00000000E+00  0.00000000E+00  0.00000000E+00
  0.00000000E+00  0.00000000E+00  0.00000000E+00
  0.00000000E+00  0.00000000E+00  0.00000000E+00
  0.00000000E+00  0.00000000E+00  0.00000000E+00
  0.00000000E+00  0.00000000E+00  0.00000000E+00
  0.00000000E+00  0.00000000E+00  0.00000000E+00
  0.00000000E+00  0.00000000E+00  0.00000000E+00
  0.00000000E+00  0.00000000E+00  0.00000000E+00
  0.00000000E+00  0.00000000E+00  0.00000000E+00
  0.00000000E+00  0.00000000E+00  0.00000000E+00
  0.00000000E+00  0.00000000E+00  0.00000000E+00
  0.00000000E+00  0.00000000E+00  0.00000000E+00
  0.00000000E+00  0.00000000E+00  0.00000000E+00
  0.00000000E+00  0.00000000E+00  0.00000000E+00
  0.00000000E+00  0.00000000E+00  0.00000000E+00
  0.00000000E+00  0.00000000E+00  0.00000000E+00
  0.00000000E+00  0.00000000E+00  0.00000000E+00
  0.00000000E+00  0.00000000E+00  0.00000000E+00
  0.00000000E+00  0.00000000E+00  0.00000000E+00
  0.00000000E+00  0.00000000E+00  0.00000000E+00
  0.00000000E+00  0.00000000E+00  0.00000000E+00
  0.00000000E+00  0.00000000E+00  0.00000000E+00
  0.00000000E+00  0.00000000E+00  0.00000000E+00
  0.00000000E+00  0.00000000E+00  0.00000000E+00
  0.00000000E+00  0.00000000E+00  0.00000000E+00
  0.00000000E+00  0.00000000E+00  0.00000000E+00
  0.00000000E+00  0.00000000E+00  0.00000000E+00
  0.00000000E+00  0.00000000E+00  0.00000000E+00
  0.00000000E+00  0.00000000E+00  0.00000000E+00
  0.00000000E+00  0.00000000E+00  0.00000000E+00
  0.00000000E+00  0.00000000E+00  0.00000000E+00
  0.00000000E+00  0.00000000E+00  0.00000000E+00
  0.00000000E+00  0.00000000E+00  0.00000000E+00
  0.00000000E+00  0.00000000E+00  0.00000000E+00
  0.00000000E+00  0.00000000E+00  0.00000000E+00
  0.00000000E+00  0.00000000E+00  0.00000000E+00
  0.00000000E+00  0.00000000E+00  0.00000000E+00
  0.00000000E+00  0.00000000E+00  0.00000000E+00
  0.00000000E+00  0.00000000E+00  0.00000000E+00
  0.00000000E+00  0.00000000E+00  0.00000000E+00
  0.00000000E+00  0.00000000E+00  0.00000000E+00
  0.00000000E+00  0.00000000E+00  0.00000000E+00
  0.00000000E+00  0.00000000E+00  0.00000000E+00
  0.00000000E+00  0.00000000E+00  0.00000000E+00
  0.00000000E+00  0.00000000E+00  0.00000000E+00
  0.00000000E+00  0.00000000E+00  0.00000000E+00
  0.00000000E+00  0.00000000E+00  0.00000000E+00
  0.00000000E+00  0.00000000E+00  0.00000000E+00
