Ag48 C6 Br6                             
    1.000000000000000     
    11.7702790000000004    0.0000000000000000    0.0000000000000000
     0.0000000000000000   11.7702790000000004    0.0000000000000000
     0.0000000000000000    0.0000000000000000   16.8004362799999996
   Ag   C    Br
    48     6     6
Selective dynamics
Direct
  0.0000898854897144  0.2496303841138072  0.4103399580169196   T   T   T
  0.0000001966549377  0.4999999429608550  0.4102669490576076   T   T   T
  0.9999103644735499  0.7503708248712826  0.4103381012733038   T   T   T
  0.0000006239957244  0.9999991649400783  0.4102213853602166   T   T   T
  0.2494709898912078  0.2494774166338374  0.4101837284618313   T   T   T
  0.2483385034726098  0.4999966839699539  0.4096924043126933   T   T   T
  0.2494686039844325  0.7505309172805497  0.4101099642787034   T   T   T
  0.2496256101021288  0.0000863131603381  0.4103412060568274   T   T   T
  0.4999939315006472  0.2483440305241018  0.4097012573966623   T   T   T
  0.4999987616375989  0.5000052449326517  0.4085914812648710   T   T   T
  0.5000052647716018  0.7516583084055171  0.4096909837745173   T   T   T
  0.4999992011646910  0.9999936319492022  0.4102719636115921   T   T   T
  0.7505370889332141  0.2494706290610722  0.4101161267716620   T   T   T
  0.7516622852955237  0.5000086543611673  0.4096927436905915   T   T   T
  0.7505241329019228  0.7505237058273337  0.4101789692481148   T   T   T
  0.7503749033355476  0.9999059292030879  0.4103414711599100   T   T   T
  0.1246812050825170  0.1246813852168174  0.5235198224586171   T   T   T
  0.1243610765690661  0.3747335956898610  0.5233618482879123   T   T   T
  0.1241662746499159  0.6252750703640046  0.5230316483648281   T   T   T
  0.1247337320131336  0.8752655669308069  0.5233108673510785   T   T   T
  0.3747329843366671  0.1243607567984881  0.5233605331878621   T   T   T
  0.3757757018039030  0.3757776805059123  0.5197292082013192   T   T   T
  0.3754372764345320  0.6245622638765624  0.5201241504094014   T   T   T
  0.3747239122156003  0.8758334938211050  0.5230315506267331   T   T   T
  0.6252769419674138  0.1241638690117099  0.5230284200558444   T   T   T
  0.6245645390212147  0.3754404245855767  0.5201225843582691   T   T   T
  0.6242225786386584  0.6242221531113756  0.5197282720773089   T   T   T
  0.6252663849923579  0.8756381065609844  0.5233609837016573   T   T   T
  0.8752670652241221  0.1247339884297958  0.5233110158841257   T   T   T
  0.8758333704386772  0.3747262681301393  0.5230334786578510   T   T   T
  0.8756391141705180  0.6252667911365108  0.5233612750722898   T   T   T
  0.8753194019242585  0.8753183159286735  0.5235193961969244   T   T   T
  0.1249999995752020  0.1249999995752020  0.2976113189365321   F   F   F
  0.1249999995752020  0.3749999987256061  0.2976113189365321   F   F   F
  0.1249999995752020  0.6249999978760030  0.2976113189365321   F   F   F
  0.1249999995752020  0.8749999970264071  0.2976113189365321   F   F   F
  0.3749999987256061  0.1249999995752020  0.2976113189365321   F   F   F
  0.3749999987256061  0.3749999987256061  0.2976113189365321   F   F   F
  0.3749999987256061  0.6249999978760030  0.2976113189365321   F   F   F
  0.3749999987256061  0.8749999970264071  0.2976113189365321   F   F   F
  0.6249999978760030  0.1249999995752020  0.2976113189365321   F   F   F
  0.6249999978760030  0.3749999987256061  0.2976113189365321   F   F   F
  0.6249999978760030  0.6249999978760030  0.2976113189365321   F   F   F
  0.6249999978760030  0.8749999970264071  0.2976113189365321   F   F   F
  0.8749999970264071  0.1249999995752020  0.2976113189365321   F   F   F
  0.8749999970264071  0.3749999987256061  0.2976113189365321   F   F   F
  0.8749999970264071  0.6249999978760030  0.2976113189365321   F   F   F
  0.8749999970264071  0.8749999970264071  0.2976113189365321   F   F   F
  0.3848413090446172  0.5308919866045585  0.7045615872346289   T   T   T
  0.4691590509361703  0.6151616158614530  0.7045583607700436   T   T   T
  0.5842180427757810  0.5842012733351467  0.7043848971928384   T   T   T
  0.6151554486266093  0.4691284034453460  0.7045629289878548   T   T   T
  0.5308568826348079  0.3848343220999624  0.7045600434108579   T   T   T
  0.4157657814089006  0.4157909274726990  0.7043863900158982   T   T   T
  0.2282518612849458  0.5726018233382248  0.7031872420876510   T   T   T
  0.4274641568733344  0.7717711819558914  0.7031775953378983   T   T   T
  0.6990421627613443  0.6989848302659496  0.7015421990724633   T   T   T
  0.7717477996042277  0.4273966361393136  0.7032024334705085   T   T   T
  0.5725314766040910  0.2282363568648833  0.7031683855703861   T   T   T
  0.3009644938236704  0.3010206189647633  0.7015592466997091   T   T   T
 
  0.00000000E+00  0.00000000E+00  0.00000000E+00
  0.00000000E+00  0.00000000E+00  0.00000000E+00
  0.00000000E+00  0.00000000E+00  0.00000000E+00
  0.00000000E+00  0.00000000E+00  0.00000000E+00
  0.00000000E+00  0.00000000E+00  0.00000000E+00
  0.00000000E+00  0.00000000E+00  0.00000000E+00
  0.00000000E+00  0.00000000E+00  0.00000000E+00
  0.00000000E+00  0.00000000E+00  0.00000000E+00
  0.00000000E+00  0.00000000E+00  0.00000000E+00
  0.00000000E+00  0.00000000E+00  0.00000000E+00
  0.00000000E+00  0.00000000E+00  0.00000000E+00
  0.00000000E+00  0.00000000E+00  0.00000000E+00
  0.00000000E+00  0.00000000E+00  0.00000000E+00
  0.00000000E+00  0.00000000E+00  0.00000000E+00
  0.00000000E+00  0.00000000E+00  0.00000000E+00
  0.00000000E+00  0.00000000E+00  0.00000000E+00
  0.00000000E+00  0.00000000E+00  0.00000000E+00
  0.00000000E+00  0.00000000E+00  0.00000000E+00
  0.00000000E+00  0.00000000E+00  0.00000000E+00
  0.00000000E+00  0.00000000E+00  0.00000000E+00
  0.00000000E+00  0.00000000E+00  0.00000000E+00
  0.00000000E+00  0.00000000E+00  0.00000000E+00
  0.00000000E+00  0.00000000E+00  0.00000000E+00
  0.00000000E+00  0.00000000E+00  0.00000000E+00
  0.00000000E+00  0.00000000E+00  0.00000000E+00
  0.00000000E+00  0.00000000E+00  0.00000000E+00
  0.00000000E+00  0.00000000E+00  0.00000000E+00
  0.00000000E+00  0.00000000E+00  0.00000000E+00
  0.00000000E+00  0.00000000E+00  0.00000000E+00
  0.00000000E+00  0.00000000E+00  0.00000000E+00
  0.00000000E+00  0.00000000E+00  0.00000000E+00
  0.00000000E+00  0.00000000E+00  0.00000000E+00
  0.00000000E+00  0.00000000E+00  0.00000000E+00
  0.00000000E+00  0.00000000E+00  0.00000000E+00
  0.00000000E+00  0.00000000E+00  0.00000000E+00
  0.00000000E+00  0.00000000E+00  0.00000000E+00
  0.00000000E+00  0.00000000E+00  0.00000000E+00
  0.00000000E+00  0.00000000E+00  0.00000000E+00
  0.00000000E+00  0.00000000E+00  0.00000000E+00
  0.00000000E+00  0.00000000E+00  0.00000000E+00
  0.00000000E+00  0.00000000E+00  0.00000000E+00
  0.00000000E+00  0.00000000E+00  0.00000000E+00
  0.00000000E+00  0.00000000E+00  0.00000000E+00
  0.00000000E+00  0.00000000E+00  0.00000000E+00
  0.00000000E+00  0.00000000E+00  0.00000000E+00
  0.00000000E+00  0.00000000E+00  0.00000000E+00
  0.00000000E+00  0.00000000E+00  0.00000000E+00
  0.00000000E+00  0.00000000E+00  0.00000000E+00
  0.00000000E+00  0.00000000E+00  0.00000000E+00
  0.00000000E+00  0.00000000E+00  0.00000000E+00
  0.00000000E+00  0.00000000E+00  0.00000000E+00
  0.00000000E+00  0.00000000E+00  0.00000000E+00
  0.00000000E+00  0.00000000E+00  0.00000000E+00
  0.00000000E+00  0.00000000E+00  0.00000000E+00
  0.00000000E+00  0.00000000E+00  0.00000000E+00
  0.00000000E+00  0.00000000E+00  0.00000000E+00
  0.00000000E+00  0.00000000E+00  0.00000000E+00
  0.00000000E+00  0.00000000E+00  0.00000000E+00
  0.00000000E+00  0.00000000E+00  0.00000000E+00
  0.00000000E+00  0.00000000E+00  0.00000000E+00
