Cu  C  H Br                             
    1.000000000000000     
    10.2424774999999997    0.0000000000000000    0.0000000000000000
     0.0000000000000000   10.2424774999999997    0.0000000000000000
     0.0000000000000000    0.0000000000000000   23.4318939600000000
   Cu   C    H    Br
    64     6     4     2
Selective dynamics
Direct
  0.2499999995118358  0.0000000000000000  0.3200765594451340   F   F   F
  0.0000000000000000  0.4999999990236716  0.3200765594451340   F   F   F
  0.2499999995118358  0.2499999995118358  0.3200765594451340   F   F   F
  0.2499999995118358  0.4999999990236716  0.3200765594451340   F   F   F
  0.2499999995118358  0.7499999985355075  0.3200765594451340   F   F   F
  0.4999999990236716  0.0000000000000000  0.3200765594451340   F   F   F
  0.4999999990236716  0.2499999995118358  0.3200765594451340   F   F   F
  0.0000000000000000  0.7499999985355075  0.3200765594451340   F   F   F
  0.4999999990236716  0.4999999990236716  0.3200765594451340   F   F   F
  0.4999999990236716  0.7499999985355075  0.3200765594451340   F   F   F
  0.7499999985355075  0.0000000000000000  0.3200765594451340   F   F   F
  0.7499999985355075  0.2499999995118358  0.3200765594451340   F   F   F
  0.7499999985355075  0.4999999990236716  0.3200765594451340   F   F   F
  0.7499999985355075  0.7499999985355075  0.3200765594451340   F   F   F
  0.0000000000000000  0.0000000000000000  0.3200765594451340   F   F   F
  0.0000000000000000  0.2499999995118358  0.3200765594451340   F   F   F
  0.2497068019488435 -0.0000765766751602  0.4738004284356353   T   T   T
  0.2502748154464195  0.2502785302748025  0.4741100582666948   T   T   T
  0.2511977821458777  0.5002400037445855  0.4744261102638686   T   T   T
  0.2509304120914949  0.7491612699831416  0.4742841962923571   T   T   T
  0.5000467615033488  0.0000019043885378  0.4735938876276878   T   T   T
  0.5002364422459059  0.2511992097764961  0.4744262790758892   T   T   T
  0.5000757199417386  0.5000818008386457  0.4745539539467811   T   T   T
  0.4998635691979836  0.7488647173924853  0.4744597289878068   T   T   T
  0.7503717069821830  0.0001282543566994  0.4738189844255972   T   T   T
  0.7491547314374537  0.2509323347587410  0.4742851872004158   T   T   T
  0.7488648667071013  0.4998720719869486  0.4744596001083060   T   T   T
  0.7497680590578499  0.7497670270033158  0.4741571164035389   T   T   T
  0.0000193854692766  0.0000231216498009  0.4741665991270961   T   T   T
 -0.0000898802888385  0.2497039310104917  0.4738025242454141   T   T   T
 -0.0000032196307582  0.5000541017767608  0.4735968482189692   T   T   T
  0.0001162396280452  0.7503622013192758  0.4738191727816709   T   T   T
  0.1247678660364320  0.1247777799834214  0.5492443413753015   T   T   T
  0.1233065228217033  0.3754006374557479  0.5490334610670788   T   T   T
  0.1244974644918790  0.6250303213045124  0.5490284679602251   T   T   T
  0.1256741918870425  0.8744119615425392  0.5495292224978650   T   T   T
  0.3753941281418531  0.1233075720334454  0.5490341993742053   T   T   T
  0.3744270194533922  0.3744279279571507  0.5500098664991302   T   T   T
  0.3738040120413414  0.6263298284522010  0.5520357873040683   T   T   T
  0.3750830197080491  0.8755986436412614  0.5490406063774169   T   T   T
  0.6250276025734846  0.1245080156624464  0.5490289158536426   T   T   T
  0.6263234092235340  0.3738101388397990  0.5520361184300983   T   T   T
  0.6256810084091019  0.6256845001224455  0.5501669730971720   T   T   T
  0.6247232787894510  0.8767559229852309  0.5491115960605707   T   T   T
  0.8744074298804705  0.1256798875607381  0.5495302886086076   T   T   T
  0.8755929894190033  0.3750866880477305  0.5490405936135351   T   T   T
  0.8767553918921173  0.6247291019372455  0.5491090937950679   T   T   T
  0.8752844652099782  0.8752859689240226  0.5492878456336564   T   T   T
  0.1250000002440785  0.1249999992677573  0.3973486452223582   F   F   F
  0.1250000002440785  0.3749999997559215  0.3973486452223582   F   F   F
  0.1250000002440785  0.6249999982914289  0.3973486452223582   F   F   F
  0.1250000002440785  0.8749999987795931  0.3973486452223582   F   F   F
  0.3749999997559215  0.1249999992677573  0.3973486452223582   F   F   F
  0.3749999997559215  0.3749999997559215  0.3973486452223582   F   F   F
  0.3749999997559215  0.6249999982914289  0.3973486452223582   F   F   F
  0.3749999997559215  0.8749999987795931  0.3973486452223582   F   F   F
  0.6249999982914289  0.1249999992677573  0.3973486452223582   F   F   F
  0.6249999982914289  0.3749999997559215  0.3973486452223582   F   F   F
  0.6249999992677573  0.6249999982914289  0.3973486452223582   F   F   F
  0.6249999992677573  0.8749999987795931  0.3973486452223582   F   F   F
  0.8749999987795931  0.1249999992677573  0.3973486452223582   F   F   F
  0.8749999978032648  0.3749999997559215  0.3973486452223582   F   F   F
  0.8749999987795931  0.6249999982914289  0.3973486452223582   F   F   F
  0.8749999987795931  0.8749999987795931  0.3973486452223582   F   F   F
  0.5968316118538920  0.5968124693633055  0.6418893988001588   T   T   T
  0.6341603259714068  0.4629291434598699  0.6425683931665005   T   T   T
  0.5361494749084935  0.3649007619843403  0.6424572940894587   T   T   T
  0.4022068628697738  0.4022190086195322  0.6416142250853702   T   T   T
  0.3648936082346261  0.5361511420891593  0.6424762913583212   T   T   T
  0.4628973732579053  0.6341925475015410  0.6425811937388864   T   T   T
  0.7353110344365337  0.4369006190407790  0.6515789938505300   T   T   T
  0.5622173468602496  0.2637643287158843  0.6513788896870597   T   T   T
  0.2637088798354723  0.5621918787377601  0.6513904918651833   T   T   T
  0.4368392262270143  0.7352958749959254  0.6515761147722561   T   T   T
  0.7218974477914544  0.7217800166603375  0.6695390141249288   T   T   T
  0.2767878665546190  0.2766495798615526  0.6683134795183182   T   T   T
 
  0.00000000E+00  0.00000000E+00  0.00000000E+00
  0.00000000E+00  0.00000000E+00  0.00000000E+00
  0.00000000E+00  0.00000000E+00  0.00000000E+00
  0.00000000E+00  0.00000000E+00  0.00000000E+00
  0.00000000E+00  0.00000000E+00  0.00000000E+00
  0.00000000E+00  0.00000000E+00  0.00000000E+00
  0.00000000E+00  0.00000000E+00  0.00000000E+00
  0.00000000E+00  0.00000000E+00  0.00000000E+00
  0.00000000E+00  0.00000000E+00  0.00000000E+00
  0.00000000E+00  0.00000000E+00  0.00000000E+00
  0.00000000E+00  0.00000000E+00  0.00000000E+00
  0.00000000E+00  0.00000000E+00  0.00000000E+00
  0.00000000E+00  0.00000000E+00  0.00000000E+00
  0.00000000E+00  0.00000000E+00  0.00000000E+00
  0.00000000E+00  0.00000000E+00  0.00000000E+00
  0.00000000E+00  0.00000000E+00  0.00000000E+00
  0.00000000E+00  0.00000000E+00  0.00000000E+00
  0.00000000E+00  0.00000000E+00  0.00000000E+00
  0.00000000E+00  0.00000000E+00  0.00000000E+00
  0.00000000E+00  0.00000000E+00  0.00000000E+00
  0.00000000E+00  0.00000000E+00  0.00000000E+00
  0.00000000E+00  0.00000000E+00  0.00000000E+00
  0.00000000E+00  0.00000000E+00  0.00000000E+00
  0.00000000E+00  0.00000000E+00  0.00000000E+00
  0.00000000E+00  0.00000000E+00  0.00000000E+00
  0.00000000E+00  0.00000000E+00  0.00000000E+00
  0.00000000E+00  0.00000000E+00  0.00000000E+00
  0.00000000E+00  0.00000000E+00  0.00000000E+00
  0.00000000E+00  0.00000000E+00  0.00000000E+00
  0.00000000E+00  0.00000000E+00  0.00000000E+00
  0.00000000E+00  0.00000000E+00  0.00000000E+00
  0.00000000E+00  0.00000000E+00  0.00000000E+00
  0.00000000E+00  0.00000000E+00  0.00000000E+00
  0.00000000E+00  0.00000000E+00  0.00000000E+00
  0.00000000E+00  0.00000000E+00  0.00000000E+00
  0.00000000E+00  0.00000000E+00  0.00000000E+00
  0.00000000E+00  0.00000000E+00  0.00000000E+00
  0.00000000E+00  0.00000000E+00  0.00000000E+00
  0.00000000E+00  0.00000000E+00  0.00000000E+00
  0.00000000E+00  0.00000000E+00  0.00000000E+00
  0.00000000E+00  0.00000000E+00  0.00000000E+00
  0.00000000E+00  0.00000000E+00  0.00000000E+00
  0.00000000E+00  0.00000000E+00  0.00000000E+00
  0.00000000E+00  0.00000000E+00  0.00000000E+00
  0.00000000E+00  0.00000000E+00  0.00000000E+00
  0.00000000E+00  0.00000000E+00  0.00000000E+00
  0.00000000E+00  0.00000000E+00  0.00000000E+00
  0.00000000E+00  0.00000000E+00  0.00000000E+00
  0.00000000E+00  0.00000000E+00  0.00000000E+00
  0.00000000E+00  0.00000000E+00  0.00000000E+00
  0.00000000E+00  0.00000000E+00  0.00000000E+00
  0.00000000E+00  0.00000000E+00  0.00000000E+00
  0.00000000E+00  0.00000000E+00  0.00000000E+00
  0.00000000E+00  0.00000000E+00  0.00000000E+00
  0.00000000E+00  0.00000000E+00  0.00000000E+00
  0.00000000E+00  0.00000000E+00  0.00000000E+00
  0.00000000E+00  0.00000000E+00  0.00000000E+00
  0.00000000E+00  0.00000000E+00  0.00000000E+00
  0.00000000E+00  0.00000000E+00  0.00000000E+00
  0.00000000E+00  0.00000000E+00  0.00000000E+00
  0.00000000E+00  0.00000000E+00  0.00000000E+00
  0.00000000E+00  0.00000000E+00  0.00000000E+00
  0.00000000E+00  0.00000000E+00  0.00000000E+00
  0.00000000E+00  0.00000000E+00  0.00000000E+00
  0.00000000E+00  0.00000000E+00  0.00000000E+00
  0.00000000E+00  0.00000000E+00  0.00000000E+00
  0.00000000E+00  0.00000000E+00  0.00000000E+00
  0.00000000E+00  0.00000000E+00  0.00000000E+00
  0.00000000E+00  0.00000000E+00  0.00000000E+00
  0.00000000E+00  0.00000000E+00  0.00000000E+00
  0.00000000E+00  0.00000000E+00  0.00000000E+00
  0.00000000E+00  0.00000000E+00  0.00000000E+00
  0.00000000E+00  0.00000000E+00  0.00000000E+00
  0.00000000E+00  0.00000000E+00  0.00000000E+00
  0.00000000E+00  0.00000000E+00  0.00000000E+00
  0.00000000E+00  0.00000000E+00  0.00000000E+00
