Rh  C  H Cl                             
    1.000000000000000     
    10.8856652999999994    0.0000000000000000    0.0000000000000000
     0.0000000000000000   15.3946555000000007    0.0000000000000000
     0.0000000000000000    0.0000000000000000   22.0821244799999974
   Rh   C    H    Cl
    64     6     4     2
Selective dynamics
Direct
  0.2500000004593161  0.2500000003247891  0.3396412336499992   F   F   F
  0.0000000018372788  0.7500000016239383  0.3396412336499992   F   F   F
  0.2500000004593161  0.5000000012991492  0.3396412336499992   F   F   F
  0.2500000004593161  0.7500000016239383  0.3396412336499992   F   F   F
  0.2500000004593161  0.0000000019487274  0.3396412336499992   F   F   F
  0.5000000009186394  0.2500000003247891  0.3396412336499992   F   F   F
  0.5000000009186394  0.5000000012991492  0.3396412336499992   F   F   F
  0.0000000018372788  0.0000000019487274  0.3396412336499992   F   F   F
  0.5000000009186394  0.7500000016239383  0.3396412336499992   F   F   F
  0.5000000009186394  0.0000000019487274  0.3396412336499992   F   F   F
  0.7500000013779555  0.2500000003247891  0.3396412336499992   F   F   F
  0.7500000013779555  0.5000000012991492  0.3396412336499992   F   F   F
  0.7500000013779555  0.7500000016239383  0.3396412336499992   F   F   F
  0.7500000013779555  0.0000000019487274  0.3396412336499992   F   F   F
  0.0000000018372788  0.2500000003247891  0.3396412336499992   F   F   F
  0.0000000018372788  0.5000000012991492  0.3396412336499992   F   F   F
  0.2515791036146197  0.2512597916273495  0.4589432006610419   T   T   T
  0.2497955877867238  0.5004702927419405  0.4572994858292914   T   T   T
  0.2494896602900059  0.7495244610956944  0.4588344621996512   T   T   T
  0.2501867819521669  0.9998725736919403  0.4591688078389477   T   T   T
  0.5007651269385796  0.2512439719914054  0.4586353699458648   T   T   T
  0.4999923443243386  0.4999843166486110  0.4553948496429301   T   T   T
  0.4992678506370519  0.7487436011665558  0.4586158162047692   T   T   T
  0.4999990014289126  0.0000085943148497  0.4591704356448454   T   T   T
  0.7505316790430767  0.2504525424456702  0.4588093038635043   T   T   T
  0.7501821835997453  0.4995638741775842  0.4572645991888901   T   T   T
  0.7484336762234023  0.7487454250984068  0.4589453839393796   T   T   T
  0.7498079686870348  0.0001251517342677  0.4591636913265463   T   T   T
  0.0018043873536319  0.2508319477092384  0.4595235746351630   T   T   T
  0.0000051337440364  0.5000061825778578  0.4587540988254999   T   T   T
  0.9981729082631658  0.7491617585563811  0.4595274599139931   T   T   T
  0.0000071765603021  0.0000099078841230  0.4590364560061979   T   T   T
  0.1256981972147919  0.1253563747723836  0.5150961890405117   T   T   T
  0.1318948123616228  0.3775749450234624  0.5170857165877770   T   T   T
  0.1206304600493869  0.6253381319389952  0.5150749749008837   T   T   T
  0.1244997509889588  0.8744258940034877  0.5150894340154144   T   T   T
  0.3748977922674915  0.1255520050927513  0.5149354794640597   T   T   T
  0.3852567944673786  0.3850816365333606  0.5184905461291232   T   T   T
  0.3671629014088366  0.6240052743144611  0.5166762666860981   T   T   T
  0.3750559569292931  0.8743323140140693  0.5150772744323883   T   T   T
  0.6249444872875949  0.1256747848616868  0.5150759119988865   T   T   T
  0.6328892836066765  0.3759929220543697  0.5166681752483278   T   T   T
  0.6147386002117307  0.6149565015104803  0.5184722072672027   T   T   T
  0.6251051642153417  0.8744384041806254  0.5149401168357258   T   T   T
  0.8755092453818496  0.1255708348219326  0.5151005649939430   T   T   T
  0.8793553864842075  0.3747103412666060  0.5150729138753756   T   T   T
  0.8680596264523280  0.6224309201559023  0.5170885567832004   T   T   T
  0.8743194323810852  0.8746470616285080  0.5150934012913365   T   T   T
  0.1249999997703384  0.1250000001623945  0.4012615800633341   F   F   F
  0.1249999997703384  0.3750000004871836  0.4012615800633341   F   F   F
  0.1250000006889778  0.6250000014615438  0.4012615800633341   F   F   F
  0.1250000006889778  0.8750000017863329  0.4012615800633341   F   F   F
  0.3750000002296616  0.1250000001623945  0.4012615800633341   F   F   F
  0.3750000002296616  0.3750000004871836  0.4012615800633341   F   F   F
  0.3750000011483010  0.6250000014615438  0.4012615800633341   F   F   F
  0.3750000011483010  0.8750000017863329  0.4012615800633341   F   F   F
  0.6250000006889778  0.1250000001623945  0.4012615800633341   F   F   F
  0.6250000006889778  0.3750000004871836  0.4012615800633341   F   F   F
  0.6250000006889778  0.6250000014615438  0.4012615800633341   F   F   F
  0.6250000006889778  0.8750000017863329  0.4012615800633341   F   F   F
  0.8750000011483010  0.1250000001623945  0.4012615800633341   F   F   F
  0.8750000011483010  0.3750000004871836  0.4012615800633341   F   F   F
  0.8750000020669404  0.6250000014615438  0.4012615800633341   F   F   F
  0.8750000011483010  0.8750000017863329  0.4012615800633341   F   F   F
  0.3761317151480494  0.4629039825874075  0.5967969603167604   T   T   T
  0.3938671335543210  0.5588456420163336  0.5992788247491334   T   T   T
  0.5197804705995878  0.5934657607526705  0.6054316785943524   T   T   T
  0.6240692733711899  0.5370629127326011  0.5967724006216700   T   T   T
  0.6063814400548870  0.4411542288155722  0.5992494795607978   T   T   T
  0.4804742785743130  0.4065106787979503  0.6054008571451098   T   T   T
  0.3258584111443129  0.5913177356892064  0.6282184912734839   T   T   T
  0.5294822563571490  0.6543137742841539  0.6303054908529999   T   T   T
  0.6744024859415275  0.4086887792116641  0.6281824925212648   T   T   T
  0.4707715430764918  0.3456920189562090  0.6303130546659542   T   T   T
  0.2263548635903461  0.4294077481421674  0.6251994194529862   T   T   T
  0.7738400300659897  0.5705792540217152  0.6250092153799744   T   T   T
 
  0.00000000E+00  0.00000000E+00  0.00000000E+00
  0.00000000E+00  0.00000000E+00  0.00000000E+00
  0.00000000E+00  0.00000000E+00  0.00000000E+00
  0.00000000E+00  0.00000000E+00  0.00000000E+00
  0.00000000E+00  0.00000000E+00  0.00000000E+00
  0.00000000E+00  0.00000000E+00  0.00000000E+00
  0.00000000E+00  0.00000000E+00  0.00000000E+00
  0.00000000E+00  0.00000000E+00  0.00000000E+00
  0.00000000E+00  0.00000000E+00  0.00000000E+00
  0.00000000E+00  0.00000000E+00  0.00000000E+00
  0.00000000E+00  0.00000000E+00  0.00000000E+00
  0.00000000E+00  0.00000000E+00  0.00000000E+00
  0.00000000E+00  0.00000000E+00  0.00000000E+00
  0.00000000E+00  0.00000000E+00  0.00000000E+00
  0.00000000E+00  0.00000000E+00  0.00000000E+00
  0.00000000E+00  0.00000000E+00  0.00000000E+00
  0.00000000E+00  0.00000000E+00  0.00000000E+00
  0.00000000E+00  0.00000000E+00  0.00000000E+00
  0.00000000E+00  0.00000000E+00  0.00000000E+00
  0.00000000E+00  0.00000000E+00  0.00000000E+00
  0.00000000E+00  0.00000000E+00  0.00000000E+00
  0.00000000E+00  0.00000000E+00  0.00000000E+00
  0.00000000E+00  0.00000000E+00  0.00000000E+00
  0.00000000E+00  0.00000000E+00  0.00000000E+00
  0.00000000E+00  0.00000000E+00  0.00000000E+00
  0.00000000E+00  0.00000000E+00  0.00000000E+00
  0.00000000E+00  0.00000000E+00  0.00000000E+00
  0.00000000E+00  0.00000000E+00  0.00000000E+00
  0.00000000E+00  0.00000000E+00  0.00000000E+00
  0.00000000E+00  0.00000000E+00  0.00000000E+00
  0.00000000E+00  0.00000000E+00  0.00000000E+00
  0.00000000E+00  0.00000000E+00  0.00000000E+00
  0.00000000E+00  0.00000000E+00  0.00000000E+00
  0.00000000E+00  0.00000000E+00  0.00000000E+00
  0.00000000E+00  0.00000000E+00  0.00000000E+00
  0.00000000E+00  0.00000000E+00  0.00000000E+00
  0.00000000E+00  0.00000000E+00  0.00000000E+00
  0.00000000E+00  0.00000000E+00  0.00000000E+00
  0.00000000E+00  0.00000000E+00  0.00000000E+00
  0.00000000E+00  0.00000000E+00  0.00000000E+00
  0.00000000E+00  0.00000000E+00  0.00000000E+00
  0.00000000E+00  0.00000000E+00  0.00000000E+00
  0.00000000E+00  0.00000000E+00  0.00000000E+00
  0.00000000E+00  0.00000000E+00  0.00000000E+00
  0.00000000E+00  0.00000000E+00  0.00000000E+00
  0.00000000E+00  0.00000000E+00  0.00000000E+00
  0.00000000E+00  0.00000000E+00  0.00000000E+00
  0.00000000E+00  0.00000000E+00  0.00000000E+00
  0.00000000E+00  0.00000000E+00  0.00000000E+00
  0.00000000E+00  0.00000000E+00  0.00000000E+00
  0.00000000E+00  0.00000000E+00  0.00000000E+00
  0.00000000E+00  0.00000000E+00  0.00000000E+00
  0.00000000E+00  0.00000000E+00  0.00000000E+00
  0.00000000E+00  0.00000000E+00  0.00000000E+00
  0.00000000E+00  0.00000000E+00  0.00000000E+00
  0.00000000E+00  0.00000000E+00  0.00000000E+00
  0.00000000E+00  0.00000000E+00  0.00000000E+00
  0.00000000E+00  0.00000000E+00  0.00000000E+00
  0.00000000E+00  0.00000000E+00  0.00000000E+00
  0.00000000E+00  0.00000000E+00  0.00000000E+00
  0.00000000E+00  0.00000000E+00  0.00000000E+00
  0.00000000E+00  0.00000000E+00  0.00000000E+00
  0.00000000E+00  0.00000000E+00  0.00000000E+00
  0.00000000E+00  0.00000000E+00  0.00000000E+00
  0.00000000E+00  0.00000000E+00  0.00000000E+00
  0.00000000E+00  0.00000000E+00  0.00000000E+00
  0.00000000E+00  0.00000000E+00  0.00000000E+00
  0.00000000E+00  0.00000000E+00  0.00000000E+00
  0.00000000E+00  0.00000000E+00  0.00000000E+00
  0.00000000E+00  0.00000000E+00  0.00000000E+00
  0.00000000E+00  0.00000000E+00  0.00000000E+00
  0.00000000E+00  0.00000000E+00  0.00000000E+00
  0.00000000E+00  0.00000000E+00  0.00000000E+00
  0.00000000E+00  0.00000000E+00  0.00000000E+00
  0.00000000E+00  0.00000000E+00  0.00000000E+00
  0.00000000E+00  0.00000000E+00  0.00000000E+00
