Ir48 C6 F6                              
    1.000000000000000     
    10.9622135000000007    0.0000000000000000    0.0000000000000000
     0.0000000000000000   10.9622135000000007    0.0000000000000000
     0.0000000000000000    0.0000000000000000   16.7325000400000015
   Ir   C    F 
    48     6     6
Selective dynamics
Direct
  0.0000195824398830  0.2497798466123271  0.4102401577804358   T   T   T
  0.0000000000000000  0.4999999990877768  0.4102455861951455   T   T   T
  0.9999804175601170  0.7502201515632265  0.4102401577804358   T   T   T
  0.0000000000000000  0.0000000000000000  0.4103473307460703   T   T   T
  0.2498444630670349  0.2498425844283290  0.4102378510592573   T   T   T
  0.2499952406122361  0.4999614787469255  0.4099096910248932   T   T   T
  0.2497490163739258  0.7502523473340119  0.4100888890128260   T   T   T
  0.2497815307277378  0.0000195722749723  0.4102392018372996   T   T   T
  0.4999612054613465  0.2499934221057032  0.4099096364317916   T   T   T
  0.4999999990877768  0.4999999990877768  0.4099452750485852   T   T   T
  0.5000387927142071  0.7500065760698504  0.4099096364317916   T   T   T
  0.4999999990877768  0.0000000000000000  0.4102440532717964   T   T   T
  0.7502509818016279  0.2497476508415417  0.4100888890128260   T   T   T
  0.7500047575633175  0.5000385194286281  0.4099096910248932   T   T   T
  0.7501555351085187  0.7501574137472247  0.4102378510592573   T   T   T
  0.7502184674478158  0.9999804277250277  0.4102392018372996   T   T   T
  0.1251077323318484  0.1251064461653542  0.5218241082282589   T   T   T
  0.1248944038360733  0.3751241643529823  0.5217307106297042   T   T   T
  0.1248584752153548  0.6249624677249912  0.5217259923147708   T   T   T
  0.1250555820101482  0.8749452350736462  0.5218068099842625   T   T   T
  0.3751247242869837  0.1248937281969162  0.5217309598863125   T   T   T
  0.3747430981520381  0.3747425295771194  0.5213566649662056   T   T   T
  0.3744294404499939  0.6255706722192258  0.5209145907274575   T   T   T
  0.3750384814336769  0.8751425702487197  0.5217255243763219   T   T   T
  0.6249615176540999  0.1248574288390571  0.5217255243763219   T   T   T
  0.6255705586377829  0.3744293268685510  0.5209145907274575   T   T   T
  0.6252569009357387  0.6252574695106574  0.5213566649662056   T   T   T
  0.6248752748007931  0.8751062708908606  0.5217309598863125   T   T   T
  0.8749444170776286  0.1250547640141306  0.5218068099842625   T   T   T
  0.8751415238724221  0.3750375313627856  0.5217259923147708   T   T   T
  0.8751055952517035  0.6248758347347945  0.5217307106297042   T   T   T
  0.8748922667559285  0.8748935529224227  0.5218241082282589   T   T   T
  0.1250000002280558  0.1250000002280558  0.2988196616194330   F   F   F
  0.1250000002280558  0.3749999997719442  0.2988196616194330   F   F   F
  0.1250000002280558  0.6249999993158326  0.2988196616194330   F   F   F
  0.1250000002280558  0.8749999988597210  0.2988196616194330   F   F   F
  0.3749999997719442  0.1250000002280558  0.2988196616194330   F   F   F
  0.3749999997719442  0.3749999997719442  0.2988196616194330   F   F   F
  0.3749999997719442  0.6249999993158326  0.2988196616194330   F   F   F
  0.3749999997719442  0.8749999988597210  0.2988196616194330   F   F   F
  0.6249999993158326  0.1250000002280558  0.2988196616194330   F   F   F
  0.6249999993158326  0.3749999997719442  0.2988196616194330   F   F   F
  0.6249999993158326  0.6249999993158326  0.2988196616194330   F   F   F
  0.6249999993158326  0.8749999988597210  0.2988196616194330   F   F   F
  0.8749999988597210  0.1250000002280558  0.2988196616194330   F   F   F
  0.8749999988597210  0.3749999997719442  0.2988196616194330   F   F   F
  0.8749999988597210  0.6249999993158326  0.2988196616194330   F   F   F
  0.8749999988597210  0.8749999988597210  0.2988196616194330   F   F   F
  0.3764716152123455  0.5331646954829665  0.7000252779169287   T   T   T
  0.4668421867246551  0.6235300069301957  0.7000254739633078   T   T   T
  0.5904592508400128  0.5904576476210721  0.6996511190394443   T   T   T
  0.6235283546842467  0.4668352899214412  0.7000252779169287   T   T   T
  0.5331578415543063  0.3764700058409503  0.7000254739633078   T   T   T
  0.4095407482477640  0.4095423514667047  0.6996511190394443   T   T   T
  0.2585251828884338  0.5641032663199681  0.7079390669006784   T   T   T
  0.4358945739079729  0.7414799909160621  0.7079387417980314   T   T   T
  0.6764473322735540  0.6764524098254086  0.7103840321634962   T   T   T
  0.7414748161993430  0.4358967327678087  0.7079390669006784   T   T   T
  0.5641054963333119  0.2585200255039837  0.7079387417980314   T   T   T
  0.3235526960054074  0.3235476029457374  0.7103840321634962   T   T   T
 
  0.00000000E+00  0.00000000E+00  0.00000000E+00
  0.00000000E+00  0.00000000E+00  0.00000000E+00
  0.00000000E+00  0.00000000E+00  0.00000000E+00
  0.00000000E+00  0.00000000E+00  0.00000000E+00
  0.00000000E+00  0.00000000E+00  0.00000000E+00
  0.00000000E+00  0.00000000E+00  0.00000000E+00
  0.00000000E+00  0.00000000E+00  0.00000000E+00
  0.00000000E+00  0.00000000E+00  0.00000000E+00
  0.00000000E+00  0.00000000E+00  0.00000000E+00
  0.00000000E+00  0.00000000E+00  0.00000000E+00
  0.00000000E+00  0.00000000E+00  0.00000000E+00
  0.00000000E+00  0.00000000E+00  0.00000000E+00
  0.00000000E+00  0.00000000E+00  0.00000000E+00
  0.00000000E+00  0.00000000E+00  0.00000000E+00
  0.00000000E+00  0.00000000E+00  0.00000000E+00
  0.00000000E+00  0.00000000E+00  0.00000000E+00
  0.00000000E+00  0.00000000E+00  0.00000000E+00
  0.00000000E+00  0.00000000E+00  0.00000000E+00
  0.00000000E+00  0.00000000E+00  0.00000000E+00
  0.00000000E+00  0.00000000E+00  0.00000000E+00
  0.00000000E+00  0.00000000E+00  0.00000000E+00
  0.00000000E+00  0.00000000E+00  0.00000000E+00
  0.00000000E+00  0.00000000E+00  0.00000000E+00
  0.00000000E+00  0.00000000E+00  0.00000000E+00
  0.00000000E+00  0.00000000E+00  0.00000000E+00
  0.00000000E+00  0.00000000E+00  0.00000000E+00
  0.00000000E+00  0.00000000E+00  0.00000000E+00
  0.00000000E+00  0.00000000E+00  0.00000000E+00
  0.00000000E+00  0.00000000E+00  0.00000000E+00
  0.00000000E+00  0.00000000E+00  0.00000000E+00
  0.00000000E+00  0.00000000E+00  0.00000000E+00
  0.00000000E+00  0.00000000E+00  0.00000000E+00
  0.00000000E+00  0.00000000E+00  0.00000000E+00
  0.00000000E+00  0.00000000E+00  0.00000000E+00
  0.00000000E+00  0.00000000E+00  0.00000000E+00
  0.00000000E+00  0.00000000E+00  0.00000000E+00
  0.00000000E+00  0.00000000E+00  0.00000000E+00
  0.00000000E+00  0.00000000E+00  0.00000000E+00
  0.00000000E+00  0.00000000E+00  0.00000000E+00
  0.00000000E+00  0.00000000E+00  0.00000000E+00
  0.00000000E+00  0.00000000E+00  0.00000000E+00
  0.00000000E+00  0.00000000E+00  0.00000000E+00
  0.00000000E+00  0.00000000E+00  0.00000000E+00
  0.00000000E+00  0.00000000E+00  0.00000000E+00
  0.00000000E+00  0.00000000E+00  0.00000000E+00
  0.00000000E+00  0.00000000E+00  0.00000000E+00
  0.00000000E+00  0.00000000E+00  0.00000000E+00
  0.00000000E+00  0.00000000E+00  0.00000000E+00
  0.00000000E+00  0.00000000E+00  0.00000000E+00
  0.00000000E+00  0.00000000E+00  0.00000000E+00
  0.00000000E+00  0.00000000E+00  0.00000000E+00
  0.00000000E+00  0.00000000E+00  0.00000000E+00
  0.00000000E+00  0.00000000E+00  0.00000000E+00
  0.00000000E+00  0.00000000E+00  0.00000000E+00
  0.00000000E+00  0.00000000E+00  0.00000000E+00
  0.00000000E+00  0.00000000E+00  0.00000000E+00
  0.00000000E+00  0.00000000E+00  0.00000000E+00
  0.00000000E+00  0.00000000E+00  0.00000000E+00
  0.00000000E+00  0.00000000E+00  0.00000000E+00
  0.00000000E+00  0.00000000E+00  0.00000000E+00
