Pd  C  F                                
   1.00000000000000     
    11.1922750000000004    0.0000000000000000    0.0000000000000000
    -5.5961369999999997    9.6927939999999992    0.0000000000000000
     0.0000000000000000    0.0000000000000000   24.8538405000000040
   Pd   C    F 
    64     6     6
Selective dynamics
Direct
  0.9999999513476965  0.0000000206338839  0.3017642283493345   F   F   F
  0.2499999873901899  0.2500000051584692  0.3017642283493345   F   F   F
  0.2499999828216346  0.5000000103169455  0.3017642283493345   F   F   F
  0.2499999773596073  0.7500000154754147  0.3017642283493345   F   F   F
  0.2499999727910591  0.0000000206338839  0.3017642283493345   F   F   F
  0.4999999802424000  0.2500000051584692  0.3017642283493345   F   F   F
  0.4999999756738518  0.5000000103169455  0.3017642283493345   F   F   F
  0.4999999702118245  0.7500000154754147  0.3017642283493345   F   F   F
  0.7499999730946101  0.2500000051584692  0.3017642283493345   F   F   F
  0.7499999685260619  0.5000000103169455  0.3017642283493345   F   F   F
  0.7499999630640346  0.7500000154754147  0.3017642283493345   F   F   F
  0.7499999584954864  0.0000000206338839  0.3017642283493345   F   F   F
  0.9999999659468273  0.2500000051584692  0.3017642283493345   F   F   F
  0.9999999613782720  0.5000000103169455  0.3017642283493345   F   F   F
  0.9999999559162518  0.7500000154754147  0.3017642283493345   F   F   F
  0.4999999656432692  0.0000000206338839  0.3017642283493345   F   F   F
  0.0833330000000032  0.1666669999999968  0.3936861790032040   F   F   F
  0.0833330000000032  0.4166669999999968  0.3936861790032040   F   F   F
  0.0833330000000032  0.6666669999999968  0.3936861790032040   F   F   F
  0.0833330000000032  0.9166669999999968  0.3936861790032040   F   F   F
  0.3333330000000032  0.1666669999999968  0.3936861790032040   F   F   F
  0.3333330000000032  0.4166669999999968  0.3936861790032040   F   F   F
  0.3333330000000032  0.6666669999999968  0.3936861790032040   F   F   F
  0.3333330000000032  0.9166669999999968  0.3936861790032040   F   F   F
  0.5833330000000032  0.1666669999999968  0.3936861790032040   F   F   F
  0.5833330000000032  0.4166669999999968  0.3936861790032040   F   F   F
  0.5833330000000032  0.6666669999999968  0.3936861790032040   F   F   F
  0.5833330000000032  0.9166669999999968  0.3936861790032040   F   F   F
  0.8333330000000032  0.1666669999999968  0.3936861790032040   F   F   F
  0.8333330000000032  0.4166669999999968  0.3936861790032040   F   F   F
  0.8333330000000032  0.6666669999999968  0.3936861790032040   F   F   F
  0.8333330000000032  0.9166669999999968  0.3936861790032040   F   F   F
  0.2497642624463351  0.9996895715032847  0.5760744309056047   T   T   T
  0.2500212492854706  0.2500098881532204  0.5745840962091177   T   T   T
  0.2497771954674716  0.5000767761304015  0.5760742937100146   T   T   T
  0.2501202203666752  0.7500367620262701  0.5761031509035714   T   T   T
  0.4999702886542935 -0.0000298825298409  0.5760646495884818   T   T   T
  0.5000785007832718  0.2496623138428492  0.5749815753717967   T   T   T
  0.5000755592786192  0.5004193521805286  0.5749703720022351   T   T   T
  0.4999544066887956  0.7499895456756969  0.5760609907191678   T   T   T
  0.7500251469767043  0.0000108927296803  0.5760931170912669   T   T   T
  0.7501520414312809  0.2499209706875803  0.5760546089054608   T   T   T
  0.7502378843927289  0.5001267204366595  0.5746149422044835   T   T   T
  0.7501629008291767  0.7502358184115276  0.5760477814474552   T   T   T
 -0.0001005389416628 -0.0000779329455311  0.5761645620207515   T   T   T
 -0.0000984171541436  0.2499664065729996  0.5761708033648525   T   T   T
  0.0001357785064481  0.5000834884152323  0.5761416167735907   T   T   T
  0.0001158023894280  0.7500338054492612  0.5761405900753521   T   T   T
  0.1663640485702980  0.0827536550184631  0.4839104521467805   T   T   T
  0.1663458461983636  0.3336060264523803  0.4839265155624850   T   T   T
  0.1667772904835083  0.5836455792917827  0.4841226705914067   T   T   T
  0.1667874517312033  0.8331415524084561  0.4841162212423411   T   T   T
  0.4164214386983410  0.0828478420000481  0.4840104206316296   T   T   T
  0.4168665790764335  0.3334259971525846  0.4837440820844236   T   T   T
  0.4164132105516737  0.5835693753582359  0.4840027728890040   T   T   T
  0.4167482373864914  0.8333764930648748  0.4841260232958921   T   T   T
  0.6666502239618235  0.0831067484808435  0.4841159509040521   T   T   T
  0.6668024178549338  0.3328951835736779  0.4838249751295716   T   T   T
  0.6668008883710088  0.5839006734071430  0.4838235386219696   T   T   T
  0.6666548828315378  0.8335553474603914  0.4841180594471477   T   T   T
  0.9167712294428416  0.0833896742905646  0.4841444713734006   T   T   T
  0.9166737811432187  0.3335422931313972  0.4841112022249085   T   T   T
  0.9172453566483842  0.5836201754677844  0.4838904309098304   T   T   T
  0.9166804370569336  0.8331439155479961  0.4840918564683444   T   T   T
  0.5720935445605368  0.3029194756487916  0.6990186256639216   T   T   T
  0.4278817413339727  0.2308020236129401  0.6990111754993946   T   T   T
  0.3559281064806894  0.3029562786066860  0.6993957253778791   T   T   T
  0.4278643668894353  0.4470675753261882  0.6990077742147354   T   T   T
  0.5720892046058250  0.5191844156434037  0.6990211855568943   T   T   T
  0.6440286298748983  0.4470223416228478  0.6993979886309269   T   T   T
  0.6416366334931920  0.2336241328034170  0.7003509583374437   T   T   T
  0.3583857045724226  0.0919700880983249  0.7003576185923706   T   T   T
  0.2169771256358123  0.2335058902493142  0.7012854619656637   T   T   T
  0.3583380104658234  0.5163701969063913  0.7003532227175133   T   T   T
  0.6415876256102697  0.6580149728120160  0.7003526871408471   T   T   T
  0.7829894201656702  0.5164797360139348  0.7012963231315494   T   T   T
 
  0.00000000E+00  0.00000000E+00  0.00000000E+00
  0.00000000E+00  0.00000000E+00  0.00000000E+00
  0.00000000E+00  0.00000000E+00  0.00000000E+00
  0.00000000E+00  0.00000000E+00  0.00000000E+00
  0.00000000E+00  0.00000000E+00  0.00000000E+00
  0.00000000E+00  0.00000000E+00  0.00000000E+00
  0.00000000E+00  0.00000000E+00  0.00000000E+00
  0.00000000E+00  0.00000000E+00  0.00000000E+00
  0.00000000E+00  0.00000000E+00  0.00000000E+00
  0.00000000E+00  0.00000000E+00  0.00000000E+00
  0.00000000E+00  0.00000000E+00  0.00000000E+00
  0.00000000E+00  0.00000000E+00  0.00000000E+00
  0.00000000E+00  0.00000000E+00  0.00000000E+00
  0.00000000E+00  0.00000000E+00  0.00000000E+00
  0.00000000E+00  0.00000000E+00  0.00000000E+00
  0.00000000E+00  0.00000000E+00  0.00000000E+00
  0.00000000E+00  0.00000000E+00  0.00000000E+00
  0.00000000E+00  0.00000000E+00  0.00000000E+00
  0.00000000E+00  0.00000000E+00  0.00000000E+00
  0.00000000E+00  0.00000000E+00  0.00000000E+00
  0.00000000E+00  0.00000000E+00  0.00000000E+00
  0.00000000E+00  0.00000000E+00  0.00000000E+00
  0.00000000E+00  0.00000000E+00  0.00000000E+00
  0.00000000E+00  0.00000000E+00  0.00000000E+00
  0.00000000E+00  0.00000000E+00  0.00000000E+00
  0.00000000E+00  0.00000000E+00  0.00000000E+00
  0.00000000E+00  0.00000000E+00  0.00000000E+00
  0.00000000E+00  0.00000000E+00  0.00000000E+00
  0.00000000E+00  0.00000000E+00  0.00000000E+00
  0.00000000E+00  0.00000000E+00  0.00000000E+00
  0.00000000E+00  0.00000000E+00  0.00000000E+00
  0.00000000E+00  0.00000000E+00  0.00000000E+00
  0.00000000E+00  0.00000000E+00  0.00000000E+00
  0.00000000E+00  0.00000000E+00  0.00000000E+00
  0.00000000E+00  0.00000000E+00  0.00000000E+00
  0.00000000E+00  0.00000000E+00  0.00000000E+00
  0.00000000E+00  0.00000000E+00  0.00000000E+00
  0.00000000E+00  0.00000000E+00  0.00000000E+00
  0.00000000E+00  0.00000000E+00  0.00000000E+00
  0.00000000E+00  0.00000000E+00  0.00000000E+00
  0.00000000E+00  0.00000000E+00  0.00000000E+00
  0.00000000E+00  0.00000000E+00  0.00000000E+00
  0.00000000E+00  0.00000000E+00  0.00000000E+00
  0.00000000E+00  0.00000000E+00  0.00000000E+00
  0.00000000E+00  0.00000000E+00  0.00000000E+00
  0.00000000E+00  0.00000000E+00  0.00000000E+00
  0.00000000E+00  0.00000000E+00  0.00000000E+00
  0.00000000E+00  0.00000000E+00  0.00000000E+00
  0.00000000E+00  0.00000000E+00  0.00000000E+00
  0.00000000E+00  0.00000000E+00  0.00000000E+00
  0.00000000E+00  0.00000000E+00  0.00000000E+00
  0.00000000E+00  0.00000000E+00  0.00000000E+00
  0.00000000E+00  0.00000000E+00  0.00000000E+00
  0.00000000E+00  0.00000000E+00  0.00000000E+00
  0.00000000E+00  0.00000000E+00  0.00000000E+00
  0.00000000E+00  0.00000000E+00  0.00000000E+00
  0.00000000E+00  0.00000000E+00  0.00000000E+00
  0.00000000E+00  0.00000000E+00  0.00000000E+00
  0.00000000E+00  0.00000000E+00  0.00000000E+00
  0.00000000E+00  0.00000000E+00  0.00000000E+00
  0.00000000E+00  0.00000000E+00  0.00000000E+00
  0.00000000E+00  0.00000000E+00  0.00000000E+00
  0.00000000E+00  0.00000000E+00  0.00000000E+00
  0.00000000E+00  0.00000000E+00  0.00000000E+00
  0.00000000E+00  0.00000000E+00  0.00000000E+00
  0.00000000E+00  0.00000000E+00  0.00000000E+00
  0.00000000E+00  0.00000000E+00  0.00000000E+00
  0.00000000E+00  0.00000000E+00  0.00000000E+00
  0.00000000E+00  0.00000000E+00  0.00000000E+00
  0.00000000E+00  0.00000000E+00  0.00000000E+00
  0.00000000E+00  0.00000000E+00  0.00000000E+00
  0.00000000E+00  0.00000000E+00  0.00000000E+00
  0.00000000E+00  0.00000000E+00  0.00000000E+00
  0.00000000E+00  0.00000000E+00  0.00000000E+00
  0.00000000E+00  0.00000000E+00  0.00000000E+00
  0.00000000E+00  0.00000000E+00  0.00000000E+00
