Ir48 C4 Br4 N2                          
    1.000000000000000     
    10.9622130000000002    0.0000000000000000    0.0000000000000000
    -5.4811069999999997    9.4935550000000006    0.0000000000000000
     0.0000000000000000    0.0000000000000000   16.4753049999999988
   Ir   C    Br   N 
    48     4     4     2
Selective dynamics
Direct
  0.0833330000000032  0.1666669999999968  0.3641810000000021   F   F   F
  0.0833330000000032  0.4166669999999968  0.3641810000000021   F   F   F
  0.0833330000000032  0.6666669999999968  0.3641810000000021   F   F   F
  0.0833330000000032  0.9166669999999968  0.3641810000000021   F   F   F
  0.3333330000000032  0.1666669999999968  0.3641810000000021   F   F   F
  0.3333330000000032  0.4166669999999968  0.3641810000000021   F   F   F
  0.3333330000000032  0.6666669999999968  0.3641810000000021   F   F   F
  0.3333330000000032  0.9166669999999968  0.3641810000000021   F   F   F
  0.5833330000000032  0.1666669999999968  0.3641810000000021   F   F   F
  0.5833330000000032  0.4166669999999968  0.3641810000000021   F   F   F
  0.5833330000000032  0.6666669999999968  0.3641810000000021   F   F   F
  0.5833330000000032  0.9166669999999968  0.3641810000000021   F   F   F
  0.8333330000000032  0.1666669999999968  0.3641810000000021   F   F   F
  0.8333330000000032  0.4166669999999968  0.3641810000000021   F   F   F
  0.8333330000000032  0.6666669999999968  0.3641810000000021   F   F   F
  0.8333330000000032  0.9166669999999968  0.3641810000000021   F   F   F
  0.9959978513136036  0.9951104855853998  0.6275537600367755   T   T   T
  0.9939546679597200  0.2474727739266669  0.6322858648128644   T   T   T
  0.0011452047993643  0.5005120425872605  0.6294141320826014   T   T   T
  0.0006065420045971  0.7493791556835134  0.6277104743648536   T   T   T
  0.2469543235988141  0.9936236621107426  0.6322547343554632   T   T   T
  0.2446094089096107  0.2438862409510207  0.6359662624254483   T   T   T
  0.2498055163159449  0.5002018121959750  0.6349068834826923   T   T   T
  0.2494553344181796  0.7488312151720677  0.6294142805580520   T   T   T
  0.5018235135028206  0.0013505954141095  0.6296786668895678   T   T   T
  0.4997013644080965  0.2503088520510488  0.6350299371651360   T   T   T
  0.5061480913139249  0.5054220214963223  0.6359527688924942   T   T   T
  0.5025081797825024  0.7560381791918402  0.6322753445969269   T   T   T
  0.7493510569503670  0.0006292548773388  0.6281507787418263   T   T   T
  0.7486164073376358  0.2481350424757878  0.6296825971516853   T   T   T
  0.7563781779890562  0.5030310073684490  0.6322512193197625   T   T   T
  0.7548952322091012  0.7540048676056372  0.6275538572520460   T   T   T
  0.1682955121800518  0.0857112631021764  0.4967823890915994   T   T   T
  0.1678135538797676  0.3335610295939944  0.4977702732423950   T   T   T
  0.1690607174417096  0.5809134906790376  0.4983442761121282   T   T   T
  0.1686901248506274  0.8340132983772079  0.4961412970225183   T   T   T
  0.4163333674855210  0.0854151935136684  0.4991919199995536   T   T   T
  0.4158701595050545  0.3341288351260872  0.4971363582996489   T   T   T
  0.4164275360336589  0.5821707555090825  0.4977644387399920   T   T   T
  0.4172911013689031  0.8327957303432427  0.4980398183425976   T   T   T
  0.6660846110730247  0.0838957206918849  0.4958689548352382   T   T   T
  0.6645815521179017  0.3336550250891364  0.4991907304189311   T   T   T
  0.6642859106809382  0.5816984761959745  0.4967787868991920   T   T   T
  0.6655818518882199  0.8322760991137770  0.4967048895444748   T   T   T
  0.9177134817984225  0.0844120114636766  0.4967087609819245   T   T   T
  0.9171890467051753  0.3326863694368001  0.4980426635787580   T   T   T
  0.9159810968527609  0.5812977442306462  0.4961402798861627   T   T   T
  0.9170363370567571  0.8329589523309266  0.4947856726955138   T   T   T
  0.5183946549884553  0.4416948778809484  0.7546904526850398   T   T   T
  0.4421939049739549  0.5178597176909889  0.7550476777463331   T   T   T
  0.2322836580614194  0.3079391581249169  0.7550480120774239   T   T   T
  0.3084132259032799  0.2317373751265279  0.7546917036732879   T   T   T
  0.2257265670989952  0.0292145661201602  0.7885450230939028   T   T   T
  0.0300559689984894  0.2239598609310463  0.7881867596959751   T   T   T
  0.7208855079378509  0.5243443520855848  0.7885554225821636   T   T   T
  0.5261676722433464  0.7200534239993601  0.7881901923515997   T   T   T
  0.2953398128307256  0.4547500248149277  0.7580356087879494   T   T   T
  0.4554556023224379  0.2946549574827486  0.7582582855205118   T   T   T
 
  0.00000000E+00  0.00000000E+00  0.00000000E+00
  0.00000000E+00  0.00000000E+00  0.00000000E+00
  0.00000000E+00  0.00000000E+00  0.00000000E+00
  0.00000000E+00  0.00000000E+00  0.00000000E+00
  0.00000000E+00  0.00000000E+00  0.00000000E+00
  0.00000000E+00  0.00000000E+00  0.00000000E+00
  0.00000000E+00  0.00000000E+00  0.00000000E+00
  0.00000000E+00  0.00000000E+00  0.00000000E+00
  0.00000000E+00  0.00000000E+00  0.00000000E+00
  0.00000000E+00  0.00000000E+00  0.00000000E+00
  0.00000000E+00  0.00000000E+00  0.00000000E+00
  0.00000000E+00  0.00000000E+00  0.00000000E+00
  0.00000000E+00  0.00000000E+00  0.00000000E+00
  0.00000000E+00  0.00000000E+00  0.00000000E+00
  0.00000000E+00  0.00000000E+00  0.00000000E+00
  0.00000000E+00  0.00000000E+00  0.00000000E+00
  0.00000000E+00  0.00000000E+00  0.00000000E+00
  0.00000000E+00  0.00000000E+00  0.00000000E+00
  0.00000000E+00  0.00000000E+00  0.00000000E+00
  0.00000000E+00  0.00000000E+00  0.00000000E+00
  0.00000000E+00  0.00000000E+00  0.00000000E+00
  0.00000000E+00  0.00000000E+00  0.00000000E+00
  0.00000000E+00  0.00000000E+00  0.00000000E+00
  0.00000000E+00  0.00000000E+00  0.00000000E+00
  0.00000000E+00  0.00000000E+00  0.00000000E+00
  0.00000000E+00  0.00000000E+00  0.00000000E+00
  0.00000000E+00  0.00000000E+00  0.00000000E+00
  0.00000000E+00  0.00000000E+00  0.00000000E+00
  0.00000000E+00  0.00000000E+00  0.00000000E+00
  0.00000000E+00  0.00000000E+00  0.00000000E+00
  0.00000000E+00  0.00000000E+00  0.00000000E+00
  0.00000000E+00  0.00000000E+00  0.00000000E+00
  0.00000000E+00  0.00000000E+00  0.00000000E+00
  0.00000000E+00  0.00000000E+00  0.00000000E+00
  0.00000000E+00  0.00000000E+00  0.00000000E+00
  0.00000000E+00  0.00000000E+00  0.00000000E+00
  0.00000000E+00  0.00000000E+00  0.00000000E+00
  0.00000000E+00  0.00000000E+00  0.00000000E+00
  0.00000000E+00  0.00000000E+00  0.00000000E+00
  0.00000000E+00  0.00000000E+00  0.00000000E+00
  0.00000000E+00  0.00000000E+00  0.00000000E+00
  0.00000000E+00  0.00000000E+00  0.00000000E+00
  0.00000000E+00  0.00000000E+00  0.00000000E+00
  0.00000000E+00  0.00000000E+00  0.00000000E+00
  0.00000000E+00  0.00000000E+00  0.00000000E+00
  0.00000000E+00  0.00000000E+00  0.00000000E+00
  0.00000000E+00  0.00000000E+00  0.00000000E+00
  0.00000000E+00  0.00000000E+00  0.00000000E+00
  0.00000000E+00  0.00000000E+00  0.00000000E+00
  0.00000000E+00  0.00000000E+00  0.00000000E+00
  0.00000000E+00  0.00000000E+00  0.00000000E+00
  0.00000000E+00  0.00000000E+00  0.00000000E+00
  0.00000000E+00  0.00000000E+00  0.00000000E+00
  0.00000000E+00  0.00000000E+00  0.00000000E+00
  0.00000000E+00  0.00000000E+00  0.00000000E+00
  0.00000000E+00  0.00000000E+00  0.00000000E+00
  0.00000000E+00  0.00000000E+00  0.00000000E+00
  0.00000000E+00  0.00000000E+00  0.00000000E+00
