Pd  C  H  F                             
   1.00000000000000     
    11.1922750000000004    0.0000000000000000    0.0000000000000000
    -5.5961369999999997    9.6927939999999992    0.0000000000000000
     0.0000000000000000    0.0000000000000000   24.8538405000000040
   Pd   C    H    F 
    64     6     2     4
Selective dynamics
Direct
  0.9999999513476965  0.0000000206338839  0.3017642283493345   F   F   F
  0.2499999873901899  0.2500000051584692  0.3017642283493345   F   F   F
  0.2499999828216346  0.5000000103169455  0.3017642283493345   F   F   F
  0.2499999773596073  0.7500000154754147  0.3017642283493345   F   F   F
  0.2499999727910591  0.0000000206338839  0.3017642283493345   F   F   F
  0.4999999802424000  0.2500000051584692  0.3017642283493345   F   F   F
  0.4999999756738518  0.5000000103169455  0.3017642283493345   F   F   F
  0.4999999702118245  0.7500000154754147  0.3017642283493345   F   F   F
  0.7499999730946101  0.2500000051584692  0.3017642283493345   F   F   F
  0.7499999685260619  0.5000000103169455  0.3017642283493345   F   F   F
  0.7499999630640346  0.7500000154754147  0.3017642283493345   F   F   F
  0.7499999584954864  0.0000000206338839  0.3017642283493345   F   F   F
  0.9999999659468273  0.2500000051584692  0.3017642283493345   F   F   F
  0.9999999613782720  0.5000000103169455  0.3017642283493345   F   F   F
  0.9999999559162518  0.7500000154754147  0.3017642283493345   F   F   F
  0.4999999656432692  0.0000000206338839  0.3017642283493345   F   F   F
  0.0833330000000032  0.1666669999999968  0.3936861790032040   F   F   F
  0.0833330000000032  0.4166669999999968  0.3936861790032040   F   F   F
  0.0833330000000032  0.6666669999999968  0.3936861790032040   F   F   F
  0.0833330000000032  0.9166669999999968  0.3936861790032040   F   F   F
  0.3333330000000032  0.1666669999999968  0.3936861790032040   F   F   F
  0.3333330000000032  0.4166669999999968  0.3936861790032040   F   F   F
  0.3333330000000032  0.6666669999999968  0.3936861790032040   F   F   F
  0.3333330000000032  0.9166669999999968  0.3936861790032040   F   F   F
  0.5833330000000032  0.1666669999999968  0.3936861790032040   F   F   F
  0.5833330000000032  0.4166669999999968  0.3936861790032040   F   F   F
  0.5833330000000032  0.6666669999999968  0.3936861790032040   F   F   F
  0.5833330000000032  0.9166669999999968  0.3936861790032040   F   F   F
  0.8333330000000032  0.1666669999999968  0.3936861790032040   F   F   F
  0.8333330000000032  0.4166669999999968  0.3936861790032040   F   F   F
  0.8333330000000032  0.6666669999999968  0.3936861790032040   F   F   F
  0.8333330000000032  0.9166669999999968  0.3936861790032040   F   F   F
  0.2461413656382504  0.9933891609599673  0.5735247907980681   T   T   T
  0.2555187109824065  0.2526981724694109  0.5808494039232013   T   T   T
  0.2460784996405304  0.5025071789904979  0.5734925340304076   T   T   T
  0.2486990160767975  0.7492912544373852  0.5752256007355474   T   T   T
  0.5003334639626327  0.9958697074811628  0.5746658221580980   T   T   T
  0.5017456132430643  0.2409819382498867  0.5802452124815690   T   T   T
  0.5017950898348768  0.5107667698495238  0.5801926500960015   T   T   T
  0.5002979785388428  0.7542775481909919  0.5746297479335952   T   T   T
  0.7520105281369672  0.0009585863432666  0.5753120395313769   T   T   T
  0.7555581997648558  0.2484848701208868  0.5738329890592025   T   T   T
  0.7482897268584648  0.4991221077227330  0.5819769461168559   T   T   T
  0.7555982427693670  0.7571058724340873  0.5738057552806326   T   T   T
  0.0021181094990537  0.0013718292581784  0.5754502858991404   T   T   T
  0.0020613861852722  0.2506202446017234  0.5754510264825071   T   T   T
  0.9992666117205389  0.4999327811376330  0.5756537067871064   T   T   T
  0.9993086682837206  0.7492370871917281  0.5756609890691591   T   T   T
  0.1687043609443875  0.0863530120613648  0.4847906586676078   T   T   T
  0.1686525808327585  0.3321702865741171  0.4847499319859944   T   T   T
  0.1652660754455542  0.5826445287944685  0.4831179253624941   T   T   T
  0.1652225308900348  0.8325374359072660  0.4831200003783501   T   T   T
  0.4179343608574131  0.0854083901868587  0.4844681041262915   T   T   T
  0.4185446085530908  0.3342424932273562  0.4855818605974890   T   T   T
  0.4179390767974345  0.5825035571684886  0.4844031760114579   T   T   T
  0.4153770713146318  0.8326971246866742  0.4830507625960953   T   T   T
  0.6668512281822270  0.0829352345236227  0.4832142697845725   T   T   T
  0.6654321170668858  0.3329114820647526  0.4854369103072331   T   T   T
  0.6654125450112472  0.5825463507819233  0.4854228353494041   T   T   T
  0.6667653187497303  0.8337927091771169  0.4832213357775955   T   T   T
  0.9176256196065040  0.0837370170385083  0.4837336538542664   T   T   T
  0.9179103261649232  0.3332160824753176  0.4832460397651791   T   T   T
  0.9117314702315042  0.5808836046075617  0.4856626172796615   T   T   T
  0.9179373436201497  0.8345497279186219  0.4832411341726241   T   T   T
  0.3441626158002202  0.2973318641551838  0.6592205592852232   T   T   T
  0.4252863244793993  0.4476003097000208  0.6615770412894740   T   T   T
  0.5736111052304348  0.5217310973719325  0.6617015575955268   T   T   T
  0.6547791086576675  0.4525900615994560  0.6594677061317255   T   T   T
  0.5735170809537719  0.3022822869409109  0.6616985349662853   T   T   T
  0.4252050350057908  0.2281275888104717  0.6615722255415799   T   T   T
  0.2494185894268146  0.2500100786548668  0.6834146711461868   T   T   T
  0.7492691668084193  0.4998261134286122  0.6838015564225765   T   T   T
  0.3618564452661087  0.5111539703848106  0.6853123354563192   T   T   T
  0.6369152975128267  0.6485682039022755  0.6856064857920491   T   T   T
  0.6367580230882751  0.2388070116820337  0.6856721336685101   T   T   T
  0.3617224719728477  0.1012267682670236  0.6853659485289806   T   T   T
 
  0.00000000E+00  0.00000000E+00  0.00000000E+00
  0.00000000E+00  0.00000000E+00  0.00000000E+00
  0.00000000E+00  0.00000000E+00  0.00000000E+00
  0.00000000E+00  0.00000000E+00  0.00000000E+00
  0.00000000E+00  0.00000000E+00  0.00000000E+00
  0.00000000E+00  0.00000000E+00  0.00000000E+00
  0.00000000E+00  0.00000000E+00  0.00000000E+00
  0.00000000E+00  0.00000000E+00  0.00000000E+00
  0.00000000E+00  0.00000000E+00  0.00000000E+00
  0.00000000E+00  0.00000000E+00  0.00000000E+00
  0.00000000E+00  0.00000000E+00  0.00000000E+00
  0.00000000E+00  0.00000000E+00  0.00000000E+00
  0.00000000E+00  0.00000000E+00  0.00000000E+00
  0.00000000E+00  0.00000000E+00  0.00000000E+00
  0.00000000E+00  0.00000000E+00  0.00000000E+00
  0.00000000E+00  0.00000000E+00  0.00000000E+00
  0.00000000E+00  0.00000000E+00  0.00000000E+00
  0.00000000E+00  0.00000000E+00  0.00000000E+00
  0.00000000E+00  0.00000000E+00  0.00000000E+00
  0.00000000E+00  0.00000000E+00  0.00000000E+00
  0.00000000E+00  0.00000000E+00  0.00000000E+00
  0.00000000E+00  0.00000000E+00  0.00000000E+00
  0.00000000E+00  0.00000000E+00  0.00000000E+00
  0.00000000E+00  0.00000000E+00  0.00000000E+00
  0.00000000E+00  0.00000000E+00  0.00000000E+00
  0.00000000E+00  0.00000000E+00  0.00000000E+00
  0.00000000E+00  0.00000000E+00  0.00000000E+00
  0.00000000E+00  0.00000000E+00  0.00000000E+00
  0.00000000E+00  0.00000000E+00  0.00000000E+00
  0.00000000E+00  0.00000000E+00  0.00000000E+00
  0.00000000E+00  0.00000000E+00  0.00000000E+00
  0.00000000E+00  0.00000000E+00  0.00000000E+00
  0.00000000E+00  0.00000000E+00  0.00000000E+00
  0.00000000E+00  0.00000000E+00  0.00000000E+00
  0.00000000E+00  0.00000000E+00  0.00000000E+00
  0.00000000E+00  0.00000000E+00  0.00000000E+00
  0.00000000E+00  0.00000000E+00  0.00000000E+00
  0.00000000E+00  0.00000000E+00  0.00000000E+00
  0.00000000E+00  0.00000000E+00  0.00000000E+00
  0.00000000E+00  0.00000000E+00  0.00000000E+00
  0.00000000E+00  0.00000000E+00  0.00000000E+00
  0.00000000E+00  0.00000000E+00  0.00000000E+00
  0.00000000E+00  0.00000000E+00  0.00000000E+00
  0.00000000E+00  0.00000000E+00  0.00000000E+00
  0.00000000E+00  0.00000000E+00  0.00000000E+00
  0.00000000E+00  0.00000000E+00  0.00000000E+00
  0.00000000E+00  0.00000000E+00  0.00000000E+00
  0.00000000E+00  0.00000000E+00  0.00000000E+00
  0.00000000E+00  0.00000000E+00  0.00000000E+00
  0.00000000E+00  0.00000000E+00  0.00000000E+00
  0.00000000E+00  0.00000000E+00  0.00000000E+00
  0.00000000E+00  0.00000000E+00  0.00000000E+00
  0.00000000E+00  0.00000000E+00  0.00000000E+00
  0.00000000E+00  0.00000000E+00  0.00000000E+00
  0.00000000E+00  0.00000000E+00  0.00000000E+00
  0.00000000E+00  0.00000000E+00  0.00000000E+00
  0.00000000E+00  0.00000000E+00  0.00000000E+00
  0.00000000E+00  0.00000000E+00  0.00000000E+00
  0.00000000E+00  0.00000000E+00  0.00000000E+00
  0.00000000E+00  0.00000000E+00  0.00000000E+00
  0.00000000E+00  0.00000000E+00  0.00000000E+00
  0.00000000E+00  0.00000000E+00  0.00000000E+00
  0.00000000E+00  0.00000000E+00  0.00000000E+00
  0.00000000E+00  0.00000000E+00  0.00000000E+00
  0.00000000E+00  0.00000000E+00  0.00000000E+00
  0.00000000E+00  0.00000000E+00  0.00000000E+00
  0.00000000E+00  0.00000000E+00  0.00000000E+00
  0.00000000E+00  0.00000000E+00  0.00000000E+00
  0.00000000E+00  0.00000000E+00  0.00000000E+00
  0.00000000E+00  0.00000000E+00  0.00000000E+00
  0.00000000E+00  0.00000000E+00  0.00000000E+00
  0.00000000E+00  0.00000000E+00  0.00000000E+00
  0.00000000E+00  0.00000000E+00  0.00000000E+00
  0.00000000E+00  0.00000000E+00  0.00000000E+00
  0.00000000E+00  0.00000000E+00  0.00000000E+00
  0.00000000E+00  0.00000000E+00  0.00000000E+00
