Ir  C  N Br                             
    1.000000000000000     
    10.9622135000000007    0.0000000000000000    0.0000000000000000
     0.0000000000000000   15.5029109999999992    0.0000000000000000
     0.0000000000000000    0.0000000000000000   22.1108300437499992
   Ir   C    N    Br
    64     4     2     4
Selective dynamics
Direct
  0.2499999995438884  0.0000000000000000  0.3392002916742598   F   F   F
  0.9999999981755536  0.4999999993549622  0.3392002916742598   F   F   F
  0.2499999995438884  0.2499999993549622  0.3392002916742598   F   F   F
  0.2499999995438884  0.4999999993549622  0.3392002916742598   F   F   F
  0.2499999995438884  0.7499999987099173  0.3392002916742598   F   F   F
  0.4999999990877768  0.0000000000000000  0.3392002916742598   F   F   F
  0.4999999990877768  0.2499999993549622  0.3392002916742598   F   F   F
  0.4999999990877768  0.4999999993549622  0.3392002916742598   F   F   F
  0.4999999990877768  0.7499999987099173  0.3392002916742598   F   F   F
  0.7499999986316652  0.0000000000000000  0.3392002916742598   F   F   F
  0.7499999986316652  0.2499999993549622  0.3392002916742598   F   F   F
  0.7499999986316652  0.4999999993549622  0.3392002916742598   F   F   F
  0.0000000000000000  0.0000000000000000  0.3392002916742598   F   F   F
  0.9999999981755536  0.2499999993549622  0.3392002916742598   F   F   F
  0.9999999981755536  0.7499999987099173  0.3392002916742598   F   F   F
  0.7499999986316652  0.7499999987099173  0.3392002916742598   F   F   F
  0.2503050994976549  0.0001675287963384  0.4619137711659680   T   T   T
  0.2503514579868187  0.2508687926055262  0.4633733681764118   T   T   T
  0.2506039783133574  0.5001453307123729  0.4622469687599067   T   T   T
  0.2500738127073860  0.7493912678740425  0.4619230317947349   T   T   T
  0.4999867903144253 -0.0000027352692167  0.4626537767383366   T   T   T
  0.5006969094860377  0.2493064180042759  0.4615701772517866   T   T   T
  0.4999987654236359  0.5000088824129397  0.4612547784342783   T   T   T
  0.4992190119875453  0.7507897558085590  0.4615773739763267   T   T   T
  0.7497198307506077 -0.0001388130492603  0.4619090036361624   T   T   T
  0.7499462353690090  0.2505879496366514  0.4618845360399446   T   T   T
  0.7493395357984297  0.4998642209478417  0.4621448949999604   T   T   T
  0.7495543289062392  0.7491836522566105  0.4633404787695620   T   T   T
  0.0000165666877650  0.0000187262666340  0.4627500797913132   T   T   T
 -0.0001666025571207  0.2494557351168039  0.4626614922563178   T   T   T
  0.0000543236027311  0.4999880446791179  0.4638489802225524   T   T   T
  0.0001229771906769  0.7505500448910885  0.4627143111717905   T   T   T
  0.1268185267631757  0.1252666520864215  0.5198226384374086   T   T   T
  0.1245403513390691  0.3756171465393757  0.5206725041788469   T   T   T
  0.1237130389927354  0.6250113751629653  0.5203193342962078   T   T   T
  0.1235149594664840  0.8750142176563296  0.5219782253069467   T   T   T
  0.3724412105656070  0.1250492928819847  0.5198075329722728   T   T   T
  0.3751721185028825  0.3727546404560767  0.5210940716821524   T   T   T
  0.3728918183029675  0.6255556236680130  0.5227832871966034   T   T   T
  0.3767598001272197  0.8749260652669103  0.5216166531492072   T   T   T
  0.6231352199514580  0.1251742446553359  0.5215426595107084   T   T   T
  0.6271714597137562  0.3743390120030353  0.5226465438273568   T   T   T
  0.6248212489660007  0.6273818178668266  0.5209837516180910   T   T   T
  0.6274827783913575  0.8749820073247971  0.5198000361999956   T   T   T
  0.8766507211584144  0.1250432245364905  0.5219485037134624   T   T   T
  0.8763430193098278  0.3750257335930699  0.5203547154560286   T   T   T
  0.8754188141267395  0.6243355592691650  0.5206738012462204   T   T   T
  0.8731702922203551  0.8748025767843978  0.5197986926339465   T   T   T
  0.1249999993158326  0.1249999996774775  0.4011733916681877   F   F   F
  0.1249999993158326  0.3749999996774775  0.4011733916681877   F   F   F
  0.1250000002280558  0.6249999990324397  0.4011733916681877   F   F   F
  0.1250000002280558  0.8749999983874019  0.4011733916681877   F   F   F
  0.3749999988597210  0.1249999996774775  0.4011733916681877   F   F   F
  0.3749999997719442  0.3749999996774775  0.4011733916681877   F   F   F
  0.3749999997719442  0.6249999990324397  0.4011733916681877   F   F   F
  0.3749999997719442  0.8749999983874019  0.4011733916681877   F   F   F
  0.6249999993158326  0.1249999996774775  0.4011733916681877   F   F   F
  0.6249999984036094  0.3749999996774775  0.4011733916681877   F   F   F
  0.6249999993158326  0.6249999990324397  0.4011733916681877   F   F   F
  0.6249999993158326  0.8749999983874019  0.4011733916681877   F   F   F
  0.8749999979474978  0.1249999996774775  0.4011733916681877   F   F   F
  0.8749999988597210  0.3749999996774775  0.4011733916681877   F   F   F
  0.8749999988597210  0.6249999990324397  0.4011733916681877   F   F   F
  0.8749999988597210  0.8749999983874019  0.4011733916681877   F   F   F
  0.5639130852103340  0.4241516981870633  0.5993256641358763   T   T   T
  0.6215844825754260  0.5024098193671038  0.6168819209105414   T   T   T
  0.4369571512521818  0.5764504829216530  0.5995936435350993   T   T   T
  0.3793090037193122  0.4980444748484524  0.6171986480068467   T   T   T
  0.5629103682614400  0.5774131739385111  0.6033513901892433   T   T   T
  0.4378718173611960  0.4231233577792218  0.6033719563693677   T   T   T
  0.2104307714636523  0.4912449827568912  0.6358490063633405   T   T   T
  0.2513644623029262  0.8788094624465643  0.6159809497206181   T   T   T
  0.7486671839887582  0.1213248820794513  0.6156650680732046   T   T   T
  0.7914743405135559  0.5091674007532541  0.6341514123898138   T   T   T
 
  0.00000000E+00  0.00000000E+00  0.00000000E+00
  0.00000000E+00  0.00000000E+00  0.00000000E+00
  0.00000000E+00  0.00000000E+00  0.00000000E+00
  0.00000000E+00  0.00000000E+00  0.00000000E+00
  0.00000000E+00  0.00000000E+00  0.00000000E+00
  0.00000000E+00  0.00000000E+00  0.00000000E+00
  0.00000000E+00  0.00000000E+00  0.00000000E+00
  0.00000000E+00  0.00000000E+00  0.00000000E+00
  0.00000000E+00  0.00000000E+00  0.00000000E+00
  0.00000000E+00  0.00000000E+00  0.00000000E+00
  0.00000000E+00  0.00000000E+00  0.00000000E+00
  0.00000000E+00  0.00000000E+00  0.00000000E+00
  0.00000000E+00  0.00000000E+00  0.00000000E+00
  0.00000000E+00  0.00000000E+00  0.00000000E+00
  0.00000000E+00  0.00000000E+00  0.00000000E+00
  0.00000000E+00  0.00000000E+00  0.00000000E+00
  0.00000000E+00  0.00000000E+00  0.00000000E+00
  0.00000000E+00  0.00000000E+00  0.00000000E+00
  0.00000000E+00  0.00000000E+00  0.00000000E+00
  0.00000000E+00  0.00000000E+00  0.00000000E+00
  0.00000000E+00  0.00000000E+00  0.00000000E+00
  0.00000000E+00  0.00000000E+00  0.00000000E+00
  0.00000000E+00  0.00000000E+00  0.00000000E+00
  0.00000000E+00  0.00000000E+00  0.00000000E+00
  0.00000000E+00  0.00000000E+00  0.00000000E+00
  0.00000000E+00  0.00000000E+00  0.00000000E+00
  0.00000000E+00  0.00000000E+00  0.00000000E+00
  0.00000000E+00  0.00000000E+00  0.00000000E+00
  0.00000000E+00  0.00000000E+00  0.00000000E+00
  0.00000000E+00  0.00000000E+00  0.00000000E+00
  0.00000000E+00  0.00000000E+00  0.00000000E+00
  0.00000000E+00  0.00000000E+00  0.00000000E+00
  0.00000000E+00  0.00000000E+00  0.00000000E+00
  0.00000000E+00  0.00000000E+00  0.00000000E+00
  0.00000000E+00  0.00000000E+00  0.00000000E+00
  0.00000000E+00  0.00000000E+00  0.00000000E+00
  0.00000000E+00  0.00000000E+00  0.00000000E+00
  0.00000000E+00  0.00000000E+00  0.00000000E+00
  0.00000000E+00  0.00000000E+00  0.00000000E+00
  0.00000000E+00  0.00000000E+00  0.00000000E+00
  0.00000000E+00  0.00000000E+00  0.00000000E+00
  0.00000000E+00  0.00000000E+00  0.00000000E+00
  0.00000000E+00  0.00000000E+00  0.00000000E+00
  0.00000000E+00  0.00000000E+00  0.00000000E+00
  0.00000000E+00  0.00000000E+00  0.00000000E+00
  0.00000000E+00  0.00000000E+00  0.00000000E+00
  0.00000000E+00  0.00000000E+00  0.00000000E+00
  0.00000000E+00  0.00000000E+00  0.00000000E+00
  0.00000000E+00  0.00000000E+00  0.00000000E+00
  0.00000000E+00  0.00000000E+00  0.00000000E+00
  0.00000000E+00  0.00000000E+00  0.00000000E+00
  0.00000000E+00  0.00000000E+00  0.00000000E+00
  0.00000000E+00  0.00000000E+00  0.00000000E+00
  0.00000000E+00  0.00000000E+00  0.00000000E+00
  0.00000000E+00  0.00000000E+00  0.00000000E+00
  0.00000000E+00  0.00000000E+00  0.00000000E+00
  0.00000000E+00  0.00000000E+00  0.00000000E+00
  0.00000000E+00  0.00000000E+00  0.00000000E+00
  0.00000000E+00  0.00000000E+00  0.00000000E+00
  0.00000000E+00  0.00000000E+00  0.00000000E+00
  0.00000000E+00  0.00000000E+00  0.00000000E+00
  0.00000000E+00  0.00000000E+00  0.00000000E+00
  0.00000000E+00  0.00000000E+00  0.00000000E+00
  0.00000000E+00  0.00000000E+00  0.00000000E+00
  0.00000000E+00  0.00000000E+00  0.00000000E+00
  0.00000000E+00  0.00000000E+00  0.00000000E+00
  0.00000000E+00  0.00000000E+00  0.00000000E+00
  0.00000000E+00  0.00000000E+00  0.00000000E+00
  0.00000000E+00  0.00000000E+00  0.00000000E+00
  0.00000000E+00  0.00000000E+00  0.00000000E+00
  0.00000000E+00  0.00000000E+00  0.00000000E+00
  0.00000000E+00  0.00000000E+00  0.00000000E+00
  0.00000000E+00  0.00000000E+00  0.00000000E+00
  0.00000000E+00  0.00000000E+00  0.00000000E+00
