H4 Pd48 C6 F2                           
    1.000000000000000     
    11.1922750000000004    0.0000000000000000    0.0000000000000000
    -5.5961369999999997    9.6927939999999992    0.0000000000000000
     0.0000000000000000    0.0000000000000000   16.5765810000000009
   H    Pd   C    F 
     4    48     6     2
Selective dynamics
Direct
  0.3680928516165949  0.4997739022882826  0.7819626158185571   T   T   T
  0.6275930862399193  0.6294273777404840  0.7829496427898945   T   T   T
  0.6275900781624273  0.2484007026425985  0.7830237816309094   T   T   T
  0.3680762941616322  0.1185680130785585  0.7820302293233041   T   T   T
  0.0833330000000032  0.1666669999999968  0.3619559999999993   F   F   F
  0.0833330000000032  0.4166669999999968  0.3619559999999993   F   F   F
  0.0833330000000032  0.6666669999999968  0.3619559999999993   F   F   F
  0.0833330000000032  0.9166669999999968  0.3619559999999993   F   F   F
  0.3333330000000032  0.1666669999999968  0.3619559999999993   F   F   F
  0.3333330000000032  0.4166669999999968  0.3619559999999993   F   F   F
  0.3333330000000032  0.6666669999999968  0.3619559999999993   F   F   F
  0.3333330000000032  0.9166669999999968  0.3619559999999993   F   F   F
  0.5833330000000032  0.1666669999999968  0.3619559999999993   F   F   F
  0.5833330000000032  0.4166669999999968  0.3619559999999993   F   F   F
  0.5833330000000032  0.6666669999999968  0.3619559999999993   F   F   F
  0.5833330000000032  0.9166669999999968  0.3619559999999993   F   F   F
  0.8333330000000032  0.1666669999999968  0.3619559999999993   F   F   F
  0.8333330000000032  0.4166669999999968  0.3619559999999993   F   F   F
  0.8333330000000032  0.6666669999999968  0.3619559999999993   F   F   F
  0.8333330000000032  0.9166669999999968  0.3619559999999993   F   F   F
  0.2465828821213876  0.9943004189389058  0.6322171097921441   T   T   T
  0.2570367254233616  0.2535870168658647  0.6432491030535559   T   T   T
  0.2465836359579257  0.5024093090722133  0.6321791187220427   T   T   T
  0.2478952499184359  0.7490041323016641  0.6341451594913039   T   T   T
  0.5000864693234277  0.9953687859697311  0.6331720558351819   T   T   T
  0.5015786280606633  0.2402325053936707  0.6381407315333476   T   T   T
  0.5015878142958670  0.5114745857586271  0.6381057919186972   T   T   T
  0.5000830982867441  0.7548423873784884  0.6331532441373966   T   T   T
  0.7525131426532425  0.0013248131951045  0.6344309417372358   T   T   T
  0.7544634795527969  0.2482659998734533  0.6327327671640433   T   T   T
  0.7451040052232045  0.4976093494928620  0.6448060699635150   T   T   T
  0.7544649688371194  0.7563138364301949  0.6327294275169848   T   T   T
  0.0023726179661452  0.0019332305239601  0.6345391157200382   T   T   T
  0.0023778350676338  0.2505784876477435  0.6345309511563713   T   T   T
  0.9978782341266239  0.4992414880633191  0.6346609200387618   T   T   T
  0.9978833071302233  0.7487556247960327  0.6346645791820293   T   T   T
  0.1682864701558344  0.0864748932009505  0.4997451685963767   T   T   T
  0.1682912773867855  0.3318773023201587  0.4997450598074167   T   T   T
  0.1647588044361825  0.5824105373625557  0.4974596247959795   T   T   T
  0.1647669087427204  0.8324305255944395  0.4974644368299934   T   T   T
  0.4168241076037020  0.0842025830058120  0.4983251443858165   T   T   T
  0.4173790910228874  0.3337203987184978  0.5000716278249371   T   T   T
  0.4168306055506292  0.5826946429019060  0.4983154560263827   T   T   T
  0.4150801516136369  0.8325788603313740  0.4969627410899236   T   T   T
  0.6666541499580347  0.0830222385781951  0.4975547855720279   T   T   T
  0.6660893220851278  0.3337326880495013  0.5001356054841253   T   T   T
  0.6660924774243995  0.5824328878691531  0.5001276561814834   T   T   T
  0.6666573590302036  0.8337025432603937  0.4975485424614661   T   T   T
  0.9171628347263407  0.0836118547381020  0.4979711209784625   T   T   T
  0.9172541998221675  0.3329069792274666  0.4976173843359462   T   T   T
  0.9117336542797645  0.5809057600391228  0.5009938709038835   T   T   T
  0.9172675489444018  0.8344233491111552  0.4976145388850171   T   T   T
  0.3456543999368762  0.2979000437761243  0.7589481411026853   T   T   T
  0.4242492358699792  0.4490294439716749  0.7604629036681985   T   T   T
  0.5720890605947346  0.5228397365098516  0.7610409115332217   T   T   T
  0.6509207468392901  0.4506020958010453  0.7597141125195535   T   T   T
  0.5720548398801739  0.2994486031589645  0.7610762730709695   T   T   T
  0.4241807473878652  0.2254357304361818  0.7604933002221230   T   T   T
  0.2340713027958898  0.2421879508788436  0.8120049017488427   T   T   T
  0.7610723174999308  0.5056721322112736  0.8139595281046397   T   T   T
 
  0.00000000E+00  0.00000000E+00  0.00000000E+00
  0.00000000E+00  0.00000000E+00  0.00000000E+00
  0.00000000E+00  0.00000000E+00  0.00000000E+00
  0.00000000E+00  0.00000000E+00  0.00000000E+00
  0.00000000E+00  0.00000000E+00  0.00000000E+00
  0.00000000E+00  0.00000000E+00  0.00000000E+00
  0.00000000E+00  0.00000000E+00  0.00000000E+00
  0.00000000E+00  0.00000000E+00  0.00000000E+00
  0.00000000E+00  0.00000000E+00  0.00000000E+00
  0.00000000E+00  0.00000000E+00  0.00000000E+00
  0.00000000E+00  0.00000000E+00  0.00000000E+00
  0.00000000E+00  0.00000000E+00  0.00000000E+00
  0.00000000E+00  0.00000000E+00  0.00000000E+00
  0.00000000E+00  0.00000000E+00  0.00000000E+00
  0.00000000E+00  0.00000000E+00  0.00000000E+00
  0.00000000E+00  0.00000000E+00  0.00000000E+00
  0.00000000E+00  0.00000000E+00  0.00000000E+00
  0.00000000E+00  0.00000000E+00  0.00000000E+00
  0.00000000E+00  0.00000000E+00  0.00000000E+00
  0.00000000E+00  0.00000000E+00  0.00000000E+00
  0.00000000E+00  0.00000000E+00  0.00000000E+00
  0.00000000E+00  0.00000000E+00  0.00000000E+00
  0.00000000E+00  0.00000000E+00  0.00000000E+00
  0.00000000E+00  0.00000000E+00  0.00000000E+00
  0.00000000E+00  0.00000000E+00  0.00000000E+00
  0.00000000E+00  0.00000000E+00  0.00000000E+00
  0.00000000E+00  0.00000000E+00  0.00000000E+00
  0.00000000E+00  0.00000000E+00  0.00000000E+00
  0.00000000E+00  0.00000000E+00  0.00000000E+00
  0.00000000E+00  0.00000000E+00  0.00000000E+00
  0.00000000E+00  0.00000000E+00  0.00000000E+00
  0.00000000E+00  0.00000000E+00  0.00000000E+00
  0.00000000E+00  0.00000000E+00  0.00000000E+00
  0.00000000E+00  0.00000000E+00  0.00000000E+00
  0.00000000E+00  0.00000000E+00  0.00000000E+00
  0.00000000E+00  0.00000000E+00  0.00000000E+00
  0.00000000E+00  0.00000000E+00  0.00000000E+00
  0.00000000E+00  0.00000000E+00  0.00000000E+00
  0.00000000E+00  0.00000000E+00  0.00000000E+00
  0.00000000E+00  0.00000000E+00  0.00000000E+00
  0.00000000E+00  0.00000000E+00  0.00000000E+00
  0.00000000E+00  0.00000000E+00  0.00000000E+00
  0.00000000E+00  0.00000000E+00  0.00000000E+00
  0.00000000E+00  0.00000000E+00  0.00000000E+00
  0.00000000E+00  0.00000000E+00  0.00000000E+00
  0.00000000E+00  0.00000000E+00  0.00000000E+00
  0.00000000E+00  0.00000000E+00  0.00000000E+00
  0.00000000E+00  0.00000000E+00  0.00000000E+00
  0.00000000E+00  0.00000000E+00  0.00000000E+00
  0.00000000E+00  0.00000000E+00  0.00000000E+00
  0.00000000E+00  0.00000000E+00  0.00000000E+00
  0.00000000E+00  0.00000000E+00  0.00000000E+00
  0.00000000E+00  0.00000000E+00  0.00000000E+00
  0.00000000E+00  0.00000000E+00  0.00000000E+00
  0.00000000E+00  0.00000000E+00  0.00000000E+00
  0.00000000E+00  0.00000000E+00  0.00000000E+00
  0.00000000E+00  0.00000000E+00  0.00000000E+00
  0.00000000E+00  0.00000000E+00  0.00000000E+00
  0.00000000E+00  0.00000000E+00  0.00000000E+00
  0.00000000E+00  0.00000000E+00  0.00000000E+00
