Pt48 C6 Br6                             
    1.000000000000000     
    11.2480068000000006    0.0000000000000000    0.0000000000000000
     0.0000000000000000   11.2480068000000006    0.0000000000000000
     0.0000000000000000    0.0000000000000000   16.9150790899999990
   Pt   C    Br
    48     6     6
Selective dynamics
Direct
  0.2500571454077800  0.9998307861715574  0.4118095029723321   T   T   T
  0.2496103665891880  0.2496038959915126  0.4113513757991072   T   T   T
  0.2486583763566941  0.5000886893218350  0.4110640481256524   T   T   T
  0.2495963392591563  0.7504126462277796  0.4116621577393573   T   T   T
  0.5000057210052091  0.0000056105063706  0.4117738996822240   T   T   T
  0.5000978923896326  0.2486418854609482  0.4110726908312969   T   T   T
  0.5000010711565110  0.5000054441564075  0.4096785030246579   T   T   T
  0.4999107272000245  0.7513437829094372  0.4110778419198624   T   T   T
  0.7499401348692771  0.0001749468044210  0.4118228616383348   T   T   T
  0.7504089044155933  0.2495835583990598  0.4116717356712982   T   T   T
  0.7513422408900396  0.4999033254059242  0.4110636670385759   T   T   T
  0.7503852222585223  0.7504018533580421  0.4113573708643585   T   T   T
  0.9999952850322700  0.0000009020321485  0.4116662699994293   T   T   T
  0.9998250819500356  0.2500537365998738  0.4118088830929452   T   T   T
  0.0000005880279446  0.4999894117773849  0.4117509473009520   T   T   T
  0.0001670058753263  0.7499549306464885  0.4117997963184479   T   T   T
  0.1252519999070714  0.1252603767784990  0.5277606663285965   T   T   T
  0.1253232410066190  0.3744999047693227  0.5278087859056910   T   T   T
  0.1244398633236514  0.6253158717717895  0.5287056511828823   T   T   T
  0.1246241033453757  0.8753767902407006  0.5278045267408942   T   T   T
  0.3744979782573523  0.1253237212696945  0.5277985425791840   T   T   T
  0.3756255896993039  0.3756289946538018  0.5257198072747116   T   T   T
  0.3755692019308157  0.6244400281151385  0.5248832117412547   T   T   T
  0.3746772093072508  0.8755572396703712  0.5287112321829213   T   T   T
  0.6253304517125713  0.1244351801144035  0.5287537986217572   T   T   T
  0.6244457749143280  0.3755656682485764  0.5249296724339985   T   T   T
  0.6243714169135330  0.6243760818181912  0.5256839800954793   T   T   T
  0.6254993083855283  0.8746609484443724  0.5278124210018689   T   T   T
  0.8753798233658969  0.1246284682596155  0.5277897368160467   T   T   T
  0.8755717577456750  0.3746717411086422  0.5287247037281446   T   T   T
  0.8746668673075959  0.6254950978534808  0.5277764766343012   T   T   T
  0.8747391005890393  0.8747455915111431  0.5277581906672353   T   T   T
  0.1250000008890453  0.1250000000000000  0.2955942430654019   F   F   F
  0.1250000008890453  0.3750000008890453  0.2955942430654019   F   F   F
  0.1250000008890453  0.6250000026671358  0.2955942430654019   F   F   F
  0.1250000008890453  0.8750000026671358  0.2955942430654019   F   F   F
  0.3750000017780906  0.1250000000000000  0.2955942430654019   F   F   F
  0.3750000017780906  0.3750000008890453  0.2955942430654019   F   F   F
  0.3750000017780906  0.6250000026671358  0.2955942430654019   F   F   F
  0.3750000017780906  0.8750000026671358  0.2955942430654019   F   F   F
  0.6250000026671358  0.1250000000000000  0.2955942430654019   F   F   F
  0.6250000026671358  0.3750000008890453  0.2955942430654019   F   F   F
  0.6250000026671358  0.6250000026671358  0.2955942430654019   F   F   F
  0.6250000026671358  0.8750000026671358  0.2955942430654019   F   F   F
  0.8750000035561882  0.1250000000000000  0.2955942430654019   F   F   F
  0.8750000026671358  0.3750000008890453  0.2955942430654019   F   F   F
  0.8750000035561882  0.6250000026671358  0.2955942430654019   F   F   F
  0.8750000035561882  0.8750000026671358  0.2955942430654019   F   F   F
  0.6208662465988013  0.4676118214711167  0.7143974871419587   T   T   T
  0.5322813539755771  0.3791302199791176  0.7144018263303593   T   T   T
  0.4113684088010530  0.4114008113570762  0.7148066265776407   T   T   T
  0.3791081374970204  0.5323188241357499  0.7144025935188694   T   T   T
  0.4676413748549777  0.6208710646249358  0.7144016549937717   T   T   T
  0.5885780114574644  0.5885586668511849  0.7147983455182256   T   T   T
  0.7832273543282042  0.4241558656413957  0.7126694863416247   T   T   T
  0.5757668357631474  0.2167942757066328  0.7126749257199734   T   T   T
  0.2925388535066133  0.2925962604313952  0.7159022626587728   T   T   T
  0.2167989718136880  0.5758544079115353  0.7126709752127738   T   T   T
  0.4242116190735103  0.7832767389739388  0.7126804112453087   T   T   T
  0.7075343547624939  0.7074963552100186  0.7158698690208141   T   T   T
 
  0.00000000E+00  0.00000000E+00  0.00000000E+00
  0.00000000E+00  0.00000000E+00  0.00000000E+00
  0.00000000E+00  0.00000000E+00  0.00000000E+00
  0.00000000E+00  0.00000000E+00  0.00000000E+00
  0.00000000E+00  0.00000000E+00  0.00000000E+00
  0.00000000E+00  0.00000000E+00  0.00000000E+00
  0.00000000E+00  0.00000000E+00  0.00000000E+00
  0.00000000E+00  0.00000000E+00  0.00000000E+00
  0.00000000E+00  0.00000000E+00  0.00000000E+00
  0.00000000E+00  0.00000000E+00  0.00000000E+00
  0.00000000E+00  0.00000000E+00  0.00000000E+00
  0.00000000E+00  0.00000000E+00  0.00000000E+00
  0.00000000E+00  0.00000000E+00  0.00000000E+00
  0.00000000E+00  0.00000000E+00  0.00000000E+00
  0.00000000E+00  0.00000000E+00  0.00000000E+00
  0.00000000E+00  0.00000000E+00  0.00000000E+00
  0.00000000E+00  0.00000000E+00  0.00000000E+00
  0.00000000E+00  0.00000000E+00  0.00000000E+00
  0.00000000E+00  0.00000000E+00  0.00000000E+00
  0.00000000E+00  0.00000000E+00  0.00000000E+00
  0.00000000E+00  0.00000000E+00  0.00000000E+00
  0.00000000E+00  0.00000000E+00  0.00000000E+00
  0.00000000E+00  0.00000000E+00  0.00000000E+00
  0.00000000E+00  0.00000000E+00  0.00000000E+00
  0.00000000E+00  0.00000000E+00  0.00000000E+00
  0.00000000E+00  0.00000000E+00  0.00000000E+00
  0.00000000E+00  0.00000000E+00  0.00000000E+00
  0.00000000E+00  0.00000000E+00  0.00000000E+00
  0.00000000E+00  0.00000000E+00  0.00000000E+00
  0.00000000E+00  0.00000000E+00  0.00000000E+00
  0.00000000E+00  0.00000000E+00  0.00000000E+00
  0.00000000E+00  0.00000000E+00  0.00000000E+00
  0.00000000E+00  0.00000000E+00  0.00000000E+00
  0.00000000E+00  0.00000000E+00  0.00000000E+00
  0.00000000E+00  0.00000000E+00  0.00000000E+00
  0.00000000E+00  0.00000000E+00  0.00000000E+00
  0.00000000E+00  0.00000000E+00  0.00000000E+00
  0.00000000E+00  0.00000000E+00  0.00000000E+00
  0.00000000E+00  0.00000000E+00  0.00000000E+00
  0.00000000E+00  0.00000000E+00  0.00000000E+00
  0.00000000E+00  0.00000000E+00  0.00000000E+00
  0.00000000E+00  0.00000000E+00  0.00000000E+00
  0.00000000E+00  0.00000000E+00  0.00000000E+00
  0.00000000E+00  0.00000000E+00  0.00000000E+00
  0.00000000E+00  0.00000000E+00  0.00000000E+00
  0.00000000E+00  0.00000000E+00  0.00000000E+00
  0.00000000E+00  0.00000000E+00  0.00000000E+00
  0.00000000E+00  0.00000000E+00  0.00000000E+00
  0.00000000E+00  0.00000000E+00  0.00000000E+00
  0.00000000E+00  0.00000000E+00  0.00000000E+00
  0.00000000E+00  0.00000000E+00  0.00000000E+00
  0.00000000E+00  0.00000000E+00  0.00000000E+00
  0.00000000E+00  0.00000000E+00  0.00000000E+00
  0.00000000E+00  0.00000000E+00  0.00000000E+00
  0.00000000E+00  0.00000000E+00  0.00000000E+00
  0.00000000E+00  0.00000000E+00  0.00000000E+00
  0.00000000E+00  0.00000000E+00  0.00000000E+00
  0.00000000E+00  0.00000000E+00  0.00000000E+00
  0.00000000E+00  0.00000000E+00  0.00000000E+00
  0.00000000E+00  0.00000000E+00  0.00000000E+00
