Rh  C  H Cl                             
   1.00000000000000     
    10.8721879999999995    0.0000000000000000    0.0000000000000000
    -5.4360939999999998    9.4155909999999992    0.0000000000000000
     0.0000000000000000    0.0000000000000000   24.6578279400000042
   Rh   C    H    Cl
    64     6     2     4
Selective dynamics
Direct
  0.9999999559446024  0.7499999670758868  0.3041630438110658   F   F   F
  0.2499999889626636  0.0000000000000000  0.3041630438110658   F   F   F
  0.2499999891709876  0.2499999893793188  0.3041630438110658   F   F   F
  0.2499999888482805  0.4999999776965680  0.3041630438110658   F   F   F
  0.2499999890566116  0.7499999670758868  0.3041630438110658   F   F   F
  0.4999999779253272  0.0000000000000000  0.3041630438110658   F   F   F
  0.4999999781336513  0.2499999893793188  0.3041630438110658   F   F   F
  0.4999999778109441  0.4999999776965680  0.3041630438110658   F   F   F
  0.7499999668879909  0.0000000000000000  0.3041630438110658   F   F   F
  0.7499999670963149  0.2499999893793188  0.3041630438110658   F   F   F
  0.7499999667736077  0.4999999776965680  0.3041630438110658   F   F   F
  0.7499999669819388  0.7499999670758868  0.3041630438110658   F   F   F
  0.0000000000000000  0.0000000000000000  0.3041630438110658   F   F   F
  0.9999999560589785  0.2499999893793188  0.3041630438110658   F   F   F
  0.9999999998856168  0.4999999776965680  0.3041630438110658   F   F   F
  0.4999999780192752  0.7499999670758868  0.3041630438110658   F   F   F
  0.0833330000000032  0.1666669999999968  0.3941659420955475   F   F   F
  0.0833330000000032  0.4166669999999968  0.3941659420955475   F   F   F
  0.0833330000000032  0.6666669999999968  0.3941659420955475   F   F   F
  0.0833330000000032  0.9166669999999968  0.3941659420955475   F   F   F
  0.3333330000000032  0.1666669999999968  0.3941659420955475   F   F   F
  0.3333330000000032  0.4166669999999968  0.3941659420955475   F   F   F
  0.3333330000000032  0.6666669999999968  0.3941659420955475   F   F   F
  0.3333330000000032  0.9166669999999968  0.3941659420955475   F   F   F
  0.5833330000000032  0.1666669999999968  0.3941659420955475   F   F   F
  0.5833330000000032  0.4166669999999968  0.3941659420955475   F   F   F
  0.5833330000000032  0.6666669999999968  0.3941659420955475   F   F   F
  0.5833330000000032  0.9166669999999968  0.3941659420955475   F   F   F
  0.8333330000000032  0.1666669999999968  0.3941659420955475   F   F   F
  0.8333330000000032  0.4166669999999968  0.3941659420955475   F   F   F
  0.8333330000000032  0.6666669999999968  0.3941659420955475   F   F   F
  0.8333330000000032  0.9166669999999968  0.3941659420955475   F   F   F
  0.9968866759786258  0.9965479980976101  0.5653194002398203   T   T   T
  0.9950566379230098  0.2479721267958518  0.5669406575095485   T   T   T
  0.0005521644897291  0.5001087301559658  0.5656338232996121   T   T   T
  0.0010834464929405  0.7490915622156704  0.5652362605145670   T   T   T
  0.2472513284676429  0.9944644838437104  0.5666375559314032   T   T   T
  0.2452755563139361  0.2444781510492387  0.5695989220245622   T   T   T
  0.2502829507590515  0.4994495771261288  0.5685940234711853   T   T   T
  0.2496031595843716  0.7486946979104762  0.5656544475191423   T   T   T
  0.5005662746760846  0.0007319532622139  0.5657641350221456   T   T   T
  0.4992647884496391  0.2503046354860464  0.5686266754525924   T   T   T
  0.5048444618385278  0.5041028277004115  0.5696308832123389   T   T   T
  0.5016637879656798  0.7545399061588896  0.5668348986213374   T   T   T
  0.7492856513401498  0.0004435464145867  0.5652350633846097   T   T   T
  0.7483918083242386  0.2486587243390291  0.5658466186034472   T   T   T
  0.7552234465349995  0.5024379779799923  0.5667474688553432   T   T   T
  0.7536752207954912  0.7532517507530200  0.5654625221995556   T   T   T
  0.1672810066890864  0.0845134791044575  0.4799897698094454   T   T   T
  0.1675468035567529  0.3332934144569441  0.4803753853247112   T   T   T
  0.1680740433917425  0.5814710624367185  0.4801419701579248   T   T   T
  0.1679571455244860  0.8337187701702845  0.4795847330711163   T   T   T
  0.4159098381823999  0.0844632455163118  0.4804742451877979   T   T   T
  0.4163929948017348  0.3339225574306521  0.4802036103451824   T   T   T
  0.4165982584244358  0.5825462070064035  0.4802866482466094   T   T   T
  0.4173059316812065  0.8327895929527277  0.4801495491626023   T   T   T
  0.6662408786778907  0.0835986519107373  0.4796350151115583   T   T   T
  0.6651230861460536  0.3338649233867211  0.4806242814915272   T   T   T
  0.6655066408242957  0.5826867114732461  0.4799698530311614   T   T   T
  0.6664366626950314  0.8326086057680903  0.4795924656347574   T   T   T
  0.9171686394129253  0.0835299135659514  0.4797053064273754   T   T   T
  0.9170933806640477  0.3324611251645290  0.4802245100436544   T   T   T
  0.9161694952021417  0.5821089346088436  0.4797179755714049   T   T   T
  0.9169107278228603  0.8330522554635558  0.4793303768189684   T   T   T
  0.2945113869290162  0.4552331251986264  0.6498162145943539   T   T   T
  0.4509092192949128  0.5261553128534778  0.6497614019842302   T   T   T
  0.5276153636942507  0.4494033928707679  0.6497258798005024   T   T   T
  0.4568588716732493  0.2930632886924432  0.6500289341026989   T   T   T
  0.3004050603923973  0.2220143203483078  0.6497721932628323   T   T   T
  0.2238390434141916  0.2988452016309364  0.6497008314856718   T   T   T
  0.2477760892314159  0.5016728802108716  0.6764871273576925   T   T   T
  0.5035735028431122  0.2470466324321663  0.6769099937842835   T   T   T
  0.5332289403165232  0.7050820405266278  0.6719221852040277   T   T   T
  0.7061145150470401  0.5312942855258208  0.6722774605379527   T   T   T
  0.2187661226853842  0.0436288119610089  0.6723373579730395   T   T   T
  0.0447016798497587  0.2168126341392278  0.6712757831905947   T   T   T
 
  0.00000000E+00  0.00000000E+00  0.00000000E+00
  0.00000000E+00  0.00000000E+00  0.00000000E+00
  0.00000000E+00  0.00000000E+00  0.00000000E+00
  0.00000000E+00  0.00000000E+00  0.00000000E+00
  0.00000000E+00  0.00000000E+00  0.00000000E+00
  0.00000000E+00  0.00000000E+00  0.00000000E+00
  0.00000000E+00  0.00000000E+00  0.00000000E+00
  0.00000000E+00  0.00000000E+00  0.00000000E+00
  0.00000000E+00  0.00000000E+00  0.00000000E+00
  0.00000000E+00  0.00000000E+00  0.00000000E+00
  0.00000000E+00  0.00000000E+00  0.00000000E+00
  0.00000000E+00  0.00000000E+00  0.00000000E+00
  0.00000000E+00  0.00000000E+00  0.00000000E+00
  0.00000000E+00  0.00000000E+00  0.00000000E+00
  0.00000000E+00  0.00000000E+00  0.00000000E+00
  0.00000000E+00  0.00000000E+00  0.00000000E+00
  0.00000000E+00  0.00000000E+00  0.00000000E+00
  0.00000000E+00  0.00000000E+00  0.00000000E+00
  0.00000000E+00  0.00000000E+00  0.00000000E+00
  0.00000000E+00  0.00000000E+00  0.00000000E+00
  0.00000000E+00  0.00000000E+00  0.00000000E+00
  0.00000000E+00  0.00000000E+00  0.00000000E+00
  0.00000000E+00  0.00000000E+00  0.00000000E+00
  0.00000000E+00  0.00000000E+00  0.00000000E+00
  0.00000000E+00  0.00000000E+00  0.00000000E+00
  0.00000000E+00  0.00000000E+00  0.00000000E+00
  0.00000000E+00  0.00000000E+00  0.00000000E+00
  0.00000000E+00  0.00000000E+00  0.00000000E+00
  0.00000000E+00  0.00000000E+00  0.00000000E+00
  0.00000000E+00  0.00000000E+00  0.00000000E+00
  0.00000000E+00  0.00000000E+00  0.00000000E+00
  0.00000000E+00  0.00000000E+00  0.00000000E+00
  0.00000000E+00  0.00000000E+00  0.00000000E+00
  0.00000000E+00  0.00000000E+00  0.00000000E+00
  0.00000000E+00  0.00000000E+00  0.00000000E+00
  0.00000000E+00  0.00000000E+00  0.00000000E+00
  0.00000000E+00  0.00000000E+00  0.00000000E+00
  0.00000000E+00  0.00000000E+00  0.00000000E+00
  0.00000000E+00  0.00000000E+00  0.00000000E+00
  0.00000000E+00  0.00000000E+00  0.00000000E+00
  0.00000000E+00  0.00000000E+00  0.00000000E+00
  0.00000000E+00  0.00000000E+00  0.00000000E+00
  0.00000000E+00  0.00000000E+00  0.00000000E+00
  0.00000000E+00  0.00000000E+00  0.00000000E+00
  0.00000000E+00  0.00000000E+00  0.00000000E+00
  0.00000000E+00  0.00000000E+00  0.00000000E+00
  0.00000000E+00  0.00000000E+00  0.00000000E+00
  0.00000000E+00  0.00000000E+00  0.00000000E+00
  0.00000000E+00  0.00000000E+00  0.00000000E+00
  0.00000000E+00  0.00000000E+00  0.00000000E+00
  0.00000000E+00  0.00000000E+00  0.00000000E+00
  0.00000000E+00  0.00000000E+00  0.00000000E+00
  0.00000000E+00  0.00000000E+00  0.00000000E+00
  0.00000000E+00  0.00000000E+00  0.00000000E+00
  0.00000000E+00  0.00000000E+00  0.00000000E+00
  0.00000000E+00  0.00000000E+00  0.00000000E+00
  0.00000000E+00  0.00000000E+00  0.00000000E+00
  0.00000000E+00  0.00000000E+00  0.00000000E+00
  0.00000000E+00  0.00000000E+00  0.00000000E+00
  0.00000000E+00  0.00000000E+00  0.00000000E+00
  0.00000000E+00  0.00000000E+00  0.00000000E+00
  0.00000000E+00  0.00000000E+00  0.00000000E+00
  0.00000000E+00  0.00000000E+00  0.00000000E+00
  0.00000000E+00  0.00000000E+00  0.00000000E+00
  0.00000000E+00  0.00000000E+00  0.00000000E+00
  0.00000000E+00  0.00000000E+00  0.00000000E+00
  0.00000000E+00  0.00000000E+00  0.00000000E+00
  0.00000000E+00  0.00000000E+00  0.00000000E+00
  0.00000000E+00  0.00000000E+00  0.00000000E+00
  0.00000000E+00  0.00000000E+00  0.00000000E+00
  0.00000000E+00  0.00000000E+00  0.00000000E+00
  0.00000000E+00  0.00000000E+00  0.00000000E+00
  0.00000000E+00  0.00000000E+00  0.00000000E+00
  0.00000000E+00  0.00000000E+00  0.00000000E+00
  0.00000000E+00  0.00000000E+00  0.00000000E+00
  0.00000000E+00  0.00000000E+00  0.00000000E+00
