H2 Ir48 C6 Br4                          
    1.000000000000000     
    10.9622130000000002    0.0000000000000000    0.0000000000000000
    -5.4811069999999997    9.4935550000000006    0.0000000000000000
     0.0000000000000000    0.0000000000000000   16.4810189999999999
   H    Ir   C    Br
     2    48     6     4
Selective dynamics
Direct
  0.2506486787247013  0.4993052264323978  0.8016763533296967   T   T   T
  0.5002075536103447  0.2497521856358986  0.8020265038845551   T   T   T
  0.0833330000000032  0.1666669999999968  0.3640550000000005   F   F   F
  0.0833330000000032  0.4166669999999968  0.3640550000000005   F   F   F
  0.0833330000000032  0.6666669999999968  0.3640550000000005   F   F   F
  0.0833330000000032  0.9166669999999968  0.3640550000000005   F   F   F
  0.3333330000000032  0.1666669999999968  0.3640550000000005   F   F   F
  0.3333330000000032  0.4166669999999968  0.3640550000000005   F   F   F
  0.3333330000000032  0.6666669999999968  0.3640550000000005   F   F   F
  0.3333330000000032  0.9166669999999968  0.3640550000000005   F   F   F
  0.5833330000000032  0.1666669999999968  0.3640550000000005   F   F   F
  0.5833330000000032  0.4166669999999968  0.3640550000000005   F   F   F
  0.5833330000000032  0.6666669999999968  0.3640550000000005   F   F   F
  0.5833330000000032  0.9166669999999968  0.3640550000000005   F   F   F
  0.8333330000000032  0.1666669999999968  0.3640550000000005   F   F   F
  0.8333330000000032  0.4166669999999968  0.3640550000000005   F   F   F
  0.8333330000000032  0.6666669999999968  0.3640550000000005   F   F   F
  0.8333330000000032  0.9166669999999968  0.3640550000000005   F   F   F
  0.9955779922593351  0.9945658098804486  0.6244139177193304   T   T   T
  0.9930235059939179  0.2471310409701957  0.6296036011249981   T   T   T
  0.0018553783700597  0.5006678904663175  0.6265040861264168   T   T   T
  0.0007695286250637  0.7492096667025621  0.6245359679321041   T   T   T
  0.2465731956171524  0.9923613192736056  0.6292968793092797   T   T   T
  0.2447548116036558  0.2435480228706481  0.6362527130427509   T   T   T
  0.2500870704405003  0.4998942381550080  0.6332350117713261   T   T   T
  0.2493153256816001  0.7481240721368678  0.6264991889263030   T   T   T
  0.5022697495734363  0.0016231155415127  0.6267421297547529   T   T   T
  0.5000602986122971  0.2499231064478735  0.6330661525411188   T   T   T
  0.5064147828613486  0.5052045842170685  0.6362488059424010   T   T   T
  0.5028455888550809  0.7569444606544877  0.6296057822631482   T   T   T
  0.7491227478190368  0.0008612118226310  0.6247366126201825   T   T   T
  0.7483557606169455  0.2477082269980855  0.6267419682879876   T   T   T
  0.7576026019431694  0.5033999672751577  0.6293035480687053   T   T   T
  0.7554197807521774  0.7544072131058996  0.6244129569605974   T   T   T
  0.1690992698974654  0.0870067643667198  0.4958084523103636   T   T   T
  0.1685027909713952  0.3338937522268424  0.4969695277018999   T   T   T
  0.1691852744118307  0.5808106025492634  0.4960909199416932   T   T   T
  0.1693220919944878  0.8343156677402561  0.4946153369237294   T   T   T
  0.4160454731741652  0.0857297224678462  0.4975637042539631   T   T   T
  0.4158492885347371  0.3341513141953882  0.4963549499061699   T   T   T
  0.4160999544219237  0.5814889997685029  0.4969681327553062   T   T   T
  0.4172718940708648  0.8325521398322522  0.4966417543676087   T   T   T
  0.6659596711986993  0.0840368760741796  0.4942035879960898   T   T   T
  0.6642587997452267  0.3339479158089134  0.4975646979430195   T   T   T
  0.6629818221905595  0.5808920572044798  0.4958112671168990   T   T   T
  0.6651416904697953  0.8315479227561156  0.4950076663517038   T   T   T
  0.9184543500559883  0.0848589108392375  0.4950126446414558   T   T   T
  0.9174423674637708  0.3327227925956819  0.4966409714478885   T   T   T
  0.9156717066386548  0.5806683156659247  0.4946186245317676   T   T   T
  0.9171700021276337  0.8328346241463933  0.4931243445906048   T   T   T
  0.2928825972847591  0.4569673493028219  0.7562260429646557   T   T   T
  0.4494679445574477  0.5240997997839187  0.7549638658071345   T   T   T
  0.5253449347322245  0.4481482908010079  0.7545707848032208   T   T   T
  0.4582666360496859  0.2915698845938621  0.7561464730014080   T   T   T
  0.3018199602682117  0.2246407713120320  0.7545694488244692   T   T   T
  0.2258692179549442  0.3004714181525827  0.7549607586503058   T   T   T
  0.5355011373247436  0.7249085896364491  0.7892599801850011   T   T   T
  0.7264561237235441  0.5325886936967379  0.7894974502714618   T   T   T
  0.2173790835786207  0.0234763318523505  0.7895049038971251   T   T   T
  0.0249996967664998  0.2144360453382603  0.7892539719855591   T   T   T
 
  0.00000000E+00  0.00000000E+00  0.00000000E+00
  0.00000000E+00  0.00000000E+00  0.00000000E+00
  0.00000000E+00  0.00000000E+00  0.00000000E+00
  0.00000000E+00  0.00000000E+00  0.00000000E+00
  0.00000000E+00  0.00000000E+00  0.00000000E+00
  0.00000000E+00  0.00000000E+00  0.00000000E+00
  0.00000000E+00  0.00000000E+00  0.00000000E+00
  0.00000000E+00  0.00000000E+00  0.00000000E+00
  0.00000000E+00  0.00000000E+00  0.00000000E+00
  0.00000000E+00  0.00000000E+00  0.00000000E+00
  0.00000000E+00  0.00000000E+00  0.00000000E+00
  0.00000000E+00  0.00000000E+00  0.00000000E+00
  0.00000000E+00  0.00000000E+00  0.00000000E+00
  0.00000000E+00  0.00000000E+00  0.00000000E+00
  0.00000000E+00  0.00000000E+00  0.00000000E+00
  0.00000000E+00  0.00000000E+00  0.00000000E+00
  0.00000000E+00  0.00000000E+00  0.00000000E+00
  0.00000000E+00  0.00000000E+00  0.00000000E+00
  0.00000000E+00  0.00000000E+00  0.00000000E+00
  0.00000000E+00  0.00000000E+00  0.00000000E+00
  0.00000000E+00  0.00000000E+00  0.00000000E+00
  0.00000000E+00  0.00000000E+00  0.00000000E+00
  0.00000000E+00  0.00000000E+00  0.00000000E+00
  0.00000000E+00  0.00000000E+00  0.00000000E+00
  0.00000000E+00  0.00000000E+00  0.00000000E+00
  0.00000000E+00  0.00000000E+00  0.00000000E+00
  0.00000000E+00  0.00000000E+00  0.00000000E+00
  0.00000000E+00  0.00000000E+00  0.00000000E+00
  0.00000000E+00  0.00000000E+00  0.00000000E+00
  0.00000000E+00  0.00000000E+00  0.00000000E+00
  0.00000000E+00  0.00000000E+00  0.00000000E+00
  0.00000000E+00  0.00000000E+00  0.00000000E+00
  0.00000000E+00  0.00000000E+00  0.00000000E+00
  0.00000000E+00  0.00000000E+00  0.00000000E+00
  0.00000000E+00  0.00000000E+00  0.00000000E+00
  0.00000000E+00  0.00000000E+00  0.00000000E+00
  0.00000000E+00  0.00000000E+00  0.00000000E+00
  0.00000000E+00  0.00000000E+00  0.00000000E+00
  0.00000000E+00  0.00000000E+00  0.00000000E+00
  0.00000000E+00  0.00000000E+00  0.00000000E+00
  0.00000000E+00  0.00000000E+00  0.00000000E+00
  0.00000000E+00  0.00000000E+00  0.00000000E+00
  0.00000000E+00  0.00000000E+00  0.00000000E+00
  0.00000000E+00  0.00000000E+00  0.00000000E+00
  0.00000000E+00  0.00000000E+00  0.00000000E+00
  0.00000000E+00  0.00000000E+00  0.00000000E+00
  0.00000000E+00  0.00000000E+00  0.00000000E+00
  0.00000000E+00  0.00000000E+00  0.00000000E+00
  0.00000000E+00  0.00000000E+00  0.00000000E+00
  0.00000000E+00  0.00000000E+00  0.00000000E+00
  0.00000000E+00  0.00000000E+00  0.00000000E+00
  0.00000000E+00  0.00000000E+00  0.00000000E+00
  0.00000000E+00  0.00000000E+00  0.00000000E+00
  0.00000000E+00  0.00000000E+00  0.00000000E+00
  0.00000000E+00  0.00000000E+00  0.00000000E+00
  0.00000000E+00  0.00000000E+00  0.00000000E+00
  0.00000000E+00  0.00000000E+00  0.00000000E+00
  0.00000000E+00  0.00000000E+00  0.00000000E+00
  0.00000000E+00  0.00000000E+00  0.00000000E+00
  0.00000000E+00  0.00000000E+00  0.00000000E+00
