Pt  C  H Cl                             
    1.000000000000000     
    11.2480068000000006    0.0000000000000000    0.0000000000000000
     0.0000000000000000   15.9070838000000006    0.0000000000000000
     0.0000000000000000    0.0000000000000000   22.2180025631249976
   Pt   C    H    Cl
    64     6     4     2
Selective dynamics
Direct
  0.2500000008890453  0.2500000006286527  0.3375640982438100   F   F   F
  0.2500000008890453  0.5000000006286527  0.3375640982438100   F   F   F
  0.2500000008890453  0.7500000012572983  0.3375640982438100   F   F   F
  0.2500000008890453  0.0000000000000000  0.3375640982438100   F   F   F
  0.5000000017780906  0.5000000006286527  0.3375640982438100   F   F   F
  0.0000000035561882  0.0000000000000000  0.3375640982438100   F   F   F
  0.5000000017780906  0.7500000012572983  0.3375640982438100   F   F   F
  0.5000000017780906  0.0000000000000000  0.3375640982438100   F   F   F
  0.7500000026671358  0.0000000000000000  0.3375640982438100   F   F   F
  0.0000000035561882  0.7500000012572983  0.3375640982438100   F   F   F
  0.5000000017780906  0.2500000006286527  0.3375640982438100   F   F   F
  0.7500000026671358  0.2500000006286527  0.3375640982438100   F   F   F
  0.7500000026671358  0.5000000006286527  0.3375640982438100   F   F   F
  0.7500000026671358  0.7500000012572983  0.3375640982438100   F   F   F
  0.0000000035561882  0.2500000006286527  0.3375640982438100   F   F   F
  0.0000000035561882  0.5000000006286527  0.3375640982438100   F   F   F
  0.2493203958111519  0.2507255881972457  0.4678817437296540   T   T   T
  0.2469734661655516  0.4997770145876851  0.4660780746236162   T   T   T
  0.2523072524120888  0.7469976087433174  0.4693199517232121   T   T   T
  0.2499132044072105  0.0000834768916455  0.4680516320314842   T   T   T
  0.5004273112078467  0.2519153857747104  0.4685652468035839   T   T   T
  0.5000113104576154  0.4999921054399837  0.4635519745051399   T   T   T
  0.4995765508425774  0.7481049902969260  0.4685749429373217   T   T   T
  0.5000017865398541 -0.0000091016914973  0.4680046066448968   T   T   T
  0.7477066742969842  0.2530088980522048  0.4693221999993638   T   T   T
  0.7530314953109069  0.5002054622226029  0.4660832571581568   T   T   T
  0.7506614568620846  0.7492925215884364  0.4678841176019080   T   T   T
  0.7500675020667903  0.9999141070951364  0.4680501083970852   T   T   T
  0.9982321310852342  0.2502623774809060  0.4679354062395090   T   T   T
  0.0000134187262602  0.4999914139353733  0.4682404306505949   T   T   T
  0.0017622803409288  0.7497383187506629  0.4679269664610129   T   T   T
  0.0000036630353780  0.0000184170673310  0.4682966250078394   T   T   T
  0.1244213327664949  0.1258797173473489  0.5255215832516419   T   T   T
  0.1223029306084606  0.3747809604198801  0.5261623112225611   T   T   T
  0.1263249613847935  0.6244367964377945  0.5264253064430825   T   T   T
  0.1269532966977633  0.8739599909565777  0.5253163367636478   T   T   T
  0.3750251343028468  0.1261519394044076  0.5252871647526254   T   T   T
  0.3711045940712759  0.3783903487598389  0.5261904511744797   T   T   T
  0.3780174194324252  0.6154484924640162  0.5305852908078100   T   T   T
  0.3759292136276297  0.8740959492786179  0.5255960373146272   T   T   T
  0.6240669335215537  0.1259011086211870  0.5256010049538381   T   T   T
  0.6219946532613074  0.3845275057494356  0.5305914867070720   T   T   T
  0.6288753537651510  0.6215952341358953  0.5261773323528501   T   T   T
  0.6249992200726656  0.8738800507573624  0.5252766996117340   T   T   T
  0.8730275991332385  0.1260399086201989  0.5253156582635922   T   T   T
  0.8736945345741440  0.3755492791727293  0.5264362986660008   T   T   T
  0.8777066897799689  0.6251961657558933  0.5261639950921008   T   T   T
  0.8756015489732693  0.8741294292611450  0.5255044352728684   T   T   T
  0.1250000000000000  0.1250000003143228  0.4008461529820977   F   F   F
  0.1250000000000000  0.3750000003143228  0.4008461529820977   F   F   F
  0.1250000008890453  0.6250000009429755  0.4008461529820977   F   F   F
  0.1250000008890453  0.8750000009429755  0.4008461529820977   F   F   F
  0.3750000008890453  0.1250000003143228  0.4008461529820977   F   F   F
  0.3750000008890453  0.3750000003143228  0.4008461529820977   F   F   F
  0.3750000008890453  0.6250000009429755  0.4008461529820977   F   F   F
  0.3750000008890453  0.8750000009429755  0.4008461529820977   F   F   F
  0.6250000017780906  0.1250000003143228  0.4008461529820977   F   F   F
  0.6250000017780906  0.3750000003143228  0.4008461529820977   F   F   F
  0.6250000017780906  0.6250000009429755  0.4008461529820977   F   F   F
  0.6250000026671358  0.8750000009429755  0.4008461529820977   F   F   F
  0.8750000026671358  0.1250000003143228  0.4008461529820977   F   F   F
  0.8750000026671358  0.3750000003143228  0.4008461529820977   F   F   F
  0.8750000035561882  0.6250000009429755  0.4008461529820977   F   F   F
  0.8750000026671358  0.8750000009429755  0.4008461529820977   F   F   F
  0.4008220374948022  0.4380285828942586  0.6064670962094376   T   T   T
  0.3768445950602685  0.5313371213719729  0.6082708076772488   T   T   T
  0.4733803530865912  0.5895083047055147  0.6144494054209740   T   T   T
  0.5992030741265291  0.5619808519925437  0.6064492494233263   T   T   T
  0.6231683915248672  0.4686639161259621  0.6082689473060927   T   T   T
  0.5266390104290374  0.4105147185980682  0.6144535301845119   T   T   T
  0.2920666931675984  0.5471398733318211  0.6294211637337600   T   T   T
  0.4611888985123692  0.6469552821222752  0.6406348518351501   T   T   T
  0.7079409522130857  0.4528601440279817  0.6294299627232406   T   T   T
  0.5388011825461504  0.3530540037202627  0.6406416929591706   T   T   T
  0.3071347909086338  0.3871158095114245  0.6611828709911511   T   T   T
  0.6929343016036286  0.6129239494756770  0.6611453753790989   T   T   T
 
  0.00000000E+00  0.00000000E+00  0.00000000E+00
  0.00000000E+00  0.00000000E+00  0.00000000E+00
  0.00000000E+00  0.00000000E+00  0.00000000E+00
  0.00000000E+00  0.00000000E+00  0.00000000E+00
  0.00000000E+00  0.00000000E+00  0.00000000E+00
  0.00000000E+00  0.00000000E+00  0.00000000E+00
  0.00000000E+00  0.00000000E+00  0.00000000E+00
  0.00000000E+00  0.00000000E+00  0.00000000E+00
  0.00000000E+00  0.00000000E+00  0.00000000E+00
  0.00000000E+00  0.00000000E+00  0.00000000E+00
  0.00000000E+00  0.00000000E+00  0.00000000E+00
  0.00000000E+00  0.00000000E+00  0.00000000E+00
  0.00000000E+00  0.00000000E+00  0.00000000E+00
  0.00000000E+00  0.00000000E+00  0.00000000E+00
  0.00000000E+00  0.00000000E+00  0.00000000E+00
  0.00000000E+00  0.00000000E+00  0.00000000E+00
  0.00000000E+00  0.00000000E+00  0.00000000E+00
  0.00000000E+00  0.00000000E+00  0.00000000E+00
  0.00000000E+00  0.00000000E+00  0.00000000E+00
  0.00000000E+00  0.00000000E+00  0.00000000E+00
  0.00000000E+00  0.00000000E+00  0.00000000E+00
  0.00000000E+00  0.00000000E+00  0.00000000E+00
  0.00000000E+00  0.00000000E+00  0.00000000E+00
  0.00000000E+00  0.00000000E+00  0.00000000E+00
  0.00000000E+00  0.00000000E+00  0.00000000E+00
  0.00000000E+00  0.00000000E+00  0.00000000E+00
  0.00000000E+00  0.00000000E+00  0.00000000E+00
  0.00000000E+00  0.00000000E+00  0.00000000E+00
  0.00000000E+00  0.00000000E+00  0.00000000E+00
  0.00000000E+00  0.00000000E+00  0.00000000E+00
  0.00000000E+00  0.00000000E+00  0.00000000E+00
  0.00000000E+00  0.00000000E+00  0.00000000E+00
  0.00000000E+00  0.00000000E+00  0.00000000E+00
  0.00000000E+00  0.00000000E+00  0.00000000E+00
  0.00000000E+00  0.00000000E+00  0.00000000E+00
  0.00000000E+00  0.00000000E+00  0.00000000E+00
  0.00000000E+00  0.00000000E+00  0.00000000E+00
  0.00000000E+00  0.00000000E+00  0.00000000E+00
  0.00000000E+00  0.00000000E+00  0.00000000E+00
  0.00000000E+00  0.00000000E+00  0.00000000E+00
  0.00000000E+00  0.00000000E+00  0.00000000E+00
  0.00000000E+00  0.00000000E+00  0.00000000E+00
  0.00000000E+00  0.00000000E+00  0.00000000E+00
  0.00000000E+00  0.00000000E+00  0.00000000E+00
  0.00000000E+00  0.00000000E+00  0.00000000E+00
  0.00000000E+00  0.00000000E+00  0.00000000E+00
  0.00000000E+00  0.00000000E+00  0.00000000E+00
  0.00000000E+00  0.00000000E+00  0.00000000E+00
  0.00000000E+00  0.00000000E+00  0.00000000E+00
  0.00000000E+00  0.00000000E+00  0.00000000E+00
  0.00000000E+00  0.00000000E+00  0.00000000E+00
  0.00000000E+00  0.00000000E+00  0.00000000E+00
  0.00000000E+00  0.00000000E+00  0.00000000E+00
  0.00000000E+00  0.00000000E+00  0.00000000E+00
  0.00000000E+00  0.00000000E+00  0.00000000E+00
  0.00000000E+00  0.00000000E+00  0.00000000E+00
  0.00000000E+00  0.00000000E+00  0.00000000E+00
  0.00000000E+00  0.00000000E+00  0.00000000E+00
  0.00000000E+00  0.00000000E+00  0.00000000E+00
  0.00000000E+00  0.00000000E+00  0.00000000E+00
  0.00000000E+00  0.00000000E+00  0.00000000E+00
  0.00000000E+00  0.00000000E+00  0.00000000E+00
  0.00000000E+00  0.00000000E+00  0.00000000E+00
  0.00000000E+00  0.00000000E+00  0.00000000E+00
  0.00000000E+00  0.00000000E+00  0.00000000E+00
  0.00000000E+00  0.00000000E+00  0.00000000E+00
  0.00000000E+00  0.00000000E+00  0.00000000E+00
  0.00000000E+00  0.00000000E+00  0.00000000E+00
  0.00000000E+00  0.00000000E+00  0.00000000E+00
  0.00000000E+00  0.00000000E+00  0.00000000E+00
  0.00000000E+00  0.00000000E+00  0.00000000E+00
  0.00000000E+00  0.00000000E+00  0.00000000E+00
  0.00000000E+00  0.00000000E+00  0.00000000E+00
  0.00000000E+00  0.00000000E+00  0.00000000E+00
  0.00000000E+00  0.00000000E+00  0.00000000E+00
  0.00000000E+00  0.00000000E+00  0.00000000E+00
