Pd  C Br                                
    1.000000000000000     
    11.1817229999999999    0.0000000000000000    0.0000000000000000
     0.0000000000000000   15.8133443000000007    0.0000000000000000
     0.0000000000000000    0.0000000000000000   22.1931461100000007
   Pd   C    Br
    64     6     6
Selective dynamics
Direct
  0.2499999991056825  0.0000000000000000  0.3379421720033022   F   F   F
  0.9999999964227371  0.4999999987352481  0.3379421720033022   F   F   F
  0.2499999991056825  0.2499999996838085  0.3379421720033022   F   F   F
  0.2499999991056825  0.4999999987352481  0.3379421720033022   F   F   F
  0.2499999991056825  0.7499999984190566  0.3379421720033022   F   F   F
  0.4999999982113650  0.0000000000000000  0.3379421720033022   F   F   F
  0.4999999982113650  0.2499999996838085  0.3379421720033022   F   F   F
  0.9999999964227371  0.7499999984190566  0.3379421720033022   F   F   F
  0.4999999982113650  0.4999999987352481  0.3379421720033022   F   F   F
  0.4999999982113650  0.7499999984190566  0.3379421720033022   F   F   F
  0.7499999973170475  0.0000000000000000  0.3379421720033022   F   F   F
  0.7499999973170475  0.2499999996838085  0.3379421720033022   F   F   F
  0.7499999973170475  0.4999999987352481  0.3379421720033022   F   F   F
  0.7499999973170475  0.7499999984190566  0.3379421720033022   F   F   F
  0.0000000000000000  0.0000000000000000  0.3379421720033022   F   F   F
  0.9999999964227371  0.2499999996838085  0.3379421720033022   F   F   F
  0.2489791051308442  0.0000353198087987  0.4637607598632112   T   T   T
  0.2486144423381288  0.2534228159605276  0.4611630531476433   T   T   T
  0.2536684303476254  0.5000649944752135  0.4675758063534989   T   T   T
  0.2485928543174179  0.7465277297783381  0.4611860454654527   T   T   T
  0.5000079954242227  0.0000301306877875  0.4645718243559656   T   T   T
  0.5000218185589521  0.2516955864510798  0.4633663786698356   T   T   T
  0.4999704935434836  0.4997730355817189  0.4565077578459860   T   T   T
  0.4999985306840093  0.7482641703305105  0.4634291094153088   T   T   T
  0.7510245399013830  0.0000112455261635  0.4637487182361132   T   T   T
  0.7513897023966575  0.2534443068455002  0.4611684752952988   T   T   T
  0.7463657617432671  0.5000203520697254  0.4675392738710040   T   T   T
  0.7513586738149381  0.7465662721518371  0.4611575900046920   T   T   T
  0.0000634761544818  0.0000203590688338  0.4666025922516540   T   T   T
  0.0000399027134413  0.2569502575456562  0.4678218598063279   T   T   T
  0.0000976725223482  0.4999965246784929  0.4625635664465360   T   T   T
 -0.0000512258757666  0.7429634780320066  0.4678138658520394   T   T   T
  0.1250085000066279  0.1272510292898600  0.5247771707123841   T   T   T
  0.1327140279100079  0.3808454410214820  0.5293543910565742   T   T   T
  0.1324218743440607  0.6190475622054918  0.5294095190223445   T   T   T
  0.1248561766240478  0.8727955723353397  0.5247278641162542   T   T   T
  0.3778718965278812  0.1225061979696599  0.5253702046310592   T   T   T
  0.3638413260126461  0.3125650819430069  0.5605573151559989   T   T   T
  0.3634009884845434  0.6876221680894566  0.5606914118721557   T   T   T
  0.3771090919169460  0.8772408304984304  0.5253795657643224   T   T   T
  0.6229649822851759  0.1228374268450655  0.5253613651106122   T   T   T
  0.6364848305980395  0.3125938028649862  0.5605143161897201   T   T   T
  0.6362780404411763  0.6877248682868227  0.5606818144702564   T   T   T
  0.6222385659177051  0.8776517491064892  0.5253317806803608   T   T   T
  0.8751729537590532  0.1272285226282483  0.5247396165047153   T   T   T
  0.8676217564441031  0.3809518808007311  0.5293611238252437   T   T   T
  0.8673659513810988  0.6191793011959285  0.5293418767423643   T   T   T
  0.8750150856261324  0.8727672748128341  0.5247278516173285   T   T   T
  0.1249999995528412  0.1249999995257198  0.4009217677339905   F   F   F
  0.1249999995528412  0.3749999992095283  0.4009217677339905   F   F   F
  0.1249999995528412  0.6249999982609609  0.4009217677339905   F   F   F
  0.1249999995528412  0.8749999979447765  0.4009217677339905   F   F   F
  0.3749999986585237  0.1249999995257198  0.4009217677339905   F   F   F
  0.3749999986585237  0.3749999992095283  0.4009217677339905   F   F   F
  0.3749999986585237  0.6249999982609609  0.4009217677339905   F   F   F
  0.3749999986585237  0.8749999979447765  0.4009217677339905   F   F   F
  0.6249999977642062  0.1249999995257198  0.4009217677339905   F   F   F
  0.6249999977642062  0.3749999992095283  0.4009217677339905   F   F   F
  0.6249999977642062  0.6249999982609609  0.4009217677339905   F   F   F
  0.6249999977642062  0.8749999979447765  0.4009217677339905   F   F   F
  0.8749999968698887  0.1249999995257198  0.4009217677339905   F   F   F
  0.8749999968698887  0.3749999992095283  0.4009217677339905   F   F   F
  0.8749999968698887  0.6249999982609609  0.4009217677339905   F   F   F
  0.8749999968698887  0.8749999979447765  0.4009217677339905   F   F   F
  0.3801902242890936  0.5002375822156788  0.5299822804443480   T   T   T
  0.4365413496957041  0.5793236709834310  0.5455041333183487   T   T   T
  0.5634234326019083  0.5793479525939803  0.5454815733326495   T   T   T
  0.6199344728596724  0.5003239624171205  0.5300007651411128   T   T   T
  0.5635422689395676  0.4211018359373911  0.5453973922136830   T   T   T
  0.4365980589255753  0.4211196571136210  0.5453882027123396   T   T   T
  0.1579577732987023  0.4999314160751641  0.6044848215593579   T   T   T
  0.2523304822634492  0.8159355874679645  0.6098582432661792   T   T   T
  0.7465450776024075  0.8162095221623002  0.6096591640809628   T   T   T
  0.8417646555790816  0.5000719897627826  0.6043836577167716   T   T   T
  0.7478363940294237  0.1843993064457066  0.6097586443984274   T   T   T
  0.2533505589800241  0.1842447992288122  0.6095540470527270   T   T   T
 
  0.00000000E+00  0.00000000E+00  0.00000000E+00
  0.00000000E+00  0.00000000E+00  0.00000000E+00
  0.00000000E+00  0.00000000E+00  0.00000000E+00
  0.00000000E+00  0.00000000E+00  0.00000000E+00
  0.00000000E+00  0.00000000E+00  0.00000000E+00
  0.00000000E+00  0.00000000E+00  0.00000000E+00
  0.00000000E+00  0.00000000E+00  0.00000000E+00
  0.00000000E+00  0.00000000E+00  0.00000000E+00
  0.00000000E+00  0.00000000E+00  0.00000000E+00
  0.00000000E+00  0.00000000E+00  0.00000000E+00
  0.00000000E+00  0.00000000E+00  0.00000000E+00
  0.00000000E+00  0.00000000E+00  0.00000000E+00
  0.00000000E+00  0.00000000E+00  0.00000000E+00
  0.00000000E+00  0.00000000E+00  0.00000000E+00
  0.00000000E+00  0.00000000E+00  0.00000000E+00
  0.00000000E+00  0.00000000E+00  0.00000000E+00
  0.00000000E+00  0.00000000E+00  0.00000000E+00
  0.00000000E+00  0.00000000E+00  0.00000000E+00
  0.00000000E+00  0.00000000E+00  0.00000000E+00
  0.00000000E+00  0.00000000E+00  0.00000000E+00
  0.00000000E+00  0.00000000E+00  0.00000000E+00
  0.00000000E+00  0.00000000E+00  0.00000000E+00
  0.00000000E+00  0.00000000E+00  0.00000000E+00
  0.00000000E+00  0.00000000E+00  0.00000000E+00
  0.00000000E+00  0.00000000E+00  0.00000000E+00
  0.00000000E+00  0.00000000E+00  0.00000000E+00
  0.00000000E+00  0.00000000E+00  0.00000000E+00
  0.00000000E+00  0.00000000E+00  0.00000000E+00
  0.00000000E+00  0.00000000E+00  0.00000000E+00
  0.00000000E+00  0.00000000E+00  0.00000000E+00
  0.00000000E+00  0.00000000E+00  0.00000000E+00
  0.00000000E+00  0.00000000E+00  0.00000000E+00
  0.00000000E+00  0.00000000E+00  0.00000000E+00
  0.00000000E+00  0.00000000E+00  0.00000000E+00
  0.00000000E+00  0.00000000E+00  0.00000000E+00
  0.00000000E+00  0.00000000E+00  0.00000000E+00
  0.00000000E+00  0.00000000E+00  0.00000000E+00
  0.00000000E+00  0.00000000E+00  0.00000000E+00
  0.00000000E+00  0.00000000E+00  0.00000000E+00
  0.00000000E+00  0.00000000E+00  0.00000000E+00
  0.00000000E+00  0.00000000E+00  0.00000000E+00
  0.00000000E+00  0.00000000E+00  0.00000000E+00
  0.00000000E+00  0.00000000E+00  0.00000000E+00
  0.00000000E+00  0.00000000E+00  0.00000000E+00
  0.00000000E+00  0.00000000E+00  0.00000000E+00
  0.00000000E+00  0.00000000E+00  0.00000000E+00
  0.00000000E+00  0.00000000E+00  0.00000000E+00
  0.00000000E+00  0.00000000E+00  0.00000000E+00
  0.00000000E+00  0.00000000E+00  0.00000000E+00
  0.00000000E+00  0.00000000E+00  0.00000000E+00
  0.00000000E+00  0.00000000E+00  0.00000000E+00
  0.00000000E+00  0.00000000E+00  0.00000000E+00
  0.00000000E+00  0.00000000E+00  0.00000000E+00
  0.00000000E+00  0.00000000E+00  0.00000000E+00
  0.00000000E+00  0.00000000E+00  0.00000000E+00
  0.00000000E+00  0.00000000E+00  0.00000000E+00
  0.00000000E+00  0.00000000E+00  0.00000000E+00
  0.00000000E+00  0.00000000E+00  0.00000000E+00
  0.00000000E+00  0.00000000E+00  0.00000000E+00
  0.00000000E+00  0.00000000E+00  0.00000000E+00
  0.00000000E+00  0.00000000E+00  0.00000000E+00
  0.00000000E+00  0.00000000E+00  0.00000000E+00
  0.00000000E+00  0.00000000E+00  0.00000000E+00
  0.00000000E+00  0.00000000E+00  0.00000000E+00
  0.00000000E+00  0.00000000E+00  0.00000000E+00
  0.00000000E+00  0.00000000E+00  0.00000000E+00
  0.00000000E+00  0.00000000E+00  0.00000000E+00
  0.00000000E+00  0.00000000E+00  0.00000000E+00
  0.00000000E+00  0.00000000E+00  0.00000000E+00
  0.00000000E+00  0.00000000E+00  0.00000000E+00
  0.00000000E+00  0.00000000E+00  0.00000000E+00
  0.00000000E+00  0.00000000E+00  0.00000000E+00
  0.00000000E+00  0.00000000E+00  0.00000000E+00
  0.00000000E+00  0.00000000E+00  0.00000000E+00
  0.00000000E+00  0.00000000E+00  0.00000000E+00
  0.00000000E+00  0.00000000E+00  0.00000000E+00
