H2 Rh48 C6 Br4                          
    1.000000000000000     
    10.8721879999999995    0.0000000000000000    0.0000000000000000
    -5.4360939999999998    9.4155909999999992    0.0000000000000000
     0.0000000000000000    0.0000000000000000   16.4442659999999989
   H    Rh   C    Br
     2    48     6     4
Selective dynamics
Direct
  0.2479978399780478  0.5019654096187907  0.7947445861519213   T   T   T
  0.5033755190366804  0.2465485026722050  0.7948826662184629   T   T   T
  0.0833330000000032  0.1666669999999968  0.3648689999999988   F   F   F
  0.0833330000000032  0.4166669999999968  0.3648689999999988   F   F   F
  0.0833330000000032  0.6666669999999968  0.3648689999999988   F   F   F
  0.0833330000000032  0.9166669999999968  0.3648689999999988   F   F   F
  0.3333330000000032  0.1666669999999968  0.3648689999999988   F   F   F
  0.3333330000000032  0.4166669999999968  0.3648689999999988   F   F   F
  0.3333330000000032  0.6666669999999968  0.3648689999999988   F   F   F
  0.3333330000000032  0.9166669999999968  0.3648689999999988   F   F   F
  0.5833330000000032  0.1666669999999968  0.3648689999999988   F   F   F
  0.5833330000000032  0.4166669999999968  0.3648689999999988   F   F   F
  0.5833330000000032  0.6666669999999968  0.3648689999999988   F   F   F
  0.5833330000000032  0.9166669999999968  0.3648689999999988   F   F   F
  0.8333330000000032  0.1666669999999968  0.3648689999999988   F   F   F
  0.8333330000000032  0.4166669999999968  0.3648689999999988   F   F   F
  0.8333330000000032  0.6666669999999968  0.3648689999999988   F   F   F
  0.8333330000000032  0.9166669999999968  0.3648689999999988   F   F   F
  0.9960049703889453  0.9951989913273636  0.6220811388207821   T   T   T
  0.9934050057275456  0.2469282239091726  0.6272313676153800   T   T   T
  0.0017759556346064  0.5003069152610138  0.6236507619768403   T   T   T
  0.0014039032971738  0.7485233581658122  0.6217134026053799   T   T   T
  0.2465747123500250  0.9931454507618298  0.6270740602720650   T   T   T
  0.2450961404008609  0.2442257915075459  0.6335066417293760   T   T   T
  0.2508520958652483  0.4991173590871441  0.6310919733571865   T   T   T
  0.2496422120623549  0.7481714837193678  0.6236451110868941   T   T   T
  0.5012670693961780  0.0017823363501748  0.6238483479806760   T   T   T
  0.4990785009881904  0.2508853443479779  0.6306039165492479   T   T   T
  0.5057385354715720  0.5048531017022313  0.6335042503271211   T   T   T
  0.5030301274430613  0.7565395573884643  0.6272322750467083   T   T   T
  0.7491861434816798  0.0007556419951982  0.6215243946519777   T   T   T
  0.7481627448431283  0.2486670638244703  0.6238580403057838   T   T   T
  0.7568004740651304  0.5033633629346639  0.6270842040618518   T   T   T
  0.7547827629132371  0.7539882711431858  0.6220739533409230   T   T   T
  0.1690306042802163  0.0866218373340431  0.4945016192593386   T   T   T
  0.1684303241236407  0.3335253339684314  0.4957899259922840   T   T   T
  0.1693438832729797  0.5806133766258696  0.4953422934870346   T   T   T
  0.1690824814314098  0.8341702376976059  0.4938923926109524   T   T   T
  0.4156489697420724  0.0857245689785273  0.4966884813229271   T   T   T
  0.4156318003152180  0.3343481747970216  0.4945865725351553   T   T   T
  0.4164588095596500  0.5815437303986926  0.4957898019807558   T   T   T
  0.4175652459055001  0.8325031455239440  0.4956296747740154   T   T   T
  0.6657914028275371  0.0842130459311505  0.4936473863366331   T   T   T
  0.6642697332668206  0.3343316317469984  0.4966977597149977   T   T   T
  0.6633787662076287  0.5809523030148966  0.4945104108643150   T   T   T
  0.6651397322847501  0.8316807070786751  0.4941474897404063   T   T   T
  0.9183210942161608  0.0848732710651632  0.4941518077783087   T   T   T
  0.9174764863728129  0.3324240994724263  0.4956325898100147   T   T   T
  0.9157793695422853  0.5808718677749312  0.4938995716414567   T   T   T
  0.9170861953693930  0.8328994226775777  0.4927385069929713   T   T   T
  0.2940041547422894  0.4559222139011609  0.7536430562064851   T   T   T
  0.4503350123034835  0.5250167751317747  0.7516222287928898   T   T   T
  0.5267552936643582  0.4486821673389514  0.7513409878998658   T   T   T
  0.4575467699920992  0.2923379942318007  0.7535368571353587   T   T   T
  0.3012088917942677  0.2231668614753417  0.7513541392580336   T   T   T
  0.2249012912767014  0.2995781441992591  0.7516281868708106   T   T   T
  0.5408700241110296  0.7286297535402397  0.7826093546877217   T   T   T
  0.7299369819909884  0.5379975319316301  0.7835533687928447   T   T   T
  0.2118348518339630  0.0200010647837416  0.7835750933017778   T   T   T
  0.0213053655926032  0.2091370065085769  0.7826094013078446   T   T   T
 
  0.00000000E+00  0.00000000E+00  0.00000000E+00
  0.00000000E+00  0.00000000E+00  0.00000000E+00
  0.00000000E+00  0.00000000E+00  0.00000000E+00
  0.00000000E+00  0.00000000E+00  0.00000000E+00
  0.00000000E+00  0.00000000E+00  0.00000000E+00
  0.00000000E+00  0.00000000E+00  0.00000000E+00
  0.00000000E+00  0.00000000E+00  0.00000000E+00
  0.00000000E+00  0.00000000E+00  0.00000000E+00
  0.00000000E+00  0.00000000E+00  0.00000000E+00
  0.00000000E+00  0.00000000E+00  0.00000000E+00
  0.00000000E+00  0.00000000E+00  0.00000000E+00
  0.00000000E+00  0.00000000E+00  0.00000000E+00
  0.00000000E+00  0.00000000E+00  0.00000000E+00
  0.00000000E+00  0.00000000E+00  0.00000000E+00
  0.00000000E+00  0.00000000E+00  0.00000000E+00
  0.00000000E+00  0.00000000E+00  0.00000000E+00
  0.00000000E+00  0.00000000E+00  0.00000000E+00
  0.00000000E+00  0.00000000E+00  0.00000000E+00
  0.00000000E+00  0.00000000E+00  0.00000000E+00
  0.00000000E+00  0.00000000E+00  0.00000000E+00
  0.00000000E+00  0.00000000E+00  0.00000000E+00
  0.00000000E+00  0.00000000E+00  0.00000000E+00
  0.00000000E+00  0.00000000E+00  0.00000000E+00
  0.00000000E+00  0.00000000E+00  0.00000000E+00
  0.00000000E+00  0.00000000E+00  0.00000000E+00
  0.00000000E+00  0.00000000E+00  0.00000000E+00
  0.00000000E+00  0.00000000E+00  0.00000000E+00
  0.00000000E+00  0.00000000E+00  0.00000000E+00
  0.00000000E+00  0.00000000E+00  0.00000000E+00
  0.00000000E+00  0.00000000E+00  0.00000000E+00
  0.00000000E+00  0.00000000E+00  0.00000000E+00
  0.00000000E+00  0.00000000E+00  0.00000000E+00
  0.00000000E+00  0.00000000E+00  0.00000000E+00
  0.00000000E+00  0.00000000E+00  0.00000000E+00
  0.00000000E+00  0.00000000E+00  0.00000000E+00
  0.00000000E+00  0.00000000E+00  0.00000000E+00
  0.00000000E+00  0.00000000E+00  0.00000000E+00
  0.00000000E+00  0.00000000E+00  0.00000000E+00
  0.00000000E+00  0.00000000E+00  0.00000000E+00
  0.00000000E+00  0.00000000E+00  0.00000000E+00
  0.00000000E+00  0.00000000E+00  0.00000000E+00
  0.00000000E+00  0.00000000E+00  0.00000000E+00
  0.00000000E+00  0.00000000E+00  0.00000000E+00
  0.00000000E+00  0.00000000E+00  0.00000000E+00
  0.00000000E+00  0.00000000E+00  0.00000000E+00
  0.00000000E+00  0.00000000E+00  0.00000000E+00
  0.00000000E+00  0.00000000E+00  0.00000000E+00
  0.00000000E+00  0.00000000E+00  0.00000000E+00
  0.00000000E+00  0.00000000E+00  0.00000000E+00
  0.00000000E+00  0.00000000E+00  0.00000000E+00
  0.00000000E+00  0.00000000E+00  0.00000000E+00
  0.00000000E+00  0.00000000E+00  0.00000000E+00
  0.00000000E+00  0.00000000E+00  0.00000000E+00
  0.00000000E+00  0.00000000E+00  0.00000000E+00
  0.00000000E+00  0.00000000E+00  0.00000000E+00
  0.00000000E+00  0.00000000E+00  0.00000000E+00
  0.00000000E+00  0.00000000E+00  0.00000000E+00
  0.00000000E+00  0.00000000E+00  0.00000000E+00
  0.00000000E+00  0.00000000E+00  0.00000000E+00
  0.00000000E+00  0.00000000E+00  0.00000000E+00
