Rh  C  H  F                             
   1.00000000000000     
    10.8721879999999995    0.0000000000000000    0.0000000000000000
    -5.4360939999999998    9.4155909999999992    0.0000000000000000
     0.0000000000000000    0.0000000000000000   24.6578279400000042
   Rh   C    H    F 
    64     6     2     4
Selective dynamics
Direct
  0.9999999559446024  0.7499999670758868  0.3041630438110658   F   F   F
  0.2499999889626636  0.0000000000000000  0.3041630438110658   F   F   F
  0.2499999891709876  0.2499999893793188  0.3041630438110658   F   F   F
  0.2499999888482805  0.4999999776965680  0.3041630438110658   F   F   F
  0.2499999890566116  0.7499999670758868  0.3041630438110658   F   F   F
  0.4999999779253272  0.0000000000000000  0.3041630438110658   F   F   F
  0.4999999781336513  0.2499999893793188  0.3041630438110658   F   F   F
  0.4999999778109441  0.4999999776965680  0.3041630438110658   F   F   F
  0.7499999668879909  0.0000000000000000  0.3041630438110658   F   F   F
  0.7499999670963149  0.2499999893793188  0.3041630438110658   F   F   F
  0.7499999667736077  0.4999999776965680  0.3041630438110658   F   F   F
  0.7499999669819388  0.7499999670758868  0.3041630438110658   F   F   F
  0.0000000000000000  0.0000000000000000  0.3041630438110658   F   F   F
  0.9999999560589785  0.2499999893793188  0.3041630438110658   F   F   F
  0.9999999998856168  0.4999999776965680  0.3041630438110658   F   F   F
  0.4999999780192752  0.7499999670758868  0.3041630438110658   F   F   F
  0.0833330000000032  0.1666669999999968  0.3941659420955475   F   F   F
  0.0833330000000032  0.4166669999999968  0.3941659420955475   F   F   F
  0.0833330000000032  0.6666669999999968  0.3941659420955475   F   F   F
  0.0833330000000032  0.9166669999999968  0.3941659420955475   F   F   F
  0.3333330000000032  0.1666669999999968  0.3941659420955475   F   F   F
  0.3333330000000032  0.4166669999999968  0.3941659420955475   F   F   F
  0.3333330000000032  0.6666669999999968  0.3941659420955475   F   F   F
  0.3333330000000032  0.9166669999999968  0.3941659420955475   F   F   F
  0.5833330000000032  0.1666669999999968  0.3941659420955475   F   F   F
  0.5833330000000032  0.4166669999999968  0.3941659420955475   F   F   F
  0.5833330000000032  0.6666669999999968  0.3941659420955475   F   F   F
  0.5833330000000032  0.9166669999999968  0.3941659420955475   F   F   F
  0.8333330000000032  0.1666669999999968  0.3941659420955475   F   F   F
  0.8333330000000032  0.4166669999999968  0.3941659420955475   F   F   F
  0.8333330000000032  0.6666669999999968  0.3941659420955475   F   F   F
  0.8333330000000032  0.9166669999999968  0.3941659420955475   F   F   F
  0.9971716296054542  0.9970067058357247  0.5654550136605624   T   T   T
  0.9952654196582628  0.2487162884465731  0.5657251538259443   T   T   T
  0.0001225708829668  0.4999149668818317  0.5657978437306672   T   T   T
  0.0009481974607372  0.7495232661739823  0.5655027034853716   T   T   T
  0.2477190571463647  0.9951132929017193  0.5656407488723417   T   T   T
  0.2432350335530245  0.2427705114625271  0.5707601503206786   T   T   T
  0.2506838461758020  0.4988429776947966  0.5690003476500577   T   T   T
  0.2499821178380967  0.7495374842622948  0.5657704043831109   T   T   T
  0.5002486795963538  0.0004134217456699  0.5658636278359227   T   T   T
  0.4987835192872827  0.2504361869167567  0.5692784260765967   T   T   T
  0.5068763790450892  0.5063492549253098  0.5706548784264527   T   T   T
  0.5011066847995808  0.7545526530237804  0.5657236122455397   T   T   T
  0.7497537382807112  0.0000869755451773  0.5654727418938802   T   T   T
  0.7490033955033141  0.2495487661499081  0.5658957300317450   T   T   T
  0.7548577674081719  0.5022924568816393  0.5656837681009232   T   T   T
  0.7534389891648007  0.7530387796512396  0.5655374885619373   T   T   T
  0.1673973031714954  0.0846474117071706  0.4801013557565068   T   T   T
  0.1679836200199225  0.3335416917903791  0.4804849303771144   T   T   T
  0.1679840073824970  0.5816751920473314  0.4804151376939794   T   T   T
  0.1674989103385238  0.8335520984631744  0.4794914093691320   T   T   T
  0.4167100176439588  0.0850252394650620  0.4803178134525937   T   T   T
  0.4160831344830235  0.3338585650273173  0.4806116180990452   T   T   T
  0.4163742714412739  0.5821400308775727  0.4804080187926554   T   T   T
  0.4167347689592592  0.8332981456439812  0.4798100146176878   T   T   T
  0.6663901058557775  0.0837013180139330  0.4798013680974762   T   T   T
  0.6643339287410401  0.3331978682788190  0.4804272593452826   T   T   T
  0.6652277057836308  0.5827175073356151  0.4800672065698739   T   T   T
  0.6661058766352637  0.8326548653117416  0.4794959718513955   T   T   T
  0.9171994968626312  0.0837697281687555  0.4796225648590581   T   T   T
  0.9165960304662064  0.3332948380270381  0.4798310182929962   T   T   T
  0.9164052311258876  0.5825942007569288  0.4796615970924868   T   T   T
  0.9168828061505143  0.8330596825757712  0.4794824163256811   T   T   T
  0.2949287892785311  0.4564717338580209  0.6502951192422665   T   T   T
  0.4503807072719009  0.5257031267747496  0.6516308174657990   T   T   T
  0.5267687013017855  0.4493451842079756  0.6515989930846645   T   T   T
  0.4573556319970986  0.2938730410010362  0.6505824106674055   T   T   T
  0.3017268771419503  0.2245055815236041  0.6517778665471849   T   T   T
  0.2254010830060687  0.3009308469787958  0.6517941437285222   T   T   T
  0.2484966870067427  0.5031699950205126  0.6770351824002296   T   T   T
  0.5033971279541620  0.2477981860977816  0.6777755075760511   T   T   T
  0.5173753422735605  0.6587171584294380  0.6749146691363498   T   T   T
  0.6594988389152574  0.5165489435354530  0.6750546450547965   T   T   T
  0.2349652106112438  0.0921318942412381  0.6755167075996199   T   T   T
  0.0927656175551526  0.2345542322107842  0.6753047475219821   T   T   T
 
  0.00000000E+00  0.00000000E+00  0.00000000E+00
  0.00000000E+00  0.00000000E+00  0.00000000E+00
  0.00000000E+00  0.00000000E+00  0.00000000E+00
  0.00000000E+00  0.00000000E+00  0.00000000E+00
  0.00000000E+00  0.00000000E+00  0.00000000E+00
  0.00000000E+00  0.00000000E+00  0.00000000E+00
  0.00000000E+00  0.00000000E+00  0.00000000E+00
  0.00000000E+00  0.00000000E+00  0.00000000E+00
  0.00000000E+00  0.00000000E+00  0.00000000E+00
  0.00000000E+00  0.00000000E+00  0.00000000E+00
  0.00000000E+00  0.00000000E+00  0.00000000E+00
  0.00000000E+00  0.00000000E+00  0.00000000E+00
  0.00000000E+00  0.00000000E+00  0.00000000E+00
  0.00000000E+00  0.00000000E+00  0.00000000E+00
  0.00000000E+00  0.00000000E+00  0.00000000E+00
  0.00000000E+00  0.00000000E+00  0.00000000E+00
  0.00000000E+00  0.00000000E+00  0.00000000E+00
  0.00000000E+00  0.00000000E+00  0.00000000E+00
  0.00000000E+00  0.00000000E+00  0.00000000E+00
  0.00000000E+00  0.00000000E+00  0.00000000E+00
  0.00000000E+00  0.00000000E+00  0.00000000E+00
  0.00000000E+00  0.00000000E+00  0.00000000E+00
  0.00000000E+00  0.00000000E+00  0.00000000E+00
  0.00000000E+00  0.00000000E+00  0.00000000E+00
  0.00000000E+00  0.00000000E+00  0.00000000E+00
  0.00000000E+00  0.00000000E+00  0.00000000E+00
  0.00000000E+00  0.00000000E+00  0.00000000E+00
  0.00000000E+00  0.00000000E+00  0.00000000E+00
  0.00000000E+00  0.00000000E+00  0.00000000E+00
  0.00000000E+00  0.00000000E+00  0.00000000E+00
  0.00000000E+00  0.00000000E+00  0.00000000E+00
  0.00000000E+00  0.00000000E+00  0.00000000E+00
  0.00000000E+00  0.00000000E+00  0.00000000E+00
  0.00000000E+00  0.00000000E+00  0.00000000E+00
  0.00000000E+00  0.00000000E+00  0.00000000E+00
  0.00000000E+00  0.00000000E+00  0.00000000E+00
  0.00000000E+00  0.00000000E+00  0.00000000E+00
  0.00000000E+00  0.00000000E+00  0.00000000E+00
  0.00000000E+00  0.00000000E+00  0.00000000E+00
  0.00000000E+00  0.00000000E+00  0.00000000E+00
  0.00000000E+00  0.00000000E+00  0.00000000E+00
  0.00000000E+00  0.00000000E+00  0.00000000E+00
  0.00000000E+00  0.00000000E+00  0.00000000E+00
  0.00000000E+00  0.00000000E+00  0.00000000E+00
  0.00000000E+00  0.00000000E+00  0.00000000E+00
  0.00000000E+00  0.00000000E+00  0.00000000E+00
  0.00000000E+00  0.00000000E+00  0.00000000E+00
  0.00000000E+00  0.00000000E+00  0.00000000E+00
  0.00000000E+00  0.00000000E+00  0.00000000E+00
  0.00000000E+00  0.00000000E+00  0.00000000E+00
  0.00000000E+00  0.00000000E+00  0.00000000E+00
  0.00000000E+00  0.00000000E+00  0.00000000E+00
  0.00000000E+00  0.00000000E+00  0.00000000E+00
  0.00000000E+00  0.00000000E+00  0.00000000E+00
  0.00000000E+00  0.00000000E+00  0.00000000E+00
  0.00000000E+00  0.00000000E+00  0.00000000E+00
  0.00000000E+00  0.00000000E+00  0.00000000E+00
  0.00000000E+00  0.00000000E+00  0.00000000E+00
  0.00000000E+00  0.00000000E+00  0.00000000E+00
  0.00000000E+00  0.00000000E+00  0.00000000E+00
  0.00000000E+00  0.00000000E+00  0.00000000E+00
  0.00000000E+00  0.00000000E+00  0.00000000E+00
  0.00000000E+00  0.00000000E+00  0.00000000E+00
  0.00000000E+00  0.00000000E+00  0.00000000E+00
  0.00000000E+00  0.00000000E+00  0.00000000E+00
  0.00000000E+00  0.00000000E+00  0.00000000E+00
  0.00000000E+00  0.00000000E+00  0.00000000E+00
  0.00000000E+00  0.00000000E+00  0.00000000E+00
  0.00000000E+00  0.00000000E+00  0.00000000E+00
  0.00000000E+00  0.00000000E+00  0.00000000E+00
  0.00000000E+00  0.00000000E+00  0.00000000E+00
  0.00000000E+00  0.00000000E+00  0.00000000E+00
  0.00000000E+00  0.00000000E+00  0.00000000E+00
  0.00000000E+00  0.00000000E+00  0.00000000E+00
  0.00000000E+00  0.00000000E+00  0.00000000E+00
  0.00000000E+00  0.00000000E+00  0.00000000E+00
