Ir  C  F                                
    1.000000000000000     
    10.9622135000000007    0.0000000000000000    0.0000000000000000
     0.0000000000000000   10.9622135000000007    0.0000000000000000
     0.0000000000000000    0.0000000000000000   23.8135916099999996
   Ir   C    F 
    64     6     6
Selective dynamics
Direct
  0.0000000000000000  0.2499999995438884  0.3149461921926360   F   F   F
  0.7499999986316652  0.7499999986316652  0.3149461921926360   F   F   F
  0.0000000000000000  0.4999999990877768  0.3149461921926360   F   F   F
  0.0000000000000000  0.7499999986316652  0.3149461921926360   F   F   F
  0.0000000000000000  0.0000000000000000  0.3149461921926360   F   F   F
  0.2499999995438884  0.2499999995438884  0.3149461921926360   F   F   F
  0.2499999995438884  0.4999999990877768  0.3149461921926360   F   F   F
  0.7499999986316652  0.0000000000000000  0.3149461921926360   F   F   F
  0.2499999995438884  0.7499999986316652  0.3149461921926360   F   F   F
  0.2499999995438884  0.0000000000000000  0.3149461921926360   F   F   F
  0.4999999990877768  0.2499999995438884  0.3149461921926360   F   F   F
  0.4999999990877768  0.4999999990877768  0.3149461921926360   F   F   F
  0.4999999990877768  0.7499999986316652  0.3149461921926360   F   F   F
  0.4999999990877768  0.0000000000000000  0.3149461921926360   F   F   F
  0.7499999986316652  0.2499999995438884  0.3149461921926360   F   F   F
  0.7499999986316652  0.4999999990877768  0.3149461921926360   F   F   F
 -0.0000415098302666  0.2499541174781862  0.4785694804834785   T   T   T
  0.0000000000000000  0.4999999990877768  0.4786469671592331   T   T   T
  0.0000415098302667  0.7500458806973672  0.4785694804834785   T   T   T
  0.0000000000000000  0.0000000000000000  0.4785148200796212   T   T   T
  0.2500382678963992  0.2500360619962846  0.4786070116058774   T   T   T
  0.2499987503201753  0.5000063113521090  0.4785541668795244   T   T   T
  0.2499368310032623  0.7500233123752000  0.4786098715289290   T   T   T
  0.2499334142084473 -0.0000264588720489  0.4785595763887120   T   T   T
  0.5000081806307123  0.2499821282086081  0.4785627389539471   T   T   T
  0.4999999990877768  0.4999999990877768  0.4785757523322940   T   T   T
  0.4999918175448411  0.7500178699669451  0.4785627389539471   T   T   T
  0.4999999990877768  0.0000000000000000  0.4786545979355825   T   T   T
  0.7500631671722913  0.2499766858003538  0.4786098715289290   T   T   T
  0.7500012478553780  0.4999936868234449  0.4785541668795244   T   T   T
  0.7499617302791544  0.7499639361792689  0.4786070116058774   T   T   T
  0.7500665839671065  0.0000264588720490  0.4785595763887120   T   T   T
  0.1249855757038160  0.1250186134262599  0.5568616925186026   T   T   T
  0.1249834013941307  0.3749820688633527  0.5568927763311312   T   T   T
  0.1247519712141827  0.6251014846818327  0.5569584309093303   T   T   T
  0.1248726301521736  0.8750844744328307  0.5569843138648372   T   T   T
  0.3749677486567506  0.1249746518912865  0.5568936023356275   T   T   T
  0.3747151230759123  0.3747294466174514  0.5567530052046072   T   T   T
  0.3745712954755395  0.6253751446877943  0.5566691996789449   T   T   T
  0.3749059228566163  0.8752217206841409  0.5569618651727418   T   T   T
  0.6250940762311608  0.1247782784036357  0.5569618651727418   T   T   T
  0.6254287036122377  0.3746248543999828  0.5566691996789449   T   T   T
  0.6252848760118640  0.6252705524703251  0.5567530052046072   T   T   T
  0.6250322504310263  0.8750253471964901  0.5568936023356275   T   T   T
  0.8751273689356029  0.1249155246549461  0.5569843138648372   T   T   T
  0.8752480278735939  0.3748985144059441  0.5569584309093303   T   T   T
  0.8750165976936461  0.6250179302244242  0.5568927763311312   T   T   T
  0.8750144233839607  0.8749813856615168  0.5568616925186026   T   T   T
  0.1250000002280558  0.1250000002280558  0.3963225717718615   F   F   F
  0.1250000002280558  0.3749999997719442  0.3963225717718615   F   F   F
  0.1250000002280558  0.6249999993158326  0.3963225717718615   F   F   F
  0.1250000002280558  0.8749999988597210  0.3963225717718615   F   F   F
  0.3749999997719442  0.1250000002280558  0.3963225717718615   F   F   F
  0.3749999997719442  0.3749999997719442  0.3963225717718615   F   F   F
  0.3749999997719442  0.6249999993158326  0.3963225717718615   F   F   F
  0.3749999997719442  0.8749999988597210  0.3963225717718615   F   F   F
  0.6249999993158326  0.1250000002280558  0.3963225717718615   F   F   F
  0.6249999993158326  0.3749999997719442  0.3963225717718615   F   F   F
  0.6249999993158326  0.6249999993158326  0.3963225717718615   F   F   F
  0.6249999993158326  0.8749999988597210  0.3963225717718615   F   F   F
  0.8749999988597210  0.1250000002280558  0.3963225717718615   F   F   F
  0.8749999988597210  0.3749999997719442  0.3963225717718615   F   F   F
  0.8749999988597210  0.6249999993158326  0.3963225717718615   F   F   F
  0.8749999988597210  0.8749999988597210  0.3963225717718615   F   F   F
  0.3767607518032606  0.5330133367543992  0.6903199857309651   T   T   T
  0.4669822848583808  0.6232325921175886  0.6903141804432730   T   T   T
  0.5902742070886257  0.5902626810710468  0.6905351272693764   T   T   T
  0.6232392180933320  0.4669866486500082  0.6903199857309651   T   T   T
  0.5330177434205812  0.3767674206535574  0.6903141804432730   T   T   T
  0.4097257919991510  0.4097373180167300  0.6905351272693764   T   T   T
  0.2586208811910978  0.5642462961247826  0.6939299077795262   T   T   T
  0.4356124108387895  0.7413735028746219  0.6939252737330760   T   T   T
  0.6766361250575785  0.6767144334348016  0.6955493566008620   T   T   T
  0.7413791178966713  0.4357537029629945  0.6939299077795262   T   T   T
  0.5643876594024955  0.2586265135454242  0.6939252737330760   T   T   T
  0.3233639032213831  0.3232855793363434  0.6955493566008620   T   T   T
 
  0.00000000E+00  0.00000000E+00  0.00000000E+00
  0.00000000E+00  0.00000000E+00  0.00000000E+00
  0.00000000E+00  0.00000000E+00  0.00000000E+00
  0.00000000E+00  0.00000000E+00  0.00000000E+00
  0.00000000E+00  0.00000000E+00  0.00000000E+00
  0.00000000E+00  0.00000000E+00  0.00000000E+00
  0.00000000E+00  0.00000000E+00  0.00000000E+00
  0.00000000E+00  0.00000000E+00  0.00000000E+00
  0.00000000E+00  0.00000000E+00  0.00000000E+00
  0.00000000E+00  0.00000000E+00  0.00000000E+00
  0.00000000E+00  0.00000000E+00  0.00000000E+00
  0.00000000E+00  0.00000000E+00  0.00000000E+00
  0.00000000E+00  0.00000000E+00  0.00000000E+00
  0.00000000E+00  0.00000000E+00  0.00000000E+00
  0.00000000E+00  0.00000000E+00  0.00000000E+00
  0.00000000E+00  0.00000000E+00  0.00000000E+00
  0.00000000E+00  0.00000000E+00  0.00000000E+00
  0.00000000E+00  0.00000000E+00  0.00000000E+00
  0.00000000E+00  0.00000000E+00  0.00000000E+00
  0.00000000E+00  0.00000000E+00  0.00000000E+00
  0.00000000E+00  0.00000000E+00  0.00000000E+00
  0.00000000E+00  0.00000000E+00  0.00000000E+00
  0.00000000E+00  0.00000000E+00  0.00000000E+00
  0.00000000E+00  0.00000000E+00  0.00000000E+00
  0.00000000E+00  0.00000000E+00  0.00000000E+00
  0.00000000E+00  0.00000000E+00  0.00000000E+00
  0.00000000E+00  0.00000000E+00  0.00000000E+00
  0.00000000E+00  0.00000000E+00  0.00000000E+00
  0.00000000E+00  0.00000000E+00  0.00000000E+00
  0.00000000E+00  0.00000000E+00  0.00000000E+00
  0.00000000E+00  0.00000000E+00  0.00000000E+00
  0.00000000E+00  0.00000000E+00  0.00000000E+00
  0.00000000E+00  0.00000000E+00  0.00000000E+00
  0.00000000E+00  0.00000000E+00  0.00000000E+00
  0.00000000E+00  0.00000000E+00  0.00000000E+00
  0.00000000E+00  0.00000000E+00  0.00000000E+00
  0.00000000E+00  0.00000000E+00  0.00000000E+00
  0.00000000E+00  0.00000000E+00  0.00000000E+00
  0.00000000E+00  0.00000000E+00  0.00000000E+00
  0.00000000E+00  0.00000000E+00  0.00000000E+00
  0.00000000E+00  0.00000000E+00  0.00000000E+00
  0.00000000E+00  0.00000000E+00  0.00000000E+00
  0.00000000E+00  0.00000000E+00  0.00000000E+00
  0.00000000E+00  0.00000000E+00  0.00000000E+00
  0.00000000E+00  0.00000000E+00  0.00000000E+00
  0.00000000E+00  0.00000000E+00  0.00000000E+00
  0.00000000E+00  0.00000000E+00  0.00000000E+00
  0.00000000E+00  0.00000000E+00  0.00000000E+00
  0.00000000E+00  0.00000000E+00  0.00000000E+00
  0.00000000E+00  0.00000000E+00  0.00000000E+00
  0.00000000E+00  0.00000000E+00  0.00000000E+00
  0.00000000E+00  0.00000000E+00  0.00000000E+00
  0.00000000E+00  0.00000000E+00  0.00000000E+00
  0.00000000E+00  0.00000000E+00  0.00000000E+00
  0.00000000E+00  0.00000000E+00  0.00000000E+00
  0.00000000E+00  0.00000000E+00  0.00000000E+00
  0.00000000E+00  0.00000000E+00  0.00000000E+00
  0.00000000E+00  0.00000000E+00  0.00000000E+00
  0.00000000E+00  0.00000000E+00  0.00000000E+00
  0.00000000E+00  0.00000000E+00  0.00000000E+00
  0.00000000E+00  0.00000000E+00  0.00000000E+00
  0.00000000E+00  0.00000000E+00  0.00000000E+00
  0.00000000E+00  0.00000000E+00  0.00000000E+00
  0.00000000E+00  0.00000000E+00  0.00000000E+00
  0.00000000E+00  0.00000000E+00  0.00000000E+00
  0.00000000E+00  0.00000000E+00  0.00000000E+00
  0.00000000E+00  0.00000000E+00  0.00000000E+00
  0.00000000E+00  0.00000000E+00  0.00000000E+00
  0.00000000E+00  0.00000000E+00  0.00000000E+00
  0.00000000E+00  0.00000000E+00  0.00000000E+00
  0.00000000E+00  0.00000000E+00  0.00000000E+00
  0.00000000E+00  0.00000000E+00  0.00000000E+00
  0.00000000E+00  0.00000000E+00  0.00000000E+00
  0.00000000E+00  0.00000000E+00  0.00000000E+00
  0.00000000E+00  0.00000000E+00  0.00000000E+00
  0.00000000E+00  0.00000000E+00  0.00000000E+00
