Ir  C  F                                
   1.00000000000000     
    10.9622130000000002    0.0000000000000000    0.0000000000000000
    -5.4811069999999997    9.4935550000000006    0.0000000000000000
     0.0000000000000000    0.0000000000000000   24.7129573799999989
   Ir   C    F 
    64     6     6
Selective dynamics
Direct
  0.7500000643925233  0.7500000284403470  0.3034845196661777   F   F   F
  0.0000000000000000  0.0000000000000000  0.3034845196661777   F   F   F
  0.0000000102134052  0.2500000094801180  0.3034845196661777   F   F   F
  0.0000000213390337  0.5000000189602289  0.3034845196661777   F   F   F
  0.0000000753392229  0.7500000284403470  0.3034845196661777   F   F   F
  0.2500000109466924  0.0000000000000000  0.3034845196661777   F   F   F
  0.2500000211600977  0.2500000094801180  0.3034845196661777   F   F   F
  0.2500000322857332  0.5000000189602289  0.3034845196661777   F   F   F
  0.5000000218933920  0.0000000000000000  0.3034845196661777   F   F   F
  0.5000000321067972  0.2500000094801180  0.3034845196661777   F   F   F
  0.5000000432324256  0.5000000189602289  0.3034845196661777   F   F   F
  0.5000000534458309  0.7500000284403470  0.3034845196661777   F   F   F
  0.7500000328400844  0.0000000000000000  0.3034845196661777   F   F   F
  0.7500000430534897  0.2500000094801180  0.3034845196661777   F   F   F
  0.7500000541791181  0.5000000189602289  0.3034845196661777   F   F   F
  0.2500000424991384  0.7500000284403470  0.3034845196661777   F   F   F
  0.0833330000000032  0.1666669999999968  0.3940302372665698   F   F   F
  0.0833330000000032  0.4166669999999968  0.3940302372665698   F   F   F
  0.0833330000000032  0.6666669999999968  0.3940302372665698   F   F   F
  0.0833330000000032  0.9166669999999968  0.3940302372665698   F   F   F
  0.3333330000000032  0.1666669999999968  0.3940302372665698   F   F   F
  0.3333330000000032  0.4166669999999968  0.3940302372665698   F   F   F
  0.3333330000000032  0.6666669999999968  0.3940302372665698   F   F   F
  0.3333330000000032  0.9166669999999968  0.3940302372665698   F   F   F
  0.5833330000000032  0.1666669999999968  0.3940302372665698   F   F   F
  0.5833330000000032  0.4166669999999968  0.3940302372665698   F   F   F
  0.5833330000000032  0.6666669999999968  0.3940302372665698   F   F   F
  0.5833330000000032  0.9166669999999968  0.3940302372665698   F   F   F
  0.8333330000000032  0.1666669999999968  0.3940302372665698   F   F   F
  0.8333330000000032  0.4166669999999968  0.3940302372665698   F   F   F
  0.8333330000000032  0.6666669999999968  0.3940302372665698   F   F   F
  0.8333330000000032  0.9166669999999968  0.3940302372665698   F   F   F
 -0.0000066653739632  0.0002790175783953  0.5728241444825621   T   T   T
 -0.0002642355986791  0.2500057890585104  0.5729324860583241   T   T   T
  0.0000030816399784  0.5002896433749038  0.5728276595190608   T   T   T
  0.0000079084942172  0.7501177559531789  0.5729878624827189   T   T   T
  0.2499788364470194 -0.0000357986647978  0.5729610142488437   T   T   T
  0.2500440746085026  0.2500208193895872  0.5729025584051938   T   T   T
  0.2498426254558950  0.5002577005595243  0.5726932330113519   T   T   T
  0.2501642981195474  0.7501529881994369  0.5729727632962026   T   T   T
  0.5001533955739187  0.0003840949077835  0.5728050946921363   T   T   T
  0.5001394290255553  0.2500196088599196  0.5727051959213104   T   T   T
  0.5001317293328155  0.5003734594057441  0.5727163750624702   T   T   T
  0.5000693630266833  0.7503247766975307  0.5729574966863057   T   T   T
  0.7499803578847636  0.0001030371100554  0.5729791648961966   T   T   T
  0.7501625618697809  0.2500785440039087  0.5729714458084049   T   T   T
  0.7502214394601384  0.5002489064167497  0.5729682163099857   T   T   T
  0.7502180798795538  0.7501644260998787  0.5729974810272538   T   T   T
  0.1666625554124482  0.0833292547378033  0.4834207124760214   T   T   T
  0.1665986209966990  0.3333415208186151  0.4835875876568883   T   T   T
  0.1667084787723705  0.5834490928275436  0.4833848759119305   T   T   T
  0.1666898885067635  0.8333610580424676  0.4836129176204721   T   T   T
  0.4166323988598981  0.0833641286857725  0.4833694909383584   T   T   T
  0.4166838064916339  0.3334275027698896  0.4833647094424017   T   T   T
  0.4167060782223237  0.5834902744909577  0.4834016973661858   T   T   T
  0.4166762027257450  0.8333754297477139  0.4834167145505405   T   T   T
  0.6666773238242101  0.0834505621037376  0.4834285651955989   T   T   T
  0.6669010834650277  0.3336417786266745  0.4835791722458336   T   T   T
  0.6668002177543366  0.5835026501785323  0.4834138633639407   T   T   T
  0.6667701943476649  0.8334572913786055  0.4836456633691058   T   T   T
  0.9167016349127649  0.0833768292645319  0.4834036433888450   T   T   T
  0.9167091388538621  0.3333725880510906  0.4834242433728290   T   T   T
  0.9167815290372338  0.5834734746751684  0.4833921798941728   T   T   T
  0.9167156851374438  0.8333564357286403  0.4834024003916363   T   T   T
  0.3001243351598779  0.2263891902282407  0.7033854608024616   T   T   T
  0.2263942789789707  0.3001249747802915  0.7033839168311620   T   T   T
  0.3000497072465715  0.4471736004203549  0.7039425413719181   T   T   T
  0.4471370649828427  0.5208316308958142  0.7035132554350977   T   T   T
  0.5208428118302272  0.4471506943671637  0.7035188483709650   T   T   T
  0.4471796514186646  0.3000559831668451  0.7039545490550537   T   T   T
  0.2295185115978849  0.0848847098232761  0.7047939855111380   T   T   T
  0.0848852899665782  0.2295413092267409  0.7047653394353047   T   T   T
  0.2291649095232239  0.5180004743696963  0.7055387789180750   T   T   T
  0.5176267886030627  0.6623270944308424  0.7049840227255161   T   T   T
  0.6623421232925533  0.5177044267955320  0.7050132340070916   T   T   T
  0.5180159404870929  0.2291828725647006  0.7056429211473124   T   T   T
 
  0.00000000E+00  0.00000000E+00  0.00000000E+00
  0.00000000E+00  0.00000000E+00  0.00000000E+00
  0.00000000E+00  0.00000000E+00  0.00000000E+00
  0.00000000E+00  0.00000000E+00  0.00000000E+00
  0.00000000E+00  0.00000000E+00  0.00000000E+00
  0.00000000E+00  0.00000000E+00  0.00000000E+00
  0.00000000E+00  0.00000000E+00  0.00000000E+00
  0.00000000E+00  0.00000000E+00  0.00000000E+00
  0.00000000E+00  0.00000000E+00  0.00000000E+00
  0.00000000E+00  0.00000000E+00  0.00000000E+00
  0.00000000E+00  0.00000000E+00  0.00000000E+00
  0.00000000E+00  0.00000000E+00  0.00000000E+00
  0.00000000E+00  0.00000000E+00  0.00000000E+00
  0.00000000E+00  0.00000000E+00  0.00000000E+00
  0.00000000E+00  0.00000000E+00  0.00000000E+00
  0.00000000E+00  0.00000000E+00  0.00000000E+00
  0.00000000E+00  0.00000000E+00  0.00000000E+00
  0.00000000E+00  0.00000000E+00  0.00000000E+00
  0.00000000E+00  0.00000000E+00  0.00000000E+00
  0.00000000E+00  0.00000000E+00  0.00000000E+00
  0.00000000E+00  0.00000000E+00  0.00000000E+00
  0.00000000E+00  0.00000000E+00  0.00000000E+00
  0.00000000E+00  0.00000000E+00  0.00000000E+00
  0.00000000E+00  0.00000000E+00  0.00000000E+00
  0.00000000E+00  0.00000000E+00  0.00000000E+00
  0.00000000E+00  0.00000000E+00  0.00000000E+00
  0.00000000E+00  0.00000000E+00  0.00000000E+00
  0.00000000E+00  0.00000000E+00  0.00000000E+00
  0.00000000E+00  0.00000000E+00  0.00000000E+00
  0.00000000E+00  0.00000000E+00  0.00000000E+00
  0.00000000E+00  0.00000000E+00  0.00000000E+00
  0.00000000E+00  0.00000000E+00  0.00000000E+00
  0.00000000E+00  0.00000000E+00  0.00000000E+00
  0.00000000E+00  0.00000000E+00  0.00000000E+00
  0.00000000E+00  0.00000000E+00  0.00000000E+00
  0.00000000E+00  0.00000000E+00  0.00000000E+00
  0.00000000E+00  0.00000000E+00  0.00000000E+00
  0.00000000E+00  0.00000000E+00  0.00000000E+00
  0.00000000E+00  0.00000000E+00  0.00000000E+00
  0.00000000E+00  0.00000000E+00  0.00000000E+00
  0.00000000E+00  0.00000000E+00  0.00000000E+00
  0.00000000E+00  0.00000000E+00  0.00000000E+00
  0.00000000E+00  0.00000000E+00  0.00000000E+00
  0.00000000E+00  0.00000000E+00  0.00000000E+00
  0.00000000E+00  0.00000000E+00  0.00000000E+00
  0.00000000E+00  0.00000000E+00  0.00000000E+00
  0.00000000E+00  0.00000000E+00  0.00000000E+00
  0.00000000E+00  0.00000000E+00  0.00000000E+00
  0.00000000E+00  0.00000000E+00  0.00000000E+00
  0.00000000E+00  0.00000000E+00  0.00000000E+00
  0.00000000E+00  0.00000000E+00  0.00000000E+00
  0.00000000E+00  0.00000000E+00  0.00000000E+00
  0.00000000E+00  0.00000000E+00  0.00000000E+00
  0.00000000E+00  0.00000000E+00  0.00000000E+00
  0.00000000E+00  0.00000000E+00  0.00000000E+00
  0.00000000E+00  0.00000000E+00  0.00000000E+00
  0.00000000E+00  0.00000000E+00  0.00000000E+00
  0.00000000E+00  0.00000000E+00  0.00000000E+00
  0.00000000E+00  0.00000000E+00  0.00000000E+00
  0.00000000E+00  0.00000000E+00  0.00000000E+00
  0.00000000E+00  0.00000000E+00  0.00000000E+00
  0.00000000E+00  0.00000000E+00  0.00000000E+00
  0.00000000E+00  0.00000000E+00  0.00000000E+00
  0.00000000E+00  0.00000000E+00  0.00000000E+00
  0.00000000E+00  0.00000000E+00  0.00000000E+00
  0.00000000E+00  0.00000000E+00  0.00000000E+00
  0.00000000E+00  0.00000000E+00  0.00000000E+00
  0.00000000E+00  0.00000000E+00  0.00000000E+00
  0.00000000E+00  0.00000000E+00  0.00000000E+00
  0.00000000E+00  0.00000000E+00  0.00000000E+00
  0.00000000E+00  0.00000000E+00  0.00000000E+00
  0.00000000E+00  0.00000000E+00  0.00000000E+00
  0.00000000E+00  0.00000000E+00  0.00000000E+00
  0.00000000E+00  0.00000000E+00  0.00000000E+00
  0.00000000E+00  0.00000000E+00  0.00000000E+00
  0.00000000E+00  0.00000000E+00  0.00000000E+00
