Ir  C  H  F                             
   1.00000000000000     
    10.9622130000000002    0.0000000000000000    0.0000000000000000
    -5.4811069999999997    9.4935550000000006    0.0000000000000000
     0.0000000000000000    0.0000000000000000   24.7129573799999989
   Ir   C    H    F 
    64     6     2     4
Selective dynamics
Direct
  0.7500000643925233  0.7500000284403470  0.3034845196661777   F   F   F
  0.0000000000000000  0.0000000000000000  0.3034845196661777   F   F   F
  0.0000000102134052  0.2500000094801180  0.3034845196661777   F   F   F
  0.0000000213390337  0.5000000189602289  0.3034845196661777   F   F   F
  0.0000000753392229  0.7500000284403470  0.3034845196661777   F   F   F
  0.2500000109466924  0.0000000000000000  0.3034845196661777   F   F   F
  0.2500000211600977  0.2500000094801180  0.3034845196661777   F   F   F
  0.2500000322857332  0.5000000189602289  0.3034845196661777   F   F   F
  0.5000000218933920  0.0000000000000000  0.3034845196661777   F   F   F
  0.5000000321067972  0.2500000094801180  0.3034845196661777   F   F   F
  0.5000000432324256  0.5000000189602289  0.3034845196661777   F   F   F
  0.5000000534458309  0.7500000284403470  0.3034845196661777   F   F   F
  0.7500000328400844  0.0000000000000000  0.3034845196661777   F   F   F
  0.7500000430534897  0.2500000094801180  0.3034845196661777   F   F   F
  0.7500000541791181  0.5000000189602289  0.3034845196661777   F   F   F
  0.2500000424991384  0.7500000284403470  0.3034845196661777   F   F   F
  0.0833330000000032  0.1666669999999968  0.3940302372665698   F   F   F
  0.0833330000000032  0.4166669999999968  0.3940302372665698   F   F   F
  0.0833330000000032  0.6666669999999968  0.3940302372665698   F   F   F
  0.0833330000000032  0.9166669999999968  0.3940302372665698   F   F   F
  0.3333330000000032  0.1666669999999968  0.3940302372665698   F   F   F
  0.3333330000000032  0.4166669999999968  0.3940302372665698   F   F   F
  0.3333330000000032  0.6666669999999968  0.3940302372665698   F   F   F
  0.3333330000000032  0.9166669999999968  0.3940302372665698   F   F   F
  0.5833330000000032  0.1666669999999968  0.3940302372665698   F   F   F
  0.5833330000000032  0.4166669999999968  0.3940302372665698   F   F   F
  0.5833330000000032  0.6666669999999968  0.3940302372665698   F   F   F
  0.5833330000000032  0.9166669999999968  0.3940302372665698   F   F   F
  0.8333330000000032  0.1666669999999968  0.3940302372665698   F   F   F
  0.8333330000000032  0.4166669999999968  0.3940302372665698   F   F   F
  0.8333330000000032  0.6666669999999968  0.3940302372665698   F   F   F
  0.8333330000000032  0.9166669999999968  0.3940302372665698   F   F   F
  0.0000304821135953  0.0002089592327227  0.5730992750201273   T   T   T
 -0.0000796869978385  0.2500316751398768  0.5730841405825738   T   T   T
  0.0001324262808725  0.5001799580179007  0.5731723107000215   T   T   T
  0.0000645266603648  0.7501911492286869  0.5730793387580996   T   T   T
  0.2498832936771411 -0.0000336848755989  0.5731362253219693   T   T   T
  0.2500581650419971  0.2500367568216690  0.5731444000119278   T   T   T
  0.2501005852375098  0.5000626299003793  0.5732866797550144   T   T   T
  0.2501750929035094  0.7501666755210881  0.5731636796190890   T   T   T
  0.5000977119794238  0.0001758657191124  0.5731915969114953   T   T   T
  0.5000300297350676  0.2501496856265322  0.5733279875877889   T   T   T
  0.5003194123110398  0.5002564452078826  0.5731443697884546   T   T   T
  0.5001976149859966  0.7503248203828815  0.5731094493213534   T   T   T
  0.7500345543258223  0.0000507653092441  0.5730997836696717   T   T   T
  0.7501075364682287  0.2501676170085094  0.5731761571430477   T   T   T
  0.7500936574963910  0.5001314802838207  0.5731409165726679   T   T   T
  0.7501491075555765  0.7502384179153289  0.5731078365437785   T   T   T
  0.1667624317037076  0.0833659496713779  0.4836017973039096   T   T   T
  0.1666865454853281  0.3333593590394761  0.4836995072842438   T   T   T
  0.1668105949654652  0.5832757979915986  0.4836905951750314   T   T   T
  0.1667589089076201  0.8332823284407567  0.4836641737645561   T   T   T
  0.4166842993820023  0.0835090963183427  0.4836547218944963   T   T   T
  0.4166611833227670  0.3334768481669540  0.4835930087469466   T   T   T
  0.4167815027452839  0.5834466225204408  0.4836189226067039   T   T   T
  0.4167100839252832  0.8334172166006788  0.4836317296617361   T   T   T
  0.6666701586826133  0.0834418886607939  0.4836217813478694   T   T   T
  0.6665618714595286  0.3333967880493546  0.4837710325564770   T   T   T
  0.6668023545221804  0.5834099962409083  0.4836034439080432   T   T   T
  0.6667514310723213  0.8334165990657441  0.4836902177898410   T   T   T
  0.9167395631366582  0.0834125049862871  0.4835974763146365   T   T   T
  0.9166664183192860  0.3334044544556595  0.4836324779365947   T   T   T
  0.9167910370062260  0.5833731321876126  0.4835953751041508   T   T   T
  0.9167784816390656  0.8333656307335304  0.4835845914065098   T   T   T
  0.2998070123557767  0.4486071583245640  0.7045562009889732   T   T   T
  0.4465339674354858  0.5206118063936759  0.7050337403885673   T   T   T
  0.5200837886300703  0.4467241155006572  0.7052769341141987   T   T   T
  0.4479873320299276  0.3000996094895212  0.7050853370413340   T   T   T
  0.3013340617542092  0.2280948035270771  0.7050846906713506   T   T   T
  0.2277419978262258  0.3019803502164959  0.7048284640598770   T   T   T
  0.2427130289651536  0.5062330172515987  0.7045347520975478   T   T   T
  0.5054374704038201  0.2428270965889903  0.7054800381866575   T   T   T
  0.5184223599339173  0.6627614782883153  0.7065303021369043   T   T   T
  0.6623090708494881  0.5185636385463707  0.7069112401596153   T   T   T
  0.2290893569998690  0.0859364255239463  0.7066492096164501   T   T   T
  0.0854467127064433  0.2300201480899048  0.7061393638795220   T   T   T
 
  0.00000000E+00  0.00000000E+00  0.00000000E+00
  0.00000000E+00  0.00000000E+00  0.00000000E+00
  0.00000000E+00  0.00000000E+00  0.00000000E+00
  0.00000000E+00  0.00000000E+00  0.00000000E+00
  0.00000000E+00  0.00000000E+00  0.00000000E+00
  0.00000000E+00  0.00000000E+00  0.00000000E+00
  0.00000000E+00  0.00000000E+00  0.00000000E+00
  0.00000000E+00  0.00000000E+00  0.00000000E+00
  0.00000000E+00  0.00000000E+00  0.00000000E+00
  0.00000000E+00  0.00000000E+00  0.00000000E+00
  0.00000000E+00  0.00000000E+00  0.00000000E+00
  0.00000000E+00  0.00000000E+00  0.00000000E+00
  0.00000000E+00  0.00000000E+00  0.00000000E+00
  0.00000000E+00  0.00000000E+00  0.00000000E+00
  0.00000000E+00  0.00000000E+00  0.00000000E+00
  0.00000000E+00  0.00000000E+00  0.00000000E+00
  0.00000000E+00  0.00000000E+00  0.00000000E+00
  0.00000000E+00  0.00000000E+00  0.00000000E+00
  0.00000000E+00  0.00000000E+00  0.00000000E+00
  0.00000000E+00  0.00000000E+00  0.00000000E+00
  0.00000000E+00  0.00000000E+00  0.00000000E+00
  0.00000000E+00  0.00000000E+00  0.00000000E+00
  0.00000000E+00  0.00000000E+00  0.00000000E+00
  0.00000000E+00  0.00000000E+00  0.00000000E+00
  0.00000000E+00  0.00000000E+00  0.00000000E+00
  0.00000000E+00  0.00000000E+00  0.00000000E+00
  0.00000000E+00  0.00000000E+00  0.00000000E+00
  0.00000000E+00  0.00000000E+00  0.00000000E+00
  0.00000000E+00  0.00000000E+00  0.00000000E+00
  0.00000000E+00  0.00000000E+00  0.00000000E+00
  0.00000000E+00  0.00000000E+00  0.00000000E+00
  0.00000000E+00  0.00000000E+00  0.00000000E+00
  0.00000000E+00  0.00000000E+00  0.00000000E+00
  0.00000000E+00  0.00000000E+00  0.00000000E+00
  0.00000000E+00  0.00000000E+00  0.00000000E+00
  0.00000000E+00  0.00000000E+00  0.00000000E+00
  0.00000000E+00  0.00000000E+00  0.00000000E+00
  0.00000000E+00  0.00000000E+00  0.00000000E+00
  0.00000000E+00  0.00000000E+00  0.00000000E+00
  0.00000000E+00  0.00000000E+00  0.00000000E+00
  0.00000000E+00  0.00000000E+00  0.00000000E+00
  0.00000000E+00  0.00000000E+00  0.00000000E+00
  0.00000000E+00  0.00000000E+00  0.00000000E+00
  0.00000000E+00  0.00000000E+00  0.00000000E+00
  0.00000000E+00  0.00000000E+00  0.00000000E+00
  0.00000000E+00  0.00000000E+00  0.00000000E+00
  0.00000000E+00  0.00000000E+00  0.00000000E+00
  0.00000000E+00  0.00000000E+00  0.00000000E+00
  0.00000000E+00  0.00000000E+00  0.00000000E+00
  0.00000000E+00  0.00000000E+00  0.00000000E+00
  0.00000000E+00  0.00000000E+00  0.00000000E+00
  0.00000000E+00  0.00000000E+00  0.00000000E+00
  0.00000000E+00  0.00000000E+00  0.00000000E+00
  0.00000000E+00  0.00000000E+00  0.00000000E+00
  0.00000000E+00  0.00000000E+00  0.00000000E+00
  0.00000000E+00  0.00000000E+00  0.00000000E+00
  0.00000000E+00  0.00000000E+00  0.00000000E+00
  0.00000000E+00  0.00000000E+00  0.00000000E+00
  0.00000000E+00  0.00000000E+00  0.00000000E+00
  0.00000000E+00  0.00000000E+00  0.00000000E+00
  0.00000000E+00  0.00000000E+00  0.00000000E+00
  0.00000000E+00  0.00000000E+00  0.00000000E+00
  0.00000000E+00  0.00000000E+00  0.00000000E+00
  0.00000000E+00  0.00000000E+00  0.00000000E+00
  0.00000000E+00  0.00000000E+00  0.00000000E+00
  0.00000000E+00  0.00000000E+00  0.00000000E+00
  0.00000000E+00  0.00000000E+00  0.00000000E+00
  0.00000000E+00  0.00000000E+00  0.00000000E+00
  0.00000000E+00  0.00000000E+00  0.00000000E+00
  0.00000000E+00  0.00000000E+00  0.00000000E+00
  0.00000000E+00  0.00000000E+00  0.00000000E+00
  0.00000000E+00  0.00000000E+00  0.00000000E+00
  0.00000000E+00  0.00000000E+00  0.00000000E+00
  0.00000000E+00  0.00000000E+00  0.00000000E+00
  0.00000000E+00  0.00000000E+00  0.00000000E+00
  0.00000000E+00  0.00000000E+00  0.00000000E+00
