Ag  C  F                                
    1.000000000000000     
    11.7702790000000004    0.0000000000000000    0.0000000000000000
     0.0000000000000000   16.6456881000000010    0.0000000000000000
     0.0000000000000000    0.0000000000000000   22.4138546100000013
   Ag   C    F 
    64     6     6
Selective dynamics
Direct
  0.0000000000000000  0.2500000003003748  0.3346144663869595   F   F   F
  0.7499999974512050  0.7500000015018884  0.3346144663869595   F   F   F
  0.0000000000000000  0.5000000012015136  0.3346144663869595   F   F   F
  0.0000000000000000  0.7500000015018884  0.3346144663869595   F   F   F
  0.0000000000000000  0.0000000000000000  0.3346144663869595   F   F   F
  0.2499999991504041  0.2500000003003748  0.3346144663869595   F   F   F
  0.2499999991504041  0.5000000012015136  0.3346144663869595   F   F   F
  0.7499999974512050  0.0000000000000000  0.3346144663869595   F   F   F
  0.2499999991504041  0.7500000015018884  0.3346144663869595   F   F   F
  0.2499999991504041  0.0000000000000000  0.3346144663869595   F   F   F
  0.4999999983008081  0.2500000003003748  0.3346144663869595   F   F   F
  0.4999999983008081  0.5000000012015136  0.3346144663869595   F   F   F
  0.4999999983008081  0.7500000015018884  0.3346144663869595   F   F   F
  0.4999999983008081  0.0000000000000000  0.3346144663869595   F   F   F
  0.7499999974512050  0.2500000003003748  0.3346144663869595   F   F   F
  0.7499999974512050  0.5000000012015136  0.3346144663869595   F   F   F
  0.9999737447821854  0.2500864276305076  0.4628170538626367   T   T   T
  0.0000000000000000  0.5000000012015136  0.4627813707173373   T   T   T
  0.0000262552178149  0.7499135741717557  0.4628170538626367   T   T   T
  0.0000000000000000  0.0000000000000000  0.4627836375851803   T   T   T
  0.2499237166052454  0.2500158520708394  0.4627142002694973   T   T   T
  0.2499974252786414  0.4999907826954001  0.4627912784469115   T   T   T
  0.2499326547700000  0.7499584597722228  0.4627335421476432   T   T   T
  0.2500373235875405  0.0000020061228950  0.4627720013727809   T   T   T
  0.5000305359097370  0.2499719617672293  0.4626834861985443   T   T   T
  0.4999999983008081  0.5000000012015136  0.4628921467160536   T   T   T
  0.4999694606918794  0.7500280400350340  0.4626834861985443   T   T   T
  0.4999999983008081  0.0000000000000000  0.4627866399545948   T   T   T
  0.7500673418316088  0.2500415420300404  0.4627335421476432   T   T   T
  0.7500025713229747  0.5000092197076271  0.4627912784469115   T   T   T
  0.7500762799963635  0.7499841497314238  0.4627142002694973   T   T   T
  0.7499626730140685 -0.0000020061228949  0.4627720013727809   T   T   T
  0.1249469968747802  0.1250091020526193  0.5211363114208926   T   T   T
  0.1250218549710133  0.3751233197415368  0.5211754890958940   T   T   T
  0.1251144828548907  0.6248631360211765  0.5212091752291368   T   T   T
  0.1249557563280748  0.8749920982409443  0.5211356221622205   T   T   T
  0.3750404752567923  0.1250546354919566  0.5211386839374111   T   T   T
  0.3752094840048610  0.3750020038056670  0.5208246361560311   T   T   T
  0.3750665316655571  0.6249036003489316  0.5209106104605076   T   T   T
  0.3750355322290366  0.8749538996798467  0.5211401959145753   T   T   T
  0.6249644643725724  0.1250461027231803  0.5211401959145753   T   T   T
  0.6249334649360522  0.3750964020540956  0.5209106104605076   T   T   T
  0.6247905125967479  0.6249979985973603  0.5208246361560311   T   T   T
  0.6249595213448166  0.8749453669110706  0.5211386839374111   T   T   T
  0.8750442402735343  0.1250079041620829  0.5211356221622205   T   T   T
  0.8748855137467185  0.3751368663818506  0.5212091752291368   T   T   T
  0.8749781416305956  0.6248766826614903  0.5211754890958940   T   T   T
  0.8750529997268288  0.8749909003504077  0.5211363114208926   T   T   T
  0.1249999995752020  0.1250000004505694  0.4002562266107219   F   F   F
  0.1249999995752020  0.3750000007509442  0.4002562266107219   F   F   F
  0.1249999995752020  0.6250000016520829  0.4002562266107219   F   F   F
  0.1249999995752020  0.8750000019524578  0.4002562266107219   F   F   F
  0.3749999987256061  0.1250000004505694  0.4002562266107219   F   F   F
  0.3749999987256061  0.3750000007509442  0.4002562266107219   F   F   F
  0.3749999987256061  0.6250000016520829  0.4002562266107219   F   F   F
  0.3749999987256061  0.8750000019524578  0.4002562266107219   F   F   F
  0.6249999978760030  0.1250000004505694  0.4002562266107219   F   F   F
  0.6249999978760030  0.3750000007509442  0.4002562266107219   F   F   F
  0.6249999978760030  0.6250000016520829  0.4002562266107219   F   F   F
  0.6249999978760030  0.8750000019524578  0.4002562266107219   F   F   F
  0.8749999970264071  0.1250000004505694  0.4002562266107219   F   F   F
  0.8749999970264071  0.3750000007509442  0.4002562266107219   F   F   F
  0.8749999970264071  0.6250000016520829  0.4002562266107219   F   F   F
  0.8749999970264071  0.8750000019524578  0.4002562266107219   F   F   F
  0.6182357741764199  0.4923819872612551  0.6545349867602278   T   T   T
  0.5497477907122528  0.4240159563327364  0.6545783784760988   T   T   T
  0.4316967036211478  0.4317270614755888  0.6547026759476926   T   T   T
  0.3817642462139185  0.5076180271568932  0.6545349867602278   T   T   T
  0.4502521812510238  0.5759840340551695  0.6545783784760988   T   T   T
  0.5683032929804616  0.5682729409274384  0.6547026759476926   T   T   T
  0.7322245340747795  0.4851734833718527  0.6541448789451124   T   T   T
  0.5977625450465671  0.3502541961829905  0.6556416162329521   T   T   T
  0.3655303663571043  0.3653225760010919  0.6557024866647130   T   T   T
  0.2677754625268296  0.5148265190311672  0.6541448789451124   T   T   T
  0.4022373886848281  0.6497457869958341  0.6556416162329521   T   T   T
  0.6344696056061796  0.6346774143868068  0.6557024866647130   T   T   T
 
  0.00000000E+00  0.00000000E+00  0.00000000E+00
  0.00000000E+00  0.00000000E+00  0.00000000E+00
  0.00000000E+00  0.00000000E+00  0.00000000E+00
  0.00000000E+00  0.00000000E+00  0.00000000E+00
  0.00000000E+00  0.00000000E+00  0.00000000E+00
  0.00000000E+00  0.00000000E+00  0.00000000E+00
  0.00000000E+00  0.00000000E+00  0.00000000E+00
  0.00000000E+00  0.00000000E+00  0.00000000E+00
  0.00000000E+00  0.00000000E+00  0.00000000E+00
  0.00000000E+00  0.00000000E+00  0.00000000E+00
  0.00000000E+00  0.00000000E+00  0.00000000E+00
  0.00000000E+00  0.00000000E+00  0.00000000E+00
  0.00000000E+00  0.00000000E+00  0.00000000E+00
  0.00000000E+00  0.00000000E+00  0.00000000E+00
  0.00000000E+00  0.00000000E+00  0.00000000E+00
  0.00000000E+00  0.00000000E+00  0.00000000E+00
  0.00000000E+00  0.00000000E+00  0.00000000E+00
  0.00000000E+00  0.00000000E+00  0.00000000E+00
  0.00000000E+00  0.00000000E+00  0.00000000E+00
  0.00000000E+00  0.00000000E+00  0.00000000E+00
  0.00000000E+00  0.00000000E+00  0.00000000E+00
  0.00000000E+00  0.00000000E+00  0.00000000E+00
  0.00000000E+00  0.00000000E+00  0.00000000E+00
  0.00000000E+00  0.00000000E+00  0.00000000E+00
  0.00000000E+00  0.00000000E+00  0.00000000E+00
  0.00000000E+00  0.00000000E+00  0.00000000E+00
  0.00000000E+00  0.00000000E+00  0.00000000E+00
  0.00000000E+00  0.00000000E+00  0.00000000E+00
  0.00000000E+00  0.00000000E+00  0.00000000E+00
  0.00000000E+00  0.00000000E+00  0.00000000E+00
  0.00000000E+00  0.00000000E+00  0.00000000E+00
  0.00000000E+00  0.00000000E+00  0.00000000E+00
  0.00000000E+00  0.00000000E+00  0.00000000E+00
  0.00000000E+00  0.00000000E+00  0.00000000E+00
  0.00000000E+00  0.00000000E+00  0.00000000E+00
  0.00000000E+00  0.00000000E+00  0.00000000E+00
  0.00000000E+00  0.00000000E+00  0.00000000E+00
  0.00000000E+00  0.00000000E+00  0.00000000E+00
  0.00000000E+00  0.00000000E+00  0.00000000E+00
  0.00000000E+00  0.00000000E+00  0.00000000E+00
  0.00000000E+00  0.00000000E+00  0.00000000E+00
  0.00000000E+00  0.00000000E+00  0.00000000E+00
  0.00000000E+00  0.00000000E+00  0.00000000E+00
  0.00000000E+00  0.00000000E+00  0.00000000E+00
  0.00000000E+00  0.00000000E+00  0.00000000E+00
  0.00000000E+00  0.00000000E+00  0.00000000E+00
  0.00000000E+00  0.00000000E+00  0.00000000E+00
  0.00000000E+00  0.00000000E+00  0.00000000E+00
  0.00000000E+00  0.00000000E+00  0.00000000E+00
  0.00000000E+00  0.00000000E+00  0.00000000E+00
  0.00000000E+00  0.00000000E+00  0.00000000E+00
  0.00000000E+00  0.00000000E+00  0.00000000E+00
  0.00000000E+00  0.00000000E+00  0.00000000E+00
  0.00000000E+00  0.00000000E+00  0.00000000E+00
  0.00000000E+00  0.00000000E+00  0.00000000E+00
  0.00000000E+00  0.00000000E+00  0.00000000E+00
  0.00000000E+00  0.00000000E+00  0.00000000E+00
  0.00000000E+00  0.00000000E+00  0.00000000E+00
  0.00000000E+00  0.00000000E+00  0.00000000E+00
  0.00000000E+00  0.00000000E+00  0.00000000E+00
  0.00000000E+00  0.00000000E+00  0.00000000E+00
  0.00000000E+00  0.00000000E+00  0.00000000E+00
  0.00000000E+00  0.00000000E+00  0.00000000E+00
  0.00000000E+00  0.00000000E+00  0.00000000E+00
  0.00000000E+00  0.00000000E+00  0.00000000E+00
  0.00000000E+00  0.00000000E+00  0.00000000E+00
  0.00000000E+00  0.00000000E+00  0.00000000E+00
  0.00000000E+00  0.00000000E+00  0.00000000E+00
  0.00000000E+00  0.00000000E+00  0.00000000E+00
  0.00000000E+00  0.00000000E+00  0.00000000E+00
  0.00000000E+00  0.00000000E+00  0.00000000E+00
  0.00000000E+00  0.00000000E+00  0.00000000E+00
  0.00000000E+00  0.00000000E+00  0.00000000E+00
  0.00000000E+00  0.00000000E+00  0.00000000E+00
  0.00000000E+00  0.00000000E+00  0.00000000E+00
  0.00000000E+00  0.00000000E+00  0.00000000E+00
