H2 Pt48 C6 Cl4                          
    1.000000000000000     
    11.2480069999999994    0.0000000000000000    0.0000000000000000
    -5.6240030000000001    9.7410599999999992    0.0000000000000000
     0.0000000000000000    0.0000000000000000   16.5940830000000012
   H    Pt   C    Cl
     2    48     6     4
Selective dynamics
Direct
  0.7472590879295353  0.5027401564459026  0.8066287855245164   T   T   T
  0.5020780240173650  0.7479441401860853  0.8072542472803192   T   T   T
  0.0833330000000032  0.1666669999999968  0.3615750000000020   F   F   F
  0.0833330000000032  0.4166669999999968  0.3615750000000020   F   F   F
  0.0833330000000032  0.6666669999999968  0.3615750000000020   F   F   F
  0.0833330000000032  0.9166669999999968  0.3615750000000020   F   F   F
  0.3333330000000032  0.1666669999999968  0.3615750000000020   F   F   F
  0.3333330000000032  0.4166669999999968  0.3615750000000020   F   F   F
  0.3333330000000032  0.6666669999999968  0.3615750000000020   F   F   F
  0.3333330000000032  0.9166669999999968  0.3615750000000020   F   F   F
  0.5833330000000032  0.1666669999999968  0.3615750000000020   F   F   F
  0.5833330000000032  0.4166669999999968  0.3615750000000020   F   F   F
  0.5833330000000032  0.6666669999999968  0.3615750000000020   F   F   F
  0.5833330000000032  0.9166669999999968  0.3615750000000020   F   F   F
  0.8333330000000032  0.1666669999999968  0.3615750000000020   F   F   F
  0.8333330000000032  0.4166669999999968  0.3615750000000020   F   F   F
  0.8333330000000032  0.6666669999999968  0.3615750000000020   F   F   F
  0.8333330000000032  0.9166669999999968  0.3615750000000020   F   F   F
  0.2441472889628145  0.2448717876773046  0.6401383789463537   T   T   T
  0.2413356703518659  0.4979787087129921  0.6394106920837785   T   T   T
  0.2507409078788498  0.7499373001304761  0.6420108491287095   T   T   T
  0.2507498308588794  0.9992382761236414  0.6413071582547616   T   T   T
  0.4972058351674136  0.2424018161848664  0.6391991094082670   T   T   T
  0.4887663012725980  0.4908741018136595  0.6479406982255611   T   T   T
  0.5000048687544165  0.7499988891075233  0.6489288896518133   T   T   T
  0.5000609946263737  0.9992544477914223  0.6420090692714098   T   T   T
  0.7493963534372057  0.2519553400281183  0.6421990192363580   T   T   T
  0.7478872721714680  0.5021095770280724  0.6481612367169802   T   T   T
  0.7591269107269483  0.7612333635273387  0.6479420653925274   T   T   T
  0.7520198101197550  0.0086692354618592  0.6394161805794596   T   T   T
  0.9981358608626962  0.2518520028167472  0.6414623952468688   T   T   T
  0.9980394273813644  0.5005978615784841  0.6421894857651225   T   T   T
  0.0075983738164211  0.7527923086086972  0.6392012223436510   T   T   T
  0.0051257466658328  0.0058492018285605  0.6401509078824361   T   T   T
  0.1678693144976293  0.0821161194345805  0.4994679959284767   T   T   T
  0.1666715160449073  0.3328928263280631  0.5002315307841840   T   T   T
  0.1656116915244255  0.5836205641590766  0.5003405551413493   T   T   T
  0.1678149154883712  0.8328858923468090  0.4998076658929236   T   T   T
  0.4171120782870688  0.0821818019065645  0.4998083592292843   T   T   T
  0.4174617622796717  0.3351250076798209  0.5028203557266337   T   T   T
  0.4172395784295588  0.5834111541466172  0.5042934693697916   T   T   T
  0.4185383981150963  0.8314657653672768  0.5040491627475276   T   T   T
  0.6663844014833202  0.0843873662840480  0.5003522343310607   T   T   T
  0.6669376536053946  0.3357637177936752  0.5029506335242360   T   T   T
  0.6658891429297498  0.5841136603860875  0.5050993158638661   T   T   T
  0.6665909571999578  0.8327692104734439  0.5042960320646372   T   T   T
  0.9171043467037592  0.0833199571274363  0.5002406340256940   T   T   T
  0.9161100437454834  0.3338754989545407  0.5010422438540374   T   T   T
  0.9142303762832213  0.5830653734733957  0.5029458739293418   T   T   T
  0.9148790409060368  0.8325424576561815  0.5028251450761516   T   T   T
  0.7035003115571286  0.5465101678066020  0.7650171520260756   T   T   T
  0.5511780401800266  0.4773260198619056  0.7692838565539617   T   T   T
  0.4767717173688766  0.5519397430588668  0.7697437160959666   T   T   T
  0.5458611351740998  0.7041589497574421  0.7655986385685694   T   T   T
  0.6980799803122437  0.7732430683583402  0.7697495656059843   T   T   T
  0.7726837002782077  0.6988234996394880  0.7692849018734407   T   T   T
  0.4768191812750260  0.3159808480181212  0.8146518809308603   T   T   T
  0.3156546637978863  0.4770570649492782  0.8153376832954962   T   T   T
  0.7729661713001690  0.9343503182468709  0.8153519827396778   T   T   T
  0.9340367940021110  0.7731793118573975  0.8146499384074133   T   T   T
 
  0.00000000E+00  0.00000000E+00  0.00000000E+00
  0.00000000E+00  0.00000000E+00  0.00000000E+00
  0.00000000E+00  0.00000000E+00  0.00000000E+00
  0.00000000E+00  0.00000000E+00  0.00000000E+00
  0.00000000E+00  0.00000000E+00  0.00000000E+00
  0.00000000E+00  0.00000000E+00  0.00000000E+00
  0.00000000E+00  0.00000000E+00  0.00000000E+00
  0.00000000E+00  0.00000000E+00  0.00000000E+00
  0.00000000E+00  0.00000000E+00  0.00000000E+00
  0.00000000E+00  0.00000000E+00  0.00000000E+00
  0.00000000E+00  0.00000000E+00  0.00000000E+00
  0.00000000E+00  0.00000000E+00  0.00000000E+00
  0.00000000E+00  0.00000000E+00  0.00000000E+00
  0.00000000E+00  0.00000000E+00  0.00000000E+00
  0.00000000E+00  0.00000000E+00  0.00000000E+00
  0.00000000E+00  0.00000000E+00  0.00000000E+00
  0.00000000E+00  0.00000000E+00  0.00000000E+00
  0.00000000E+00  0.00000000E+00  0.00000000E+00
  0.00000000E+00  0.00000000E+00  0.00000000E+00
  0.00000000E+00  0.00000000E+00  0.00000000E+00
  0.00000000E+00  0.00000000E+00  0.00000000E+00
  0.00000000E+00  0.00000000E+00  0.00000000E+00
  0.00000000E+00  0.00000000E+00  0.00000000E+00
  0.00000000E+00  0.00000000E+00  0.00000000E+00
  0.00000000E+00  0.00000000E+00  0.00000000E+00
  0.00000000E+00  0.00000000E+00  0.00000000E+00
  0.00000000E+00  0.00000000E+00  0.00000000E+00
  0.00000000E+00  0.00000000E+00  0.00000000E+00
  0.00000000E+00  0.00000000E+00  0.00000000E+00
  0.00000000E+00  0.00000000E+00  0.00000000E+00
  0.00000000E+00  0.00000000E+00  0.00000000E+00
  0.00000000E+00  0.00000000E+00  0.00000000E+00
  0.00000000E+00  0.00000000E+00  0.00000000E+00
  0.00000000E+00  0.00000000E+00  0.00000000E+00
  0.00000000E+00  0.00000000E+00  0.00000000E+00
  0.00000000E+00  0.00000000E+00  0.00000000E+00
  0.00000000E+00  0.00000000E+00  0.00000000E+00
  0.00000000E+00  0.00000000E+00  0.00000000E+00
  0.00000000E+00  0.00000000E+00  0.00000000E+00
  0.00000000E+00  0.00000000E+00  0.00000000E+00
  0.00000000E+00  0.00000000E+00  0.00000000E+00
  0.00000000E+00  0.00000000E+00  0.00000000E+00
  0.00000000E+00  0.00000000E+00  0.00000000E+00
  0.00000000E+00  0.00000000E+00  0.00000000E+00
  0.00000000E+00  0.00000000E+00  0.00000000E+00
  0.00000000E+00  0.00000000E+00  0.00000000E+00
  0.00000000E+00  0.00000000E+00  0.00000000E+00
  0.00000000E+00  0.00000000E+00  0.00000000E+00
  0.00000000E+00  0.00000000E+00  0.00000000E+00
  0.00000000E+00  0.00000000E+00  0.00000000E+00
  0.00000000E+00  0.00000000E+00  0.00000000E+00
  0.00000000E+00  0.00000000E+00  0.00000000E+00
  0.00000000E+00  0.00000000E+00  0.00000000E+00
  0.00000000E+00  0.00000000E+00  0.00000000E+00
  0.00000000E+00  0.00000000E+00  0.00000000E+00
  0.00000000E+00  0.00000000E+00  0.00000000E+00
  0.00000000E+00  0.00000000E+00  0.00000000E+00
  0.00000000E+00  0.00000000E+00  0.00000000E+00
  0.00000000E+00  0.00000000E+00  0.00000000E+00
  0.00000000E+00  0.00000000E+00  0.00000000E+00
