Pd  C  H  F                             
    1.000000000000000     
    11.1817229999999999    0.0000000000000000    0.0000000000000000
     0.0000000000000000   15.8133443000000007    0.0000000000000000
     0.0000000000000000    0.0000000000000000   22.1931461100000007
   Pd   C    H    F 
    64     6     2     4
Selective dynamics
Direct
  0.2499999991056825  0.0000000000000000  0.3379421720033022   F   F   F
  0.9999999964227371  0.4999999987352481  0.3379421720033022   F   F   F
  0.2499999991056825  0.2499999996838085  0.3379421720033022   F   F   F
  0.2499999991056825  0.4999999987352481  0.3379421720033022   F   F   F
  0.2499999991056825  0.7499999984190566  0.3379421720033022   F   F   F
  0.4999999982113650  0.0000000000000000  0.3379421720033022   F   F   F
  0.4999999982113650  0.2499999996838085  0.3379421720033022   F   F   F
  0.9999999964227371  0.7499999984190566  0.3379421720033022   F   F   F
  0.4999999982113650  0.4999999987352481  0.3379421720033022   F   F   F
  0.4999999982113650  0.7499999984190566  0.3379421720033022   F   F   F
  0.7499999973170475  0.0000000000000000  0.3379421720033022   F   F   F
  0.7499999973170475  0.2499999996838085  0.3379421720033022   F   F   F
  0.7499999973170475  0.4999999987352481  0.3379421720033022   F   F   F
  0.7499999973170475  0.7499999984190566  0.3379421720033022   F   F   F
  0.0000000000000000  0.0000000000000000  0.3379421720033022   F   F   F
  0.9999999964227371  0.2499999996838085  0.3379421720033022   F   F   F
  0.2494398855093497  0.0003934594071741  0.4653135668707450   T   T   T
  0.2497638510722699  0.2509705952727628  0.4651257164103517   T   T   T
  0.2468357766316191  0.4998080337373053  0.4633323272697558   T   T   T
  0.2524429199206770  0.7466540160521764  0.4666716535030709   T   T   T
  0.5000089139948138  0.0000031525702986  0.4653828264002989   T   T   T
  0.5006562446324216  0.2519683326223648  0.4655625026296089   T   T   T
  0.4999868877122201  0.4999860175135262  0.4598986610120102   T   T   T
  0.4993914296432687  0.7480070000466803  0.4655334100301973   T   T   T
  0.7506183316139159  0.9996873155629709  0.4653428362208072   T   T   T
  0.7475769442232750  0.2533499477748875  0.4666427982563847   T   T   T
  0.7531773445865622  0.5001541025421317  0.4633188108274314   T   T   T
  0.7502481038435502  0.7490043723860983  0.4651123259862116   T   T   T
  0.0000203813800281  0.0000012349943107  0.4657219771981874   T   T   T
  0.9986754172205159  0.2507972020477923  0.4651037581847010   T   T   T
 -0.0000496188829804  0.4999713389598231  0.4652018939220037   T   T   T
  0.0013523220324552  0.7492227825216460  0.4651026844247711   T   T   T
  0.1242497610659243  0.1268428343391407  0.5235644537381571   T   T   T
  0.1224276574902645  0.3749222005468286  0.5243967828305244   T   T   T
  0.1275817259650431  0.6244054406256659  0.5245524286302956   T   T   T
  0.1267810697576220  0.8732360172386430  0.5232434442907322   T   T   T
  0.3749383091960439  0.1259754078881634  0.5233352745080290   T   T   T
  0.3707696538111931  0.3786293351634517  0.5239571134632374   T   T   T
  0.3813088291584399  0.6114098710224468  0.5293442730154398   T   T   T
  0.3755680087828853  0.8749822824932031  0.5235680470109273   T   T   T
  0.6245201841217005  0.1250374035958237  0.5235861739051253   T   T   T
  0.6186347729198806  0.3885945064213771  0.5293471029088325   T   T   T
  0.6292068704273551  0.6213611464101367  0.5239372419238871   T   T   T
  0.6251527831079352  0.8740373119694853  0.5232873742458475   T   T   T
  0.8733683655605567  0.1268146874424350  0.5232547057258679   T   T   T
  0.8723216494763513  0.3755444169390113  0.5245567444413586   T   T   T
  0.8775485633372012  0.6250702422887248  0.5244286325479366   T   T   T
  0.8758107270035000  0.8731592826125216  0.5235242423626570   T   T   T
  0.1249999995528412  0.1249999995257198  0.4009217677339905   F   F   F
  0.1249999995528412  0.3749999992095283  0.4009217677339905   F   F   F
  0.1249999995528412  0.6249999982609609  0.4009217677339905   F   F   F
  0.1249999995528412  0.8749999979447765  0.4009217677339905   F   F   F
  0.3749999986585237  0.1249999995257198  0.4009217677339905   F   F   F
  0.3749999986585237  0.3749999992095283  0.4009217677339905   F   F   F
  0.3749999986585237  0.6249999982609609  0.4009217677339905   F   F   F
  0.3749999986585237  0.8749999979447765  0.4009217677339905   F   F   F
  0.6249999977642062  0.1249999995257198  0.4009217677339905   F   F   F
  0.6249999977642062  0.3749999992095283  0.4009217677339905   F   F   F
  0.6249999977642062  0.6249999982609609  0.4009217677339905   F   F   F
  0.6249999977642062  0.8749999979447765  0.4009217677339905   F   F   F
  0.8749999968698887  0.1249999995257198  0.4009217677339905   F   F   F
  0.8749999968698887  0.3749999992095283  0.4009217677339905   F   F   F
  0.8749999968698887  0.6249999982609609  0.4009217677339905   F   F   F
  0.8749999968698887  0.8749999979447765  0.4009217677339905   F   F   F
  0.5997739806426730  0.5611670698270353  0.6056885640703166   T   T   T
  0.6226042363738842  0.4692812490975789  0.6076936998491514   T   T   T
  0.5241057375001259  0.4103480171221802  0.6121551023007109   T   T   T
  0.4001651722853479  0.4388655551823168  0.6056836713610444   T   T   T
  0.3773675468600121  0.5307563537368917  0.6077151503527164   T   T   T
  0.4758867912938448  0.5896655602643319  0.6121567590395958   T   T   T
  0.6624787932970562  0.5961803458307221  0.6345281851113121   T   T   T
  0.3374881645434185  0.4038316605451782  0.6345405648945958   T   T   T
  0.7248458785919638  0.4497205864308900  0.6394212927378949   T   T   T
  0.5396882770926760  0.3408762676798552  0.6483553780820610   T   T   T
  0.2751417309370893  0.5503030404502209  0.6394259765249775   T   T   T
  0.4603082410333180  0.6591391951108500  0.6483246985432853   T   T   T
 
  0.00000000E+00  0.00000000E+00  0.00000000E+00
  0.00000000E+00  0.00000000E+00  0.00000000E+00
  0.00000000E+00  0.00000000E+00  0.00000000E+00
  0.00000000E+00  0.00000000E+00  0.00000000E+00
  0.00000000E+00  0.00000000E+00  0.00000000E+00
  0.00000000E+00  0.00000000E+00  0.00000000E+00
  0.00000000E+00  0.00000000E+00  0.00000000E+00
  0.00000000E+00  0.00000000E+00  0.00000000E+00
  0.00000000E+00  0.00000000E+00  0.00000000E+00
  0.00000000E+00  0.00000000E+00  0.00000000E+00
  0.00000000E+00  0.00000000E+00  0.00000000E+00
  0.00000000E+00  0.00000000E+00  0.00000000E+00
  0.00000000E+00  0.00000000E+00  0.00000000E+00
  0.00000000E+00  0.00000000E+00  0.00000000E+00
  0.00000000E+00  0.00000000E+00  0.00000000E+00
  0.00000000E+00  0.00000000E+00  0.00000000E+00
  0.00000000E+00  0.00000000E+00  0.00000000E+00
  0.00000000E+00  0.00000000E+00  0.00000000E+00
  0.00000000E+00  0.00000000E+00  0.00000000E+00
  0.00000000E+00  0.00000000E+00  0.00000000E+00
  0.00000000E+00  0.00000000E+00  0.00000000E+00
  0.00000000E+00  0.00000000E+00  0.00000000E+00
  0.00000000E+00  0.00000000E+00  0.00000000E+00
  0.00000000E+00  0.00000000E+00  0.00000000E+00
  0.00000000E+00  0.00000000E+00  0.00000000E+00
  0.00000000E+00  0.00000000E+00  0.00000000E+00
  0.00000000E+00  0.00000000E+00  0.00000000E+00
  0.00000000E+00  0.00000000E+00  0.00000000E+00
  0.00000000E+00  0.00000000E+00  0.00000000E+00
  0.00000000E+00  0.00000000E+00  0.00000000E+00
  0.00000000E+00  0.00000000E+00  0.00000000E+00
  0.00000000E+00  0.00000000E+00  0.00000000E+00
  0.00000000E+00  0.00000000E+00  0.00000000E+00
  0.00000000E+00  0.00000000E+00  0.00000000E+00
  0.00000000E+00  0.00000000E+00  0.00000000E+00
  0.00000000E+00  0.00000000E+00  0.00000000E+00
  0.00000000E+00  0.00000000E+00  0.00000000E+00
  0.00000000E+00  0.00000000E+00  0.00000000E+00
  0.00000000E+00  0.00000000E+00  0.00000000E+00
  0.00000000E+00  0.00000000E+00  0.00000000E+00
  0.00000000E+00  0.00000000E+00  0.00000000E+00
  0.00000000E+00  0.00000000E+00  0.00000000E+00
  0.00000000E+00  0.00000000E+00  0.00000000E+00
  0.00000000E+00  0.00000000E+00  0.00000000E+00
  0.00000000E+00  0.00000000E+00  0.00000000E+00
  0.00000000E+00  0.00000000E+00  0.00000000E+00
  0.00000000E+00  0.00000000E+00  0.00000000E+00
  0.00000000E+00  0.00000000E+00  0.00000000E+00
  0.00000000E+00  0.00000000E+00  0.00000000E+00
  0.00000000E+00  0.00000000E+00  0.00000000E+00
  0.00000000E+00  0.00000000E+00  0.00000000E+00
  0.00000000E+00  0.00000000E+00  0.00000000E+00
  0.00000000E+00  0.00000000E+00  0.00000000E+00
  0.00000000E+00  0.00000000E+00  0.00000000E+00
  0.00000000E+00  0.00000000E+00  0.00000000E+00
  0.00000000E+00  0.00000000E+00  0.00000000E+00
  0.00000000E+00  0.00000000E+00  0.00000000E+00
  0.00000000E+00  0.00000000E+00  0.00000000E+00
  0.00000000E+00  0.00000000E+00  0.00000000E+00
  0.00000000E+00  0.00000000E+00  0.00000000E+00
  0.00000000E+00  0.00000000E+00  0.00000000E+00
  0.00000000E+00  0.00000000E+00  0.00000000E+00
  0.00000000E+00  0.00000000E+00  0.00000000E+00
  0.00000000E+00  0.00000000E+00  0.00000000E+00
  0.00000000E+00  0.00000000E+00  0.00000000E+00
  0.00000000E+00  0.00000000E+00  0.00000000E+00
  0.00000000E+00  0.00000000E+00  0.00000000E+00
  0.00000000E+00  0.00000000E+00  0.00000000E+00
  0.00000000E+00  0.00000000E+00  0.00000000E+00
  0.00000000E+00  0.00000000E+00  0.00000000E+00
  0.00000000E+00  0.00000000E+00  0.00000000E+00
  0.00000000E+00  0.00000000E+00  0.00000000E+00
  0.00000000E+00  0.00000000E+00  0.00000000E+00
  0.00000000E+00  0.00000000E+00  0.00000000E+00
  0.00000000E+00  0.00000000E+00  0.00000000E+00
  0.00000000E+00  0.00000000E+00  0.00000000E+00
