H2 Rh48 C6 Cl4                          
    1.000000000000000     
    10.8721879999999995    0.0000000000000000    0.0000000000000000
    -5.4360939999999998    9.4155909999999992    0.0000000000000000
     0.0000000000000000    0.0000000000000000   16.4406549999999996
   H    Rh   C    Cl
     2    48     6     4
Selective dynamics
Direct
  0.2480298584976808  0.5019230245291766  0.7932070410038250   T   T   T
  0.5030302967271894  0.2469742828873933  0.7941322638736423   T   T   T
  0.0833330000000032  0.1666669999999968  0.3649490000000029   F   F   F
  0.0833330000000032  0.4166669999999968  0.3649490000000029   F   F   F
  0.0833330000000032  0.6666669999999968  0.3649490000000029   F   F   F
  0.0833330000000032  0.9166669999999968  0.3649490000000029   F   F   F
  0.3333330000000032  0.1666669999999968  0.3649490000000029   F   F   F
  0.3333330000000032  0.4166669999999968  0.3649490000000029   F   F   F
  0.3333330000000032  0.6666669999999968  0.3649490000000029   F   F   F
  0.3333330000000032  0.9166669999999968  0.3649490000000029   F   F   F
  0.5833330000000032  0.1666669999999968  0.3649490000000029   F   F   F
  0.5833330000000032  0.4166669999999968  0.3649490000000029   F   F   F
  0.5833330000000032  0.6666669999999968  0.3649490000000029   F   F   F
  0.5833330000000032  0.9166669999999968  0.3649490000000029   F   F   F
  0.8333330000000032  0.1666669999999968  0.3649490000000029   F   F   F
  0.8333330000000032  0.4166669999999968  0.3649490000000029   F   F   F
  0.8333330000000032  0.6666669999999968  0.3649490000000029   F   F   F
  0.8333330000000032  0.9166669999999968  0.3649490000000029   F   F   F
  0.9960812580197214  0.9950288430807461  0.6220634647732908   T   T   T
  0.9943913395507664  0.2476521790153043  0.6268903644697943   T   T   T
  0.0012962919212711  0.5003120356143995  0.6241167679008797   T   T   T
  0.0012002126801676  0.7487607676366892  0.6224609461289106   T   T   T
  0.2462380373616568  0.9938378892885709  0.6264405638980222   T   T   T
  0.2451656457444074  0.2441799603817856  0.6329441503054341   T   T   T
  0.2510496891489780  0.4989293226203699  0.6307897731165042   T   T   T
  0.2496438844163151  0.7486747137473699  0.6241153018440571   T   T   T
  0.5010294900632957  0.0014281493482144  0.6242576333473338   T   T   T
  0.4990131394122628  0.2509706734947059  0.6308004454567993   T   T   T
  0.5057785139517463  0.5048050042105530  0.6329401098035348   T   T   T
  0.5023075933906753  0.7555781409683320  0.6268924682731338   T   T   T
  0.7493489319459314  0.0006149122520327  0.6221698762298189   T   T   T
  0.7485339038220644  0.2489303531542291  0.6242502827685286   T   T   T
  0.7561165939134682  0.5037197708874714  0.6264464717541856   T   T   T
  0.7549831637481645  0.7539351421180100  0.6220485518034096   T   T   T
  0.1688714264605480  0.0866573577851781  0.4944981065688339   T   T   T
  0.1686757412359583  0.3335953441629087  0.4956313948047608   T   T   T
  0.1691636190665236  0.5807991981501672  0.4955046252349646   T   T   T
  0.1690228851293583  0.8342820297821234  0.4942521173629899   T   T   T
  0.4161914769738928  0.0859609964977466  0.4964420494307262   T   T   T
  0.4157183560779174  0.3342630228829648  0.4946662332817837   T   T   T
  0.4163851047362286  0.5812993251755856  0.4956351156440562   T   T   T
  0.4174931292697153  0.8325543384764984  0.4958785619343899   T   T   T
  0.6658477638506355  0.0841537862095478  0.4942112805987904   T   T   T
  0.6640431701834686  0.3337957428734413  0.4964434697057314   T   T   T
  0.6633409853507999  0.5811162683394997  0.4945011763841336   T   T   T
  0.6651211055599759  0.8319248665820993  0.4942462496839539   T   T   T
  0.9180775253436764  0.0848823781796852  0.4942437193929479   T   T   T
  0.9174345107398452  0.3324931114818597  0.4958803678574526   T   T   T
  0.9156950213372781  0.5809504826646901  0.4942500798595759   T   T   T
  0.9171102249120722  0.8328957963442960  0.4928375208031568   T   T   T
  0.2945993606678741  0.4552557396387868  0.7530402379680226   T   T   T
  0.4510662461746193  0.5263223407560318  0.7527919507960092   T   T   T
  0.5278447437156544  0.4495975028220229  0.7528387291245409   T   T   T
  0.4567859777980630  0.2932083564519772  0.7534089743427401   T   T   T
  0.3003276109605508  0.2220672976967606  0.7528554005212129   T   T   T
  0.2236333089423255  0.2988935746842358  0.7527930707605393   T   T   T
  0.5336404536423771  0.7059638594361459  0.7848981382606581   T   T   T
  0.7068449871401086  0.5319161438847644  0.7861630255854806   T   T   T
  0.2180851490867610  0.0430966859602862  0.7862013154703789   T   T   T
  0.0439682006352768  0.2162785248306918  0.7848847747539125   T   T   T
 
  0.00000000E+00  0.00000000E+00  0.00000000E+00
  0.00000000E+00  0.00000000E+00  0.00000000E+00
  0.00000000E+00  0.00000000E+00  0.00000000E+00
  0.00000000E+00  0.00000000E+00  0.00000000E+00
  0.00000000E+00  0.00000000E+00  0.00000000E+00
  0.00000000E+00  0.00000000E+00  0.00000000E+00
  0.00000000E+00  0.00000000E+00  0.00000000E+00
  0.00000000E+00  0.00000000E+00  0.00000000E+00
  0.00000000E+00  0.00000000E+00  0.00000000E+00
  0.00000000E+00  0.00000000E+00  0.00000000E+00
  0.00000000E+00  0.00000000E+00  0.00000000E+00
  0.00000000E+00  0.00000000E+00  0.00000000E+00
  0.00000000E+00  0.00000000E+00  0.00000000E+00
  0.00000000E+00  0.00000000E+00  0.00000000E+00
  0.00000000E+00  0.00000000E+00  0.00000000E+00
  0.00000000E+00  0.00000000E+00  0.00000000E+00
  0.00000000E+00  0.00000000E+00  0.00000000E+00
  0.00000000E+00  0.00000000E+00  0.00000000E+00
  0.00000000E+00  0.00000000E+00  0.00000000E+00
  0.00000000E+00  0.00000000E+00  0.00000000E+00
  0.00000000E+00  0.00000000E+00  0.00000000E+00
  0.00000000E+00  0.00000000E+00  0.00000000E+00
  0.00000000E+00  0.00000000E+00  0.00000000E+00
  0.00000000E+00  0.00000000E+00  0.00000000E+00
  0.00000000E+00  0.00000000E+00  0.00000000E+00
  0.00000000E+00  0.00000000E+00  0.00000000E+00
  0.00000000E+00  0.00000000E+00  0.00000000E+00
  0.00000000E+00  0.00000000E+00  0.00000000E+00
  0.00000000E+00  0.00000000E+00  0.00000000E+00
  0.00000000E+00  0.00000000E+00  0.00000000E+00
  0.00000000E+00  0.00000000E+00  0.00000000E+00
  0.00000000E+00  0.00000000E+00  0.00000000E+00
  0.00000000E+00  0.00000000E+00  0.00000000E+00
  0.00000000E+00  0.00000000E+00  0.00000000E+00
  0.00000000E+00  0.00000000E+00  0.00000000E+00
  0.00000000E+00  0.00000000E+00  0.00000000E+00
  0.00000000E+00  0.00000000E+00  0.00000000E+00
  0.00000000E+00  0.00000000E+00  0.00000000E+00
  0.00000000E+00  0.00000000E+00  0.00000000E+00
  0.00000000E+00  0.00000000E+00  0.00000000E+00
  0.00000000E+00  0.00000000E+00  0.00000000E+00
  0.00000000E+00  0.00000000E+00  0.00000000E+00
  0.00000000E+00  0.00000000E+00  0.00000000E+00
  0.00000000E+00  0.00000000E+00  0.00000000E+00
  0.00000000E+00  0.00000000E+00  0.00000000E+00
  0.00000000E+00  0.00000000E+00  0.00000000E+00
  0.00000000E+00  0.00000000E+00  0.00000000E+00
  0.00000000E+00  0.00000000E+00  0.00000000E+00
  0.00000000E+00  0.00000000E+00  0.00000000E+00
  0.00000000E+00  0.00000000E+00  0.00000000E+00
  0.00000000E+00  0.00000000E+00  0.00000000E+00
  0.00000000E+00  0.00000000E+00  0.00000000E+00
  0.00000000E+00  0.00000000E+00  0.00000000E+00
  0.00000000E+00  0.00000000E+00  0.00000000E+00
  0.00000000E+00  0.00000000E+00  0.00000000E+00
  0.00000000E+00  0.00000000E+00  0.00000000E+00
  0.00000000E+00  0.00000000E+00  0.00000000E+00
  0.00000000E+00  0.00000000E+00  0.00000000E+00
  0.00000000E+00  0.00000000E+00  0.00000000E+00
  0.00000000E+00  0.00000000E+00  0.00000000E+00
