Ir  C  H  F                             
   1.00000000000000     
    10.9622130000000002    0.0000000000000000    0.0000000000000000
    -5.4811069999999997    9.4935550000000006    0.0000000000000000
     0.0000000000000000    0.0000000000000000   24.7129573799999989
   Ir   C    H    F 
    64     6     2     4
Selective dynamics
Direct
  0.7500000643925233  0.7500000284403470  0.3034845196661777   F   F   F
  0.0000000000000000  0.0000000000000000  0.3034845196661777   F   F   F
  0.0000000102134052  0.2500000094801180  0.3034845196661777   F   F   F
  0.0000000213390337  0.5000000189602289  0.3034845196661777   F   F   F
  0.0000000753392229  0.7500000284403470  0.3034845196661777   F   F   F
  0.2500000109466924  0.0000000000000000  0.3034845196661777   F   F   F
  0.2500000211600977  0.2500000094801180  0.3034845196661777   F   F   F
  0.2500000322857332  0.5000000189602289  0.3034845196661777   F   F   F
  0.5000000218933920  0.0000000000000000  0.3034845196661777   F   F   F
  0.5000000321067972  0.2500000094801180  0.3034845196661777   F   F   F
  0.5000000432324256  0.5000000189602289  0.3034845196661777   F   F   F
  0.5000000534458309  0.7500000284403470  0.3034845196661777   F   F   F
  0.7500000328400844  0.0000000000000000  0.3034845196661777   F   F   F
  0.7500000430534897  0.2500000094801180  0.3034845196661777   F   F   F
  0.7500000541791181  0.5000000189602289  0.3034845196661777   F   F   F
  0.2500000424991384  0.7500000284403470  0.3034845196661777   F   F   F
  0.0833330000000032  0.1666669999999968  0.3940302372665698   F   F   F
  0.0833330000000032  0.4166669999999968  0.3940302372665698   F   F   F
  0.0833330000000032  0.6666669999999968  0.3940302372665698   F   F   F
  0.0833330000000032  0.9166669999999968  0.3940302372665698   F   F   F
  0.3333330000000032  0.1666669999999968  0.3940302372665698   F   F   F
  0.3333330000000032  0.4166669999999968  0.3940302372665698   F   F   F
  0.3333330000000032  0.6666669999999968  0.3940302372665698   F   F   F
  0.3333330000000032  0.9166669999999968  0.3940302372665698   F   F   F
  0.5833330000000032  0.1666669999999968  0.3940302372665698   F   F   F
  0.5833330000000032  0.4166669999999968  0.3940302372665698   F   F   F
  0.5833330000000032  0.6666669999999968  0.3940302372665698   F   F   F
  0.5833330000000032  0.9166669999999968  0.3940302372665698   F   F   F
  0.8333330000000032  0.1666669999999968  0.3940302372665698   F   F   F
  0.8333330000000032  0.4166669999999968  0.3940302372665698   F   F   F
  0.8333330000000032  0.6666669999999968  0.3940302372665698   F   F   F
  0.8333330000000032  0.9166669999999968  0.3940302372665698   F   F   F
  0.9973777629618934  0.9969621912550246  0.5721428028789494   T   T   T
  0.9951788032453639  0.2482889509685148  0.5719016612254825   T   T   T
  0.0012157473215022  0.5000817327767857  0.5724464266111208   T   T   T
  0.0008010484088641  0.7494168368153690  0.5725125059938807   T   T   T
  0.2484380103607553  0.9949883609707442  0.5718751895399555   T   T   T
  0.2438798015846990  0.2427198380687423  0.5791403787798163   T   T   T
  0.2507771332303479  0.4996901461379655  0.5767001437519657   T   T   T
  0.2503585987589576  0.7495962749377817  0.5726042043934872   T   T   T
  0.5013042095378055  0.0012289507531291  0.5725391025844616   T   T   T
  0.5001795228038276  0.2501386718239270  0.5772969942655883   T   T   T
  0.5074264594283129  0.5063178227977274  0.5790470818768195   T   T   T
  0.5019069613725468  0.7553233630844718  0.5719622308596053   T   T   T
  0.7502596961793127  0.0001273525906514  0.5724519154184059   T   T   T
  0.7497788007512985  0.2496467705465883  0.5726836780945419   T   T   T
  0.7556451090288997  0.5020351425152492  0.5717728351525568   T   T   T
  0.7532295818816120  0.7528062664224822  0.5722150387057101   T   T   T
  0.1677782080714654  0.0855055328147101  0.4838271135650031   T   T   T
  0.1687188619583332  0.3341835004486089  0.4842087782927862   T   T   T
  0.1683741507791652  0.5817742940569334  0.4839482447253582   T   T   T
  0.1679587688020634  0.8338810797909989  0.4831956126692853   T   T   T
  0.4172048486506236  0.0856082998223100  0.4839136639611387   T   T   T
  0.4162326902538301  0.3339323632002244  0.4850067076767035   T   T   T
  0.4159724878182438  0.5816221401984044  0.4842120955363342   T   T   T
  0.4168421818117339  0.8333296522873463  0.4833450162038326   T   T   T
  0.6665197406038650  0.0836998575078533  0.4831525038997551   T   T   T
  0.6645060073379476  0.3330012840710480  0.4839398695457839   T   T   T
  0.6646228468450290  0.5822010834894522  0.4838030654100597   T   T   T
  0.6660604435431933  0.8324121001712734  0.4832139938188680   T   T   T
  0.9174574947381648  0.0838885509335674  0.4830057999595954   T   T   T
  0.9168435203803220  0.3333488525291927  0.4833205185137882   T   T   T
  0.9164346049412817  0.5824578680123799  0.4829821511438981   T   T   T
  0.9170013801956809  0.8330936944005159  0.4829349114231535   T   T   T
  0.2930988626533407  0.4573112667209709  0.6584246131269249   T   T   T
  0.4487720331640783  0.5242479833906407  0.6604896001299974   T   T   T
  0.5248649766669043  0.4482191952856487  0.6604942781396325   T   T   T
  0.4579881332218782  0.2924201691787863  0.6588094943262829   T   T   T
  0.3020813901486266  0.2254690853785394  0.6605539233134260   T   T   T
  0.2259934270244040  0.3015834195761225  0.6605252628478364   T   T   T
  0.2498077695673427  0.5009047642019457  0.6878138071291815   T   T   T
  0.5009565863243985  0.2496748018675919  0.6886424987354944   T   T   T
  0.5153288019914302  0.6545706151638824  0.6845351529227242   T   T   T
  0.6550593211385803  0.5150172196213030  0.6848446791332273   T   T   T
  0.2357054187109690  0.0954694080331266  0.6849748694955886   T   T   T
  0.0957744754422227  0.2353118504093711  0.6846169708345627   T   T   T
 
  0.00000000E+00  0.00000000E+00  0.00000000E+00
  0.00000000E+00  0.00000000E+00  0.00000000E+00
  0.00000000E+00  0.00000000E+00  0.00000000E+00
  0.00000000E+00  0.00000000E+00  0.00000000E+00
  0.00000000E+00  0.00000000E+00  0.00000000E+00
  0.00000000E+00  0.00000000E+00  0.00000000E+00
  0.00000000E+00  0.00000000E+00  0.00000000E+00
  0.00000000E+00  0.00000000E+00  0.00000000E+00
  0.00000000E+00  0.00000000E+00  0.00000000E+00
  0.00000000E+00  0.00000000E+00  0.00000000E+00
  0.00000000E+00  0.00000000E+00  0.00000000E+00
  0.00000000E+00  0.00000000E+00  0.00000000E+00
  0.00000000E+00  0.00000000E+00  0.00000000E+00
  0.00000000E+00  0.00000000E+00  0.00000000E+00
  0.00000000E+00  0.00000000E+00  0.00000000E+00
  0.00000000E+00  0.00000000E+00  0.00000000E+00
  0.00000000E+00  0.00000000E+00  0.00000000E+00
  0.00000000E+00  0.00000000E+00  0.00000000E+00
  0.00000000E+00  0.00000000E+00  0.00000000E+00
  0.00000000E+00  0.00000000E+00  0.00000000E+00
  0.00000000E+00  0.00000000E+00  0.00000000E+00
  0.00000000E+00  0.00000000E+00  0.00000000E+00
  0.00000000E+00  0.00000000E+00  0.00000000E+00
  0.00000000E+00  0.00000000E+00  0.00000000E+00
  0.00000000E+00  0.00000000E+00  0.00000000E+00
  0.00000000E+00  0.00000000E+00  0.00000000E+00
  0.00000000E+00  0.00000000E+00  0.00000000E+00
  0.00000000E+00  0.00000000E+00  0.00000000E+00
  0.00000000E+00  0.00000000E+00  0.00000000E+00
  0.00000000E+00  0.00000000E+00  0.00000000E+00
  0.00000000E+00  0.00000000E+00  0.00000000E+00
  0.00000000E+00  0.00000000E+00  0.00000000E+00
  0.00000000E+00  0.00000000E+00  0.00000000E+00
  0.00000000E+00  0.00000000E+00  0.00000000E+00
  0.00000000E+00  0.00000000E+00  0.00000000E+00
  0.00000000E+00  0.00000000E+00  0.00000000E+00
  0.00000000E+00  0.00000000E+00  0.00000000E+00
  0.00000000E+00  0.00000000E+00  0.00000000E+00
  0.00000000E+00  0.00000000E+00  0.00000000E+00
  0.00000000E+00  0.00000000E+00  0.00000000E+00
  0.00000000E+00  0.00000000E+00  0.00000000E+00
  0.00000000E+00  0.00000000E+00  0.00000000E+00
  0.00000000E+00  0.00000000E+00  0.00000000E+00
  0.00000000E+00  0.00000000E+00  0.00000000E+00
  0.00000000E+00  0.00000000E+00  0.00000000E+00
  0.00000000E+00  0.00000000E+00  0.00000000E+00
  0.00000000E+00  0.00000000E+00  0.00000000E+00
  0.00000000E+00  0.00000000E+00  0.00000000E+00
  0.00000000E+00  0.00000000E+00  0.00000000E+00
  0.00000000E+00  0.00000000E+00  0.00000000E+00
  0.00000000E+00  0.00000000E+00  0.00000000E+00
  0.00000000E+00  0.00000000E+00  0.00000000E+00
  0.00000000E+00  0.00000000E+00  0.00000000E+00
  0.00000000E+00  0.00000000E+00  0.00000000E+00
  0.00000000E+00  0.00000000E+00  0.00000000E+00
  0.00000000E+00  0.00000000E+00  0.00000000E+00
  0.00000000E+00  0.00000000E+00  0.00000000E+00
  0.00000000E+00  0.00000000E+00  0.00000000E+00
  0.00000000E+00  0.00000000E+00  0.00000000E+00
  0.00000000E+00  0.00000000E+00  0.00000000E+00
  0.00000000E+00  0.00000000E+00  0.00000000E+00
  0.00000000E+00  0.00000000E+00  0.00000000E+00
  0.00000000E+00  0.00000000E+00  0.00000000E+00
  0.00000000E+00  0.00000000E+00  0.00000000E+00
  0.00000000E+00  0.00000000E+00  0.00000000E+00
  0.00000000E+00  0.00000000E+00  0.00000000E+00
  0.00000000E+00  0.00000000E+00  0.00000000E+00
  0.00000000E+00  0.00000000E+00  0.00000000E+00
  0.00000000E+00  0.00000000E+00  0.00000000E+00
  0.00000000E+00  0.00000000E+00  0.00000000E+00
  0.00000000E+00  0.00000000E+00  0.00000000E+00
  0.00000000E+00  0.00000000E+00  0.00000000E+00
  0.00000000E+00  0.00000000E+00  0.00000000E+00
  0.00000000E+00  0.00000000E+00  0.00000000E+00
  0.00000000E+00  0.00000000E+00  0.00000000E+00
  0.00000000E+00  0.00000000E+00  0.00000000E+00
