Pd  C  N Br                             
    1.000000000000000     
    11.1817229999999999    0.0000000000000000    0.0000000000000000
     0.0000000000000000   11.1817229999999999    0.0000000000000000
     0.0000000000000000    0.0000000000000000   23.9300040900000006
   Pd   C    N    Br
    64     4     2     4
Selective dynamics
Direct
  0.0000000000000000  0.2499999991056825  0.3134140709626578   F   F   F
  0.7499999973170475  0.7499999973170475  0.3134140709626578   F   F   F
  0.0000000000000000  0.4999999982113650  0.3134140709626578   F   F   F
  0.0000000000000000  0.7499999973170475  0.3134140709626578   F   F   F
  0.0000000000000000  0.0000000000000000  0.3134140709626578   F   F   F
  0.2499999991056825  0.2499999991056825  0.3134140709626578   F   F   F
  0.2499999991056825  0.4999999982113650  0.3134140709626578   F   F   F
  0.7499999973170475  0.0000000000000000  0.3134140709626578   F   F   F
  0.2499999991056825  0.7499999973170475  0.3134140709626578   F   F   F
  0.2499999991056825  0.0000000000000000  0.3134140709626578   F   F   F
  0.4999999982113650  0.2499999991056825  0.3134140709626578   F   F   F
  0.4999999982113650  0.4999999982113650  0.3134140709626578   F   F   F
  0.4999999982113650  0.7499999973170475  0.3134140709626578   F   F   F
  0.4999999982113650  0.0000000000000000  0.3134140709626578   F   F   F
  0.7499999973170475  0.2499999991056825  0.3134140709626578   F   F   F
  0.7499999973170475  0.4999999982113650  0.3134140709626578   F   F   F
  0.9947926713284777  0.2516557030050866  0.4773483521368843   T   T   T
 -0.0000151238085419  0.5000188400806514  0.4780414766044002   T   T   T
  0.0052108780951176  0.7483583668302493  0.4773590802263483   T   T   T
 -0.0000002504085737  0.0000043326270856  0.4758033005868121   T   T   T
  0.2474691380049270  0.2474676305143699  0.4757562234730293   T   T   T
  0.2478607285085527  0.4994635674040716  0.4774036092056172   T   T   T
  0.2534949714967464  0.7465166730202032  0.4788815535509331   T   T   T
  0.2516539814593437  0.9948013842491545  0.4773625463502043   T   T   T
  0.4994424551707884  0.2478459324173699  0.4774272373575050   T   T   T
  0.5000103221837885  0.4999872136420384  0.4766643959408974   T   T   T
  0.5005634423766800  0.7521432953458845  0.4774218145857697   T   T   T
  0.4999922768234163 -0.0000039854225400  0.4780484388532583   T   T   T
  0.7464970071284586  0.2535048098379017  0.4788771825734917   T   T   T
  0.7521342756964789  0.5005551209856753  0.4774176114958072   T   T   T
  0.7525442033922140  0.7525292272747772  0.4757582901752716   T   T   T
  0.7483464559745223  0.0052076592148111  0.4773601334688806   T   T   T
  0.1225268615159126  0.1225503156754653  0.5578934712992014   T   T   T
  0.1176957862738699  0.3699204154568614  0.5579272115214394   T   T   T
  0.1272608124183221  0.6234394133741336  0.5656595164500007   T   T   T
  0.1247820314265671  0.8752270198999571  0.5581248094939499   T   T   T
  0.3698850797178515  0.1176798163905166  0.5579546427800591   T   T   T
  0.3591464747422632  0.3591557440919280  0.5586503129382919   T   T   T
  0.3796489755863333  0.6203575808538190  0.5606518193476062   T   T   T
  0.3765620451451346  0.8727758220050068  0.5656647703997589   T   T   T
  0.6234111827094682  0.1272343656124851  0.5656729577119074   T   T   T
  0.6203586332306212  0.3795952687734032  0.5606666766808938   T   T   T
  0.6408865077448219  0.6408372727175392  0.5586488702128811   T   T   T
  0.6301036770206313  0.8823352498423077  0.5579448941364074   T   T   T
  0.8751831097691889  0.1248249685886349  0.5581284826919669   T   T   T
  0.8727732256130017  0.3765856946249885  0.5656577843286782   T   T   T
  0.8823608308490044  0.6301170363910923  0.5579465244595803   T   T   T
  0.8774509282865817  0.8774608940626828  0.5578996942384574   T   T   T
  0.1249999995528412  0.1249999995528412  0.3960161475258630   F   F   F
  0.1249999995528412  0.3749999986585237  0.3960161475258630   F   F   F
  0.1249999995528412  0.6249999977642062  0.3960161475258630   F   F   F
  0.1249999995528412  0.8749999968698887  0.3960161475258630   F   F   F
  0.3749999986585237  0.1249999995528412  0.3960161475258630   F   F   F
  0.3749999986585237  0.3749999986585237  0.3960161475258630   F   F   F
  0.3749999986585237  0.6249999977642062  0.3960161475258630   F   F   F
  0.3749999986585237  0.8749999968698887  0.3960161475258630   F   F   F
  0.6249999977642062  0.1249999995528412  0.3960161475258630   F   F   F
  0.6249999977642062  0.3749999986585237  0.3960161475258630   F   F   F
  0.6249999977642062  0.6249999977642062  0.3960161475258630   F   F   F
  0.6249999977642062  0.8749999968698887  0.3960161475258630   F   F   F
  0.8749999968698887  0.1249999995528412  0.3960161475258630   F   F   F
  0.8749999968698887  0.3749999986585237  0.3960161475258630   F   F   F
  0.8749999968698887  0.6249999977642062  0.3960161475258630   F   F   F
  0.8749999968698887  0.8749999968698887  0.3960161475258630   F   F   F
  0.5286698201979234  0.3798999126810150  0.6397517944751641   T   T   T
  0.6200958819425327  0.4713088668158344  0.6397381656435722   T   T   T
  0.4713515062786947  0.6200522969661223  0.6397381895619674   T   T   T
  0.3799595493348272  0.5287002020634154  0.6397271918755741   T   T   T
  0.5899587127407435  0.5898833155844799  0.6397294744752500   T   T   T
  0.4100970948170626  0.4100931512980440  0.6397299723079329   T   T   T
  0.2140850172015406  0.5619916831372912  0.6653485453966886   T   T   T
  0.4379508728750599  0.7858924191312804  0.6653809202774972   T   T   T
  0.5619508349879729  0.2141434701965724  0.6654220787228108   T   T   T
  0.7859216200226475  0.4379943586955739  0.6653927060000312   T   T   T
 
  0.00000000E+00  0.00000000E+00  0.00000000E+00
  0.00000000E+00  0.00000000E+00  0.00000000E+00
  0.00000000E+00  0.00000000E+00  0.00000000E+00
  0.00000000E+00  0.00000000E+00  0.00000000E+00
  0.00000000E+00  0.00000000E+00  0.00000000E+00
  0.00000000E+00  0.00000000E+00  0.00000000E+00
  0.00000000E+00  0.00000000E+00  0.00000000E+00
  0.00000000E+00  0.00000000E+00  0.00000000E+00
  0.00000000E+00  0.00000000E+00  0.00000000E+00
  0.00000000E+00  0.00000000E+00  0.00000000E+00
  0.00000000E+00  0.00000000E+00  0.00000000E+00
  0.00000000E+00  0.00000000E+00  0.00000000E+00
  0.00000000E+00  0.00000000E+00  0.00000000E+00
  0.00000000E+00  0.00000000E+00  0.00000000E+00
  0.00000000E+00  0.00000000E+00  0.00000000E+00
  0.00000000E+00  0.00000000E+00  0.00000000E+00
  0.00000000E+00  0.00000000E+00  0.00000000E+00
  0.00000000E+00  0.00000000E+00  0.00000000E+00
  0.00000000E+00  0.00000000E+00  0.00000000E+00
  0.00000000E+00  0.00000000E+00  0.00000000E+00
  0.00000000E+00  0.00000000E+00  0.00000000E+00
  0.00000000E+00  0.00000000E+00  0.00000000E+00
  0.00000000E+00  0.00000000E+00  0.00000000E+00
  0.00000000E+00  0.00000000E+00  0.00000000E+00
  0.00000000E+00  0.00000000E+00  0.00000000E+00
  0.00000000E+00  0.00000000E+00  0.00000000E+00
  0.00000000E+00  0.00000000E+00  0.00000000E+00
  0.00000000E+00  0.00000000E+00  0.00000000E+00
  0.00000000E+00  0.00000000E+00  0.00000000E+00
  0.00000000E+00  0.00000000E+00  0.00000000E+00
  0.00000000E+00  0.00000000E+00  0.00000000E+00
  0.00000000E+00  0.00000000E+00  0.00000000E+00
  0.00000000E+00  0.00000000E+00  0.00000000E+00
  0.00000000E+00  0.00000000E+00  0.00000000E+00
  0.00000000E+00  0.00000000E+00  0.00000000E+00
  0.00000000E+00  0.00000000E+00  0.00000000E+00
  0.00000000E+00  0.00000000E+00  0.00000000E+00
  0.00000000E+00  0.00000000E+00  0.00000000E+00
  0.00000000E+00  0.00000000E+00  0.00000000E+00
  0.00000000E+00  0.00000000E+00  0.00000000E+00
  0.00000000E+00  0.00000000E+00  0.00000000E+00
  0.00000000E+00  0.00000000E+00  0.00000000E+00
  0.00000000E+00  0.00000000E+00  0.00000000E+00
  0.00000000E+00  0.00000000E+00  0.00000000E+00
  0.00000000E+00  0.00000000E+00  0.00000000E+00
  0.00000000E+00  0.00000000E+00  0.00000000E+00
  0.00000000E+00  0.00000000E+00  0.00000000E+00
  0.00000000E+00  0.00000000E+00  0.00000000E+00
  0.00000000E+00  0.00000000E+00  0.00000000E+00
  0.00000000E+00  0.00000000E+00  0.00000000E+00
  0.00000000E+00  0.00000000E+00  0.00000000E+00
  0.00000000E+00  0.00000000E+00  0.00000000E+00
  0.00000000E+00  0.00000000E+00  0.00000000E+00
  0.00000000E+00  0.00000000E+00  0.00000000E+00
  0.00000000E+00  0.00000000E+00  0.00000000E+00
  0.00000000E+00  0.00000000E+00  0.00000000E+00
  0.00000000E+00  0.00000000E+00  0.00000000E+00
  0.00000000E+00  0.00000000E+00  0.00000000E+00
  0.00000000E+00  0.00000000E+00  0.00000000E+00
  0.00000000E+00  0.00000000E+00  0.00000000E+00
  0.00000000E+00  0.00000000E+00  0.00000000E+00
  0.00000000E+00  0.00000000E+00  0.00000000E+00
  0.00000000E+00  0.00000000E+00  0.00000000E+00
  0.00000000E+00  0.00000000E+00  0.00000000E+00
  0.00000000E+00  0.00000000E+00  0.00000000E+00
  0.00000000E+00  0.00000000E+00  0.00000000E+00
  0.00000000E+00  0.00000000E+00  0.00000000E+00
  0.00000000E+00  0.00000000E+00  0.00000000E+00
  0.00000000E+00  0.00000000E+00  0.00000000E+00
  0.00000000E+00  0.00000000E+00  0.00000000E+00
  0.00000000E+00  0.00000000E+00  0.00000000E+00
  0.00000000E+00  0.00000000E+00  0.00000000E+00
  0.00000000E+00  0.00000000E+00  0.00000000E+00
  0.00000000E+00  0.00000000E+00  0.00000000E+00
