Pt  C Br                                
   1.00000000000000     
    11.2480069999999994    0.0000000000000000    0.0000000000000000
    -5.6240030000000001    9.7410599999999992    0.0000000000000000
     0.0000000000000000    0.0000000000000000   24.8879693399999979
   Pt   C    Br
    64     6     6
Selective dynamics
Direct
  0.9999999587182344  0.7499999743354451  0.3013504194553178   F   F   F
  0.2499999964438118  0.0000000000000000  0.3013504194553178   F   F   F
  0.2499999825579735  0.2499999917873410  0.3013504194553178   F   F   F
  0.2499999690478916  0.4999999825481041  0.3013504194553178   F   F   F
  0.2499999551620533  0.7499999743354451  0.3013504194553178   F   F   F
  0.4999999928876306  0.0000000000000000  0.3013504194553178   F   F   F
  0.4999999790017924  0.2499999917873410  0.3013504194553178   F   F   F
  0.4999999654917033  0.4999999825481041  0.3013504194553178   F   F   F
  0.7499999893314424  0.0000000000000000  0.3013504194553178   F   F   F
  0.7499999754456042  0.2499999917873410  0.3013504194553178   F   F   F
  0.7499999619355222  0.4999999825481041  0.3013504194553178   F   F   F
  0.7499999480496840  0.7499999743354451  0.3013504194553178   F   F   F
  0.0000000000000000  0.0000000000000000  0.3013504194553178   F   F   F
  0.9999999861141617  0.2499999917873410  0.3013504194553178   F   F   F
  0.9999999583793340  0.4999999825481041  0.3013504194553178   F   F   F
  0.4999999516058651  0.7499999743354451  0.3013504194553178   F   F   F
  0.0833330000000032  0.1666669999999968  0.3936034172243978   F   F   F
  0.0833330000000032  0.4166669999999968  0.3936034172243978   F   F   F
  0.0833330000000032  0.6666669999999968  0.3936034172243978   F   F   F
  0.0833330000000032  0.9166669999999968  0.3936034172243978   F   F   F
  0.3333330000000032  0.1666669999999968  0.3936034172243978   F   F   F
  0.3333330000000032  0.4166669999999968  0.3936034172243978   F   F   F
  0.3333330000000032  0.6666669999999968  0.3936034172243978   F   F   F
  0.3333330000000032  0.9166669999999968  0.3936034172243978   F   F   F
  0.5833330000000032  0.1666669999999968  0.3936034172243978   F   F   F
  0.5833330000000032  0.4166669999999968  0.3936034172243978   F   F   F
  0.5833330000000032  0.6666669999999968  0.3936034172243978   F   F   F
  0.5833330000000032  0.9166669999999968  0.3936034172243978   F   F   F
  0.8333330000000032  0.1666669999999968  0.3936034172243978   F   F   F
  0.8333330000000032  0.4166669999999968  0.3936034172243978   F   F   F
  0.8333330000000032  0.6666669999999968  0.3936034172243978   F   F   F
  0.8333330000000032  0.9166669999999968  0.3936034172243978   F   F   F
  0.2438869176408283  0.2467409663070814  0.5758752363018081   T   T   T
  0.2397875541531006  0.4993953368876792  0.5790544774968607   T   T   T
  0.2493458162606133  0.7523777478875887  0.5796840393910480   T   T   T
  0.2494990687916812  0.0005179208156279  0.5776592373027417   T   T   T
  0.4951093763206755  0.2427901800814018  0.5784258832389901   T   T   T
  0.4928448764641503  0.4972288699981782  0.5815388729229660   T   T   T
  0.4956541979170734  0.7543262598129669  0.5855642855515784   T   T   T
  0.4976528477703674  0.0006791233864364  0.5796793162677546   T   T   T
  0.7485202295344791  0.2530677174233746  0.5792963417801086   T   T   T
  0.7494752773289536  0.5005336145742648  0.5845933161884465   T   T   T
  0.7527568372778181  0.7571421666223275  0.5815502900219811   T   T   T
  0.7506119056883273  0.0102228566450587  0.5790598526469592   T   T   T
  0.9972828117898295  0.2527196283769756  0.5776846976611471   T   T   T
  0.9969476948614077  0.5014819508419911  0.5792954814000308   T   T   T
  0.0072186142390797  0.7548930561271016  0.5784211325964476   T   T   T
  0.0032617245070161  0.0061246128425101  0.5758773553123977   T   T   T
  0.1672333718626911  0.0827598763029177  0.4834603775374989   T   T   T
  0.1659458854921319  0.3343837964597989  0.4843300037821926   T   T   T
  0.1665423873501330  0.5834383221698480  0.4856108405444206   T   T   T
  0.1659995503842211  0.8317787517532288  0.4843231331460403   T   T   T
  0.4182261975048526  0.0839996685590600  0.4843249016037766   T   T   T
  0.4182622238973185  0.3365955344706917  0.4858576737360968   T   T   T
  0.4173804828006485  0.5836862615624486  0.4876589965349505   T   T   T
  0.4187805798178157  0.8312295834466189  0.4875850121233524   T   T   T
  0.6665768678156562  0.0834703438789943  0.4856083501296116   T   T   T
  0.6666669611839273  0.3365110623401542  0.4871063714441891   T   T   T
  0.6657582258228160  0.5842582708976340  0.4871572856525439   T   T   T
  0.6663337802457879  0.8326360080987393  0.4876636495568653   T   T   T
  0.9156188555409795  0.0840595499165408  0.4843303021389272   T   T   T
  0.9151882547162163  0.3348157982950394  0.4849759784805776   T   T   T
  0.9134889563155014  0.5833292895510811  0.4870996591613984   T   T   T
  0.9134103027869445  0.8317433933243078  0.4858595272422864   T   T   T
  0.6977350487021834  0.7740697114162233  0.6613355759064828   T   T   T
  0.7722278410175853  0.7000500955071643  0.6612733213381543   T   T   T
  0.7047551472033364  0.5452636598882363  0.6614713131393098   T   T   T
  0.5499876846213171  0.4777582988146316  0.6612600614825733   T   T   T
  0.4758546879534935  0.5522653797374865  0.6613114478985956   T   T   T
  0.5430207686419385  0.7068948470134646  0.6618365011276848   T   T   T
  0.7920603672308673  0.9679186071816385  0.6831258156980894   T   T   T
  0.9651120243016430  0.7944087404712018  0.6836316868543902   T   T   T
  0.7719003773102031  0.4780366504379738  0.7212998920357540   T   T   T
  0.4556862075442623  0.2849802507958134  0.6836493926064565   T   T   T
  0.2820361782436055  0.4578125337232418  0.6831462868929493   T   T   T
  0.4773198570000056  0.7723924062122398  0.7229301372037314   T   T   T
 
  0.00000000E+00  0.00000000E+00  0.00000000E+00
  0.00000000E+00  0.00000000E+00  0.00000000E+00
  0.00000000E+00  0.00000000E+00  0.00000000E+00
  0.00000000E+00  0.00000000E+00  0.00000000E+00
  0.00000000E+00  0.00000000E+00  0.00000000E+00
  0.00000000E+00  0.00000000E+00  0.00000000E+00
  0.00000000E+00  0.00000000E+00  0.00000000E+00
  0.00000000E+00  0.00000000E+00  0.00000000E+00
  0.00000000E+00  0.00000000E+00  0.00000000E+00
  0.00000000E+00  0.00000000E+00  0.00000000E+00
  0.00000000E+00  0.00000000E+00  0.00000000E+00
  0.00000000E+00  0.00000000E+00  0.00000000E+00
  0.00000000E+00  0.00000000E+00  0.00000000E+00
  0.00000000E+00  0.00000000E+00  0.00000000E+00
  0.00000000E+00  0.00000000E+00  0.00000000E+00
  0.00000000E+00  0.00000000E+00  0.00000000E+00
  0.00000000E+00  0.00000000E+00  0.00000000E+00
  0.00000000E+00  0.00000000E+00  0.00000000E+00
  0.00000000E+00  0.00000000E+00  0.00000000E+00
  0.00000000E+00  0.00000000E+00  0.00000000E+00
  0.00000000E+00  0.00000000E+00  0.00000000E+00
  0.00000000E+00  0.00000000E+00  0.00000000E+00
  0.00000000E+00  0.00000000E+00  0.00000000E+00
  0.00000000E+00  0.00000000E+00  0.00000000E+00
  0.00000000E+00  0.00000000E+00  0.00000000E+00
  0.00000000E+00  0.00000000E+00  0.00000000E+00
  0.00000000E+00  0.00000000E+00  0.00000000E+00
  0.00000000E+00  0.00000000E+00  0.00000000E+00
  0.00000000E+00  0.00000000E+00  0.00000000E+00
  0.00000000E+00  0.00000000E+00  0.00000000E+00
  0.00000000E+00  0.00000000E+00  0.00000000E+00
  0.00000000E+00  0.00000000E+00  0.00000000E+00
  0.00000000E+00  0.00000000E+00  0.00000000E+00
  0.00000000E+00  0.00000000E+00  0.00000000E+00
  0.00000000E+00  0.00000000E+00  0.00000000E+00
  0.00000000E+00  0.00000000E+00  0.00000000E+00
  0.00000000E+00  0.00000000E+00  0.00000000E+00
  0.00000000E+00  0.00000000E+00  0.00000000E+00
  0.00000000E+00  0.00000000E+00  0.00000000E+00
  0.00000000E+00  0.00000000E+00  0.00000000E+00
  0.00000000E+00  0.00000000E+00  0.00000000E+00
  0.00000000E+00  0.00000000E+00  0.00000000E+00
  0.00000000E+00  0.00000000E+00  0.00000000E+00
  0.00000000E+00  0.00000000E+00  0.00000000E+00
  0.00000000E+00  0.00000000E+00  0.00000000E+00
  0.00000000E+00  0.00000000E+00  0.00000000E+00
  0.00000000E+00  0.00000000E+00  0.00000000E+00
  0.00000000E+00  0.00000000E+00  0.00000000E+00
  0.00000000E+00  0.00000000E+00  0.00000000E+00
  0.00000000E+00  0.00000000E+00  0.00000000E+00
  0.00000000E+00  0.00000000E+00  0.00000000E+00
  0.00000000E+00  0.00000000E+00  0.00000000E+00
  0.00000000E+00  0.00000000E+00  0.00000000E+00
  0.00000000E+00  0.00000000E+00  0.00000000E+00
  0.00000000E+00  0.00000000E+00  0.00000000E+00
  0.00000000E+00  0.00000000E+00  0.00000000E+00
  0.00000000E+00  0.00000000E+00  0.00000000E+00
  0.00000000E+00  0.00000000E+00  0.00000000E+00
  0.00000000E+00  0.00000000E+00  0.00000000E+00
  0.00000000E+00  0.00000000E+00  0.00000000E+00
  0.00000000E+00  0.00000000E+00  0.00000000E+00
  0.00000000E+00  0.00000000E+00  0.00000000E+00
  0.00000000E+00  0.00000000E+00  0.00000000E+00
  0.00000000E+00  0.00000000E+00  0.00000000E+00
  0.00000000E+00  0.00000000E+00  0.00000000E+00
  0.00000000E+00  0.00000000E+00  0.00000000E+00
  0.00000000E+00  0.00000000E+00  0.00000000E+00
  0.00000000E+00  0.00000000E+00  0.00000000E+00
  0.00000000E+00  0.00000000E+00  0.00000000E+00
  0.00000000E+00  0.00000000E+00  0.00000000E+00
  0.00000000E+00  0.00000000E+00  0.00000000E+00
  0.00000000E+00  0.00000000E+00  0.00000000E+00
  0.00000000E+00  0.00000000E+00  0.00000000E+00
  0.00000000E+00  0.00000000E+00  0.00000000E+00
  0.00000000E+00  0.00000000E+00  0.00000000E+00
  0.00000000E+00  0.00000000E+00  0.00000000E+00
