Ir48 C4 N2 F4                           
    1.000000000000000     
    10.9622135000000007    0.0000000000000000    0.0000000000000000
     0.0000000000000000   10.9622135000000007    0.0000000000000000
     0.0000000000000000    0.0000000000000000   16.7325000400000015
   Ir   C    N    F 
    48     4     2     4
Selective dynamics
Direct
 -0.0009308651403707  0.2494792148428102  0.4093858686581529   T   T   T
 -0.0000027632659283  0.5000027788448548  0.4094201805302346   T   T   T
  0.0009253644427869  0.7505267711592633  0.4093856472317660   T   T   T
 -0.0000032529056106 -0.0000017949583476  0.4093828957861372   T   T   T
  0.2505734352521048  0.2505778985242387  0.4102502484920798   T   T   T
  0.2508979569846053  0.4997698053155663  0.4102388564657188   T   T   T
  0.2528590752195332  0.7471404429945794  0.4118704698225314   T   T   T
  0.2494783054386457 -0.0009285562441123  0.4093848391828713   T   T   T
  0.4997611234845237  0.2508983743160005  0.4102417705936368   T   T   T
  0.4999953877309560  0.5000043957521868  0.4110056068000346   T   T   T
  0.5002329831157255  0.7491070739799771  0.4102371676334568   T   T   T
  0.4999976136064955  0.0000008517507823  0.4094200154469045   T   T   T
  0.7471344070042568  0.2528650100898041  0.4118756589909836   T   T   T
  0.7490993297920723  0.5002379375459732  0.4102382256434277   T   T   T
  0.7494241801056448  0.7494299401111122  0.4102486525331153   T   T   T
  0.7505181095503199  0.0009287970040727  0.4093873890731102   T   T   T
  0.1248142916372766  0.1248203779744730  0.5210718315609060   T   T   T
  0.1225198429697340  0.3744632132258007  0.5209710538934891   T   T   T
  0.1233667131416016  0.6246807239536416  0.5218656763506215   T   T   T
  0.1249234710305301  0.8750752800451563  0.5211351519273985   T   T   T
  0.3744570486255723  0.1225331951565091  0.5209640541717037   T   T   T
  0.3720139201876697  0.3720195259243247  0.5228733874457521   T   T   T
  0.3741726624957599  0.6258259448704766  0.5313303652611230   T   T   T
  0.3753213202957272  0.8766343278070304  0.5218670555429119   T   T   T
  0.6246723992954338  0.1233754981614133  0.5218651377355588   T   T   T
  0.6258172093478186  0.3741866778662559  0.5313339303263562   T   T   T
  0.6279762564932788  0.6279849168406828  0.5228693096389401   T   T   T
  0.6255363447160055  0.8774772415578562  0.5209666915305666   T   T   T
  0.8750672857185888  0.1249349863668485  0.5211357922906013   T   T   T
  0.8766237818534854  0.3753254156503772  0.5218682773447656   T   T   T
  0.8774701351662028  0.6255396765534030  0.5209664683609372   T   T   T
  0.8751774997597873  0.8751845681324468  0.5210725757138094   T   T   T
  0.1250000002280558  0.1250000002280558  0.2988196616194330   F   F   F
  0.1250000002280558  0.3749999997719442  0.2988196616194330   F   F   F
  0.1250000002280558  0.6249999993158326  0.2988196616194330   F   F   F
  0.1250000002280558  0.8749999988597210  0.2988196616194330   F   F   F
  0.3749999997719442  0.1250000002280558  0.2988196616194330   F   F   F
  0.3749999997719442  0.3749999997719442  0.2988196616194330   F   F   F
  0.3749999997719442  0.6249999993158326  0.2988196616194330   F   F   F
  0.3749999997719442  0.8749999988597210  0.2988196616194330   F   F   F
  0.6249999993158326  0.1250000002280558  0.2988196616194330   F   F   F
  0.6249999993158326  0.3749999997719442  0.2988196616194330   F   F   F
  0.6249999993158326  0.6249999993158326  0.2988196616194330   F   F   F
  0.6249999993158326  0.8749999988597210  0.2988196616194330   F   F   F
  0.8749999988597210  0.1250000002280558  0.2988196616194330   F   F   F
  0.8749999988597210  0.3749999997719442  0.2988196616194330   F   F   F
  0.8749999988597210  0.6249999993158326  0.2988196616194330   F   F   F
  0.8749999988597210  0.8749999988597210  0.2988196616194330   F   F   F
  0.5300902914782117  0.3764101902797525  0.6471272596079004   T   T   T
  0.6235761488297560  0.4698713099331652  0.6471218812685836   T   T   T
  0.4698816498117717  0.6236071306151176  0.6471213493420165   T   T   T
  0.3764020509066108  0.5301438290215108  0.6471193633978999   T   T   T
  0.5935582013846683  0.5935796004107677  0.6423739771332032   T   T   T
  0.4064159629516830  0.4064501354817747  0.6423783891800485   T   T   T
  0.2727464739851221  0.5511963184168670  0.6905469853136849   T   T   T
  0.4488447224164517  0.7272479255534759  0.6905393770286276   T   T   T
  0.5511343531769225  0.2727737443875100  0.6905384086132852   T   T   T
  0.7272220595704304  0.4488255088404852  0.6905579539972367   T   T   T
 
  0.00000000E+00  0.00000000E+00  0.00000000E+00
  0.00000000E+00  0.00000000E+00  0.00000000E+00
  0.00000000E+00  0.00000000E+00  0.00000000E+00
  0.00000000E+00  0.00000000E+00  0.00000000E+00
  0.00000000E+00  0.00000000E+00  0.00000000E+00
  0.00000000E+00  0.00000000E+00  0.00000000E+00
  0.00000000E+00  0.00000000E+00  0.00000000E+00
  0.00000000E+00  0.00000000E+00  0.00000000E+00
  0.00000000E+00  0.00000000E+00  0.00000000E+00
  0.00000000E+00  0.00000000E+00  0.00000000E+00
  0.00000000E+00  0.00000000E+00  0.00000000E+00
  0.00000000E+00  0.00000000E+00  0.00000000E+00
  0.00000000E+00  0.00000000E+00  0.00000000E+00
  0.00000000E+00  0.00000000E+00  0.00000000E+00
  0.00000000E+00  0.00000000E+00  0.00000000E+00
  0.00000000E+00  0.00000000E+00  0.00000000E+00
  0.00000000E+00  0.00000000E+00  0.00000000E+00
  0.00000000E+00  0.00000000E+00  0.00000000E+00
  0.00000000E+00  0.00000000E+00  0.00000000E+00
  0.00000000E+00  0.00000000E+00  0.00000000E+00
  0.00000000E+00  0.00000000E+00  0.00000000E+00
  0.00000000E+00  0.00000000E+00  0.00000000E+00
  0.00000000E+00  0.00000000E+00  0.00000000E+00
  0.00000000E+00  0.00000000E+00  0.00000000E+00
  0.00000000E+00  0.00000000E+00  0.00000000E+00
  0.00000000E+00  0.00000000E+00  0.00000000E+00
  0.00000000E+00  0.00000000E+00  0.00000000E+00
  0.00000000E+00  0.00000000E+00  0.00000000E+00
  0.00000000E+00  0.00000000E+00  0.00000000E+00
  0.00000000E+00  0.00000000E+00  0.00000000E+00
  0.00000000E+00  0.00000000E+00  0.00000000E+00
  0.00000000E+00  0.00000000E+00  0.00000000E+00
  0.00000000E+00  0.00000000E+00  0.00000000E+00
  0.00000000E+00  0.00000000E+00  0.00000000E+00
  0.00000000E+00  0.00000000E+00  0.00000000E+00
  0.00000000E+00  0.00000000E+00  0.00000000E+00
  0.00000000E+00  0.00000000E+00  0.00000000E+00
  0.00000000E+00  0.00000000E+00  0.00000000E+00
  0.00000000E+00  0.00000000E+00  0.00000000E+00
  0.00000000E+00  0.00000000E+00  0.00000000E+00
  0.00000000E+00  0.00000000E+00  0.00000000E+00
  0.00000000E+00  0.00000000E+00  0.00000000E+00
  0.00000000E+00  0.00000000E+00  0.00000000E+00
  0.00000000E+00  0.00000000E+00  0.00000000E+00
  0.00000000E+00  0.00000000E+00  0.00000000E+00
  0.00000000E+00  0.00000000E+00  0.00000000E+00
  0.00000000E+00  0.00000000E+00  0.00000000E+00
  0.00000000E+00  0.00000000E+00  0.00000000E+00
  0.00000000E+00  0.00000000E+00  0.00000000E+00
  0.00000000E+00  0.00000000E+00  0.00000000E+00
  0.00000000E+00  0.00000000E+00  0.00000000E+00
  0.00000000E+00  0.00000000E+00  0.00000000E+00
  0.00000000E+00  0.00000000E+00  0.00000000E+00
  0.00000000E+00  0.00000000E+00  0.00000000E+00
  0.00000000E+00  0.00000000E+00  0.00000000E+00
  0.00000000E+00  0.00000000E+00  0.00000000E+00
  0.00000000E+00  0.00000000E+00  0.00000000E+00
  0.00000000E+00  0.00000000E+00  0.00000000E+00
