Ir  C  N  F                             
   1.00000000000000     
    10.9622130000000002    0.0000000000000000    0.0000000000000000
    -5.4811069999999997    9.4935550000000006    0.0000000000000000
     0.0000000000000000    0.0000000000000000   24.7129573799999989
   Ir   C    N    F 
    64     4     2     4
Selective dynamics
Direct
  0.7500000643925233  0.7500000284403470  0.3034845196661777   F   F   F
  0.0000000000000000  0.0000000000000000  0.3034845196661777   F   F   F
  0.0000000102134052  0.2500000094801180  0.3034845196661777   F   F   F
  0.0000000213390337  0.5000000189602289  0.3034845196661777   F   F   F
  0.0000000753392229  0.7500000284403470  0.3034845196661777   F   F   F
  0.2500000109466924  0.0000000000000000  0.3034845196661777   F   F   F
  0.2500000211600977  0.2500000094801180  0.3034845196661777   F   F   F
  0.2500000322857332  0.5000000189602289  0.3034845196661777   F   F   F
  0.5000000218933920  0.0000000000000000  0.3034845196661777   F   F   F
  0.5000000321067972  0.2500000094801180  0.3034845196661777   F   F   F
  0.5000000432324256  0.5000000189602289  0.3034845196661777   F   F   F
  0.5000000534458309  0.7500000284403470  0.3034845196661777   F   F   F
  0.7500000328400844  0.0000000000000000  0.3034845196661777   F   F   F
  0.7500000430534897  0.2500000094801180  0.3034845196661777   F   F   F
  0.7500000541791181  0.5000000189602289  0.3034845196661777   F   F   F
  0.2500000424991384  0.7500000284403470  0.3034845196661777   F   F   F
  0.0833330000000032  0.1666669999999968  0.3940302372665698   F   F   F
  0.0833330000000032  0.4166669999999968  0.3940302372665698   F   F   F
  0.0833330000000032  0.6666669999999968  0.3940302372665698   F   F   F
  0.0833330000000032  0.9166669999999968  0.3940302372665698   F   F   F
  0.3333330000000032  0.1666669999999968  0.3940302372665698   F   F   F
  0.3333330000000032  0.4166669999999968  0.3940302372665698   F   F   F
  0.3333330000000032  0.6666669999999968  0.3940302372665698   F   F   F
  0.3333330000000032  0.9166669999999968  0.3940302372665698   F   F   F
  0.5833330000000032  0.1666669999999968  0.3940302372665698   F   F   F
  0.5833330000000032  0.4166669999999968  0.3940302372665698   F   F   F
  0.5833330000000032  0.6666669999999968  0.3940302372665698   F   F   F
  0.5833330000000032  0.9166669999999968  0.3940302372665698   F   F   F
  0.8333330000000032  0.1666669999999968  0.3940302372665698   F   F   F
  0.8333330000000032  0.4166669999999968  0.3940302372665698   F   F   F
  0.8333330000000032  0.6666669999999968  0.3940302372665698   F   F   F
  0.8333330000000032  0.9166669999999968  0.3940302372665698   F   F   F
  0.9975872220020955  0.9970004858820420  0.5721215275627902   T   T   T
  0.9950478405695496  0.2483613466578844  0.5718819214949458   T   T   T
  0.0007600870284526  0.4999154538160717  0.5724279388300856   T   T   T
  0.0005845243398342  0.7492744915208850  0.5724898653932486   T   T   T
  0.2481581076315479  0.9945345979813361  0.5719759976064861   T   T   T
  0.2436755980387889  0.2423417071576245  0.5776669435342709   T   T   T
  0.2507297089561707  0.4995887838324182  0.5767263004343525   T   T   T
  0.2503015061624966  0.7497479404410946  0.5727858554132952   T   T   T
  0.5013574836361833  0.0008046367457645  0.5726198732015089   T   T   T
  0.4999013420358699  0.2504052208649735  0.5771513633610974   T   T   T
  0.5080761185004650  0.5069092989499219  0.5776269760019528   T   T   T
  0.5017574007801502  0.7551775988295514  0.5719974861497555   T   T   T
  0.7502818875155114  0.0000685466017918  0.5726776306490589   T   T   T
  0.7498129855370379  0.2494447531376345  0.5727399873130432   T   T   T
  0.7558774677656789  0.5022765960595544  0.5718119954899978   T   T   T
  0.7534101604931664  0.7526818753051243  0.5722830360748752   T   T   T
  0.1673678360617274  0.0847344173730260  0.4835587045947181   T   T   T
  0.1679410732737824  0.3336504232825914  0.4839039636436723   T   T   T
  0.1687910493960071  0.5813616979523359  0.4846636580339836   T   T   T
  0.1678124743037484  0.8334625044817606  0.4831240595031064   T   T   T
  0.4172863003030099  0.0856938968949042  0.4842525200178501   T   T   T
  0.4160076362988127  0.3339145141492483  0.4844251899674760   T   T   T
  0.4163155551446433  0.5820928049649006  0.4838615319056702   T   T   T
  0.4167667192620064  0.8333356167078322  0.4833451635982344   T   T   T
  0.6664903600962732  0.0834846711210705  0.4832436336990145   T   T   T
  0.6643581751595216  0.3327026529063891  0.4842327004998050   T   T   T
  0.6652555116922607  0.5825715655571436  0.4835493403968555   T   T   T
  0.6662707247407218  0.8325838242200451  0.4832132092692898   T   T   T
  0.9170309349420778  0.0835313844129539  0.4830498125732459   T   T   T
  0.9166463403767712  0.3332419610576454  0.4832914329743863   T   T   T
  0.9165965114790218  0.5825949397358519  0.4828039425337540   T   T   T
  0.9170518973704274  0.8329582771063027  0.4829376562997792   T   T   T
  0.5186658942415018  0.4412619419263367  0.6594020318882620   T   T   T
  0.4421831554373001  0.5175601551294138  0.6594000857762149   T   T   T
  0.2325564797370608  0.3078593281286352  0.6594180942496609   T   T   T
  0.3090233056709553  0.2315841654639623  0.6593985072928842   T   T   T
  0.2959057729222158  0.4541224735771139  0.6583854494056660   T   T   T
  0.4553233677695315  0.2948757881221524  0.6588313307215591   T   T   T
  0.2443004303265336  0.1021040481479463  0.6836244104586335   T   T   T
  0.1031342272644753  0.2435434055441338  0.6835357811012772   T   T   T
  0.6479621032248454  0.5056453610937149  0.6837323294248374   T   T   T
  0.5061723618680478  0.6469699642397758  0.6835588475122747   T   T   T
 
  0.00000000E+00  0.00000000E+00  0.00000000E+00
  0.00000000E+00  0.00000000E+00  0.00000000E+00
  0.00000000E+00  0.00000000E+00  0.00000000E+00
  0.00000000E+00  0.00000000E+00  0.00000000E+00
  0.00000000E+00  0.00000000E+00  0.00000000E+00
  0.00000000E+00  0.00000000E+00  0.00000000E+00
  0.00000000E+00  0.00000000E+00  0.00000000E+00
  0.00000000E+00  0.00000000E+00  0.00000000E+00
  0.00000000E+00  0.00000000E+00  0.00000000E+00
  0.00000000E+00  0.00000000E+00  0.00000000E+00
  0.00000000E+00  0.00000000E+00  0.00000000E+00
  0.00000000E+00  0.00000000E+00  0.00000000E+00
  0.00000000E+00  0.00000000E+00  0.00000000E+00
  0.00000000E+00  0.00000000E+00  0.00000000E+00
  0.00000000E+00  0.00000000E+00  0.00000000E+00
  0.00000000E+00  0.00000000E+00  0.00000000E+00
  0.00000000E+00  0.00000000E+00  0.00000000E+00
  0.00000000E+00  0.00000000E+00  0.00000000E+00
  0.00000000E+00  0.00000000E+00  0.00000000E+00
  0.00000000E+00  0.00000000E+00  0.00000000E+00
  0.00000000E+00  0.00000000E+00  0.00000000E+00
  0.00000000E+00  0.00000000E+00  0.00000000E+00
  0.00000000E+00  0.00000000E+00  0.00000000E+00
  0.00000000E+00  0.00000000E+00  0.00000000E+00
  0.00000000E+00  0.00000000E+00  0.00000000E+00
  0.00000000E+00  0.00000000E+00  0.00000000E+00
  0.00000000E+00  0.00000000E+00  0.00000000E+00
  0.00000000E+00  0.00000000E+00  0.00000000E+00
  0.00000000E+00  0.00000000E+00  0.00000000E+00
  0.00000000E+00  0.00000000E+00  0.00000000E+00
  0.00000000E+00  0.00000000E+00  0.00000000E+00
  0.00000000E+00  0.00000000E+00  0.00000000E+00
  0.00000000E+00  0.00000000E+00  0.00000000E+00
  0.00000000E+00  0.00000000E+00  0.00000000E+00
  0.00000000E+00  0.00000000E+00  0.00000000E+00
  0.00000000E+00  0.00000000E+00  0.00000000E+00
  0.00000000E+00  0.00000000E+00  0.00000000E+00
  0.00000000E+00  0.00000000E+00  0.00000000E+00
  0.00000000E+00  0.00000000E+00  0.00000000E+00
  0.00000000E+00  0.00000000E+00  0.00000000E+00
  0.00000000E+00  0.00000000E+00  0.00000000E+00
  0.00000000E+00  0.00000000E+00  0.00000000E+00
  0.00000000E+00  0.00000000E+00  0.00000000E+00
  0.00000000E+00  0.00000000E+00  0.00000000E+00
  0.00000000E+00  0.00000000E+00  0.00000000E+00
  0.00000000E+00  0.00000000E+00  0.00000000E+00
  0.00000000E+00  0.00000000E+00  0.00000000E+00
  0.00000000E+00  0.00000000E+00  0.00000000E+00
  0.00000000E+00  0.00000000E+00  0.00000000E+00
  0.00000000E+00  0.00000000E+00  0.00000000E+00
  0.00000000E+00  0.00000000E+00  0.00000000E+00
  0.00000000E+00  0.00000000E+00  0.00000000E+00
  0.00000000E+00  0.00000000E+00  0.00000000E+00
  0.00000000E+00  0.00000000E+00  0.00000000E+00
  0.00000000E+00  0.00000000E+00  0.00000000E+00
  0.00000000E+00  0.00000000E+00  0.00000000E+00
  0.00000000E+00  0.00000000E+00  0.00000000E+00
  0.00000000E+00  0.00000000E+00  0.00000000E+00
  0.00000000E+00  0.00000000E+00  0.00000000E+00
  0.00000000E+00  0.00000000E+00  0.00000000E+00
  0.00000000E+00  0.00000000E+00  0.00000000E+00
  0.00000000E+00  0.00000000E+00  0.00000000E+00
  0.00000000E+00  0.00000000E+00  0.00000000E+00
  0.00000000E+00  0.00000000E+00  0.00000000E+00
  0.00000000E+00  0.00000000E+00  0.00000000E+00
  0.00000000E+00  0.00000000E+00  0.00000000E+00
  0.00000000E+00  0.00000000E+00  0.00000000E+00
  0.00000000E+00  0.00000000E+00  0.00000000E+00
  0.00000000E+00  0.00000000E+00  0.00000000E+00
  0.00000000E+00  0.00000000E+00  0.00000000E+00
  0.00000000E+00  0.00000000E+00  0.00000000E+00
  0.00000000E+00  0.00000000E+00  0.00000000E+00
  0.00000000E+00  0.00000000E+00  0.00000000E+00
  0.00000000E+00  0.00000000E+00  0.00000000E+00
