Pt  C Br                                
    1.000000000000000     
    11.2480068000000006    0.0000000000000000    0.0000000000000000
     0.0000000000000000   15.9070838000000006    0.0000000000000000
     0.0000000000000000    0.0000000000000000   22.2180025631249976
   Pt   C    Br
    64     6     6
Selective dynamics
Direct
  0.2500000008890453  0.2500000006286527  0.3375640982438100   F   F   F
  0.2500000008890453  0.5000000006286527  0.3375640982438100   F   F   F
  0.2500000008890453  0.7500000012572983  0.3375640982438100   F   F   F
  0.2500000008890453  0.0000000000000000  0.3375640982438100   F   F   F
  0.5000000017780906  0.5000000006286527  0.3375640982438100   F   F   F
  0.0000000035561882  0.0000000000000000  0.3375640982438100   F   F   F
  0.5000000017780906  0.7500000012572983  0.3375640982438100   F   F   F
  0.5000000017780906  0.0000000000000000  0.3375640982438100   F   F   F
  0.7500000026671358  0.0000000000000000  0.3375640982438100   F   F   F
  0.0000000035561882  0.7500000012572983  0.3375640982438100   F   F   F
  0.5000000017780906  0.2500000006286527  0.3375640982438100   F   F   F
  0.7500000026671358  0.2500000006286527  0.3375640982438100   F   F   F
  0.7500000026671358  0.5000000006286527  0.3375640982438100   F   F   F
  0.7500000026671358  0.7500000012572983  0.3375640982438100   F   F   F
  0.0000000035561882  0.2500000006286527  0.3375640982438100   F   F   F
  0.0000000035561882  0.5000000006286527  0.3375640982438100   F   F   F
  0.2456531330912605  0.2513922604297343  0.4666427849020098   T   T   T
  0.2506041510824746  0.5000598210432280  0.4655655458492720   T   T   T
  0.2516277334012893  0.7481729591740867  0.4668795751898111   T   T   T
  0.2496081083411168 -0.0000378904333401  0.4655174834940879   T   T   T
  0.4965428345249272  0.2472371684918905  0.4655818397229524   T   T   T
  0.5000081014055306  0.5000047411772293  0.4651795809524685   T   T   T
  0.5034536358815802  0.7527451682129023  0.4655788643547429   T   T   T
  0.4999670310714214 -0.0000045248255847  0.4669123010510867   T   T   T
  0.7483704438997884  0.2518254263000954  0.4668800918588892   T   T   T
  0.7493985254643435  0.4999387156334468  0.4655564806298949   T   T   T
  0.7543630605310989  0.7486131455254400  0.4666297497387894   T   T   T
  0.7503640834105499  0.0000486765338341  0.4655066487024586   T   T   T
  0.9963749998611088  0.2531588141928695  0.4689864399099228   T   T   T
 -0.0000032584408407  0.4999985952482748  0.4679139877372721   T   T   T
  0.0036143434991221  0.7468167979710694  0.4689679114829123   T   T   T
  0.0000216380575060  0.0000166136089005  0.4670565369293696   T   T   T
  0.1212345781930462  0.1249263678778996  0.5259949638949710   T   T   T
  0.1190487079208875  0.3750622260683861  0.5269242110111210   T   T   T
  0.1332927197270743  0.6212897054156363  0.5298196493791689   T   T   T
  0.1259851958217664  0.8747077811265581  0.5262503246306860   T   T   T
  0.3738914415746365  0.1243804585399222  0.5265636657489765   T   T   T
  0.3653393348940802  0.3726562841015244  0.5266824359291330   T   T   T
  0.3862142195384851  0.6317297351898666  0.5260220024079422   T   T   T
  0.3775331999699372  0.8751173313694075  0.5266663805259066   T   T   T
  0.6224189442560867  0.1248872056337775  0.5266583177065103   T   T   T
  0.6137968749399544  0.3682675805798746  0.5260216512870426   T   T   T
  0.6346776354299247  0.6273682173202347  0.5266662389346994   T   T   T
  0.6260353357404244  0.8756033090401576  0.5265172042036088   T   T   T
  0.8739897919801343  0.1253018680508603  0.5262733462239121   T   T   T
  0.8667009741345898  0.3787198141488671  0.5298188885977702   T   T   T
  0.8809693813058224  0.6249354285238333  0.5269283862057185   T   T   T
  0.8788373209776140  0.8750879737479275  0.5259024164545530   T   T   T
  0.1250000000000000  0.1250000003143228  0.4008461529820977   F   F   F
  0.1250000000000000  0.3750000003143228  0.4008461529820977   F   F   F
  0.1250000008890453  0.6250000009429755  0.4008461529820977   F   F   F
  0.1250000008890453  0.8750000009429755  0.4008461529820977   F   F   F
  0.3750000008890453  0.1250000003143228  0.4008461529820977   F   F   F
  0.3750000008890453  0.3750000003143228  0.4008461529820977   F   F   F
  0.3750000008890453  0.6250000009429755  0.4008461529820977   F   F   F
  0.3750000008890453  0.8750000009429755  0.4008461529820977   F   F   F
  0.6250000017780906  0.1250000003143228  0.4008461529820977   F   F   F
  0.6250000017780906  0.3750000003143228  0.4008461529820977   F   F   F
  0.6250000017780906  0.6250000009429755  0.4008461529820977   F   F   F
  0.6250000026671358  0.8750000009429755  0.4008461529820977   F   F   F
  0.8750000026671358  0.1250000003143228  0.4008461529820977   F   F   F
  0.8750000026671358  0.3750000003143228  0.4008461529820977   F   F   F
  0.8750000035561882  0.6250000009429755  0.4008461529820977   F   F   F
  0.8750000026671358  0.8750000009429755  0.4008461529820977   F   F   F
  0.6237507789706177  0.4901361205226762  0.6142451682752156   T   T   T
  0.5496875647342691  0.4214224473328449  0.6005930463348520   T   T   T
  0.4241727055980234  0.4306288077914656  0.5998069932615205   T   T   T
  0.3763016118369814  0.5099116653740865  0.6142436965936553   T   T   T
  0.4503355479783980  0.5786191356176796  0.6006045498909900   T   T   T
  0.5758526361269843  0.5694239155115883  0.5997837928524223   T   T   T
  0.7968505542674176  0.4701384867826199  0.6217171786113397   T   T   T
  0.7489150702671098  0.1268822185348793  0.6182619490590893   T   T   T
  0.2483251669567775  0.1330608598209050  0.6177014933772406   T   T   T
  0.2031758894365555  0.5299401388901829  0.6217988552318461   T   T   T
  0.2510595740848934  0.8724163229168678  0.6181671742512943   T   T   T
  0.7516996286893638  0.8674235915141822  0.6175457935396971   T   T   T
 
  0.00000000E+00  0.00000000E+00  0.00000000E+00
  0.00000000E+00  0.00000000E+00  0.00000000E+00
  0.00000000E+00  0.00000000E+00  0.00000000E+00
  0.00000000E+00  0.00000000E+00  0.00000000E+00
  0.00000000E+00  0.00000000E+00  0.00000000E+00
  0.00000000E+00  0.00000000E+00  0.00000000E+00
  0.00000000E+00  0.00000000E+00  0.00000000E+00
  0.00000000E+00  0.00000000E+00  0.00000000E+00
  0.00000000E+00  0.00000000E+00  0.00000000E+00
  0.00000000E+00  0.00000000E+00  0.00000000E+00
  0.00000000E+00  0.00000000E+00  0.00000000E+00
  0.00000000E+00  0.00000000E+00  0.00000000E+00
  0.00000000E+00  0.00000000E+00  0.00000000E+00
  0.00000000E+00  0.00000000E+00  0.00000000E+00
  0.00000000E+00  0.00000000E+00  0.00000000E+00
  0.00000000E+00  0.00000000E+00  0.00000000E+00
  0.00000000E+00  0.00000000E+00  0.00000000E+00
  0.00000000E+00  0.00000000E+00  0.00000000E+00
  0.00000000E+00  0.00000000E+00  0.00000000E+00
  0.00000000E+00  0.00000000E+00  0.00000000E+00
  0.00000000E+00  0.00000000E+00  0.00000000E+00
  0.00000000E+00  0.00000000E+00  0.00000000E+00
  0.00000000E+00  0.00000000E+00  0.00000000E+00
  0.00000000E+00  0.00000000E+00  0.00000000E+00
  0.00000000E+00  0.00000000E+00  0.00000000E+00
  0.00000000E+00  0.00000000E+00  0.00000000E+00
  0.00000000E+00  0.00000000E+00  0.00000000E+00
  0.00000000E+00  0.00000000E+00  0.00000000E+00
  0.00000000E+00  0.00000000E+00  0.00000000E+00
  0.00000000E+00  0.00000000E+00  0.00000000E+00
  0.00000000E+00  0.00000000E+00  0.00000000E+00
  0.00000000E+00  0.00000000E+00  0.00000000E+00
  0.00000000E+00  0.00000000E+00  0.00000000E+00
  0.00000000E+00  0.00000000E+00  0.00000000E+00
  0.00000000E+00  0.00000000E+00  0.00000000E+00
  0.00000000E+00  0.00000000E+00  0.00000000E+00
  0.00000000E+00  0.00000000E+00  0.00000000E+00
  0.00000000E+00  0.00000000E+00  0.00000000E+00
  0.00000000E+00  0.00000000E+00  0.00000000E+00
  0.00000000E+00  0.00000000E+00  0.00000000E+00
  0.00000000E+00  0.00000000E+00  0.00000000E+00
  0.00000000E+00  0.00000000E+00  0.00000000E+00
  0.00000000E+00  0.00000000E+00  0.00000000E+00
  0.00000000E+00  0.00000000E+00  0.00000000E+00
  0.00000000E+00  0.00000000E+00  0.00000000E+00
  0.00000000E+00  0.00000000E+00  0.00000000E+00
  0.00000000E+00  0.00000000E+00  0.00000000E+00
  0.00000000E+00  0.00000000E+00  0.00000000E+00
  0.00000000E+00  0.00000000E+00  0.00000000E+00
  0.00000000E+00  0.00000000E+00  0.00000000E+00
  0.00000000E+00  0.00000000E+00  0.00000000E+00
  0.00000000E+00  0.00000000E+00  0.00000000E+00
  0.00000000E+00  0.00000000E+00  0.00000000E+00
  0.00000000E+00  0.00000000E+00  0.00000000E+00
  0.00000000E+00  0.00000000E+00  0.00000000E+00
  0.00000000E+00  0.00000000E+00  0.00000000E+00
  0.00000000E+00  0.00000000E+00  0.00000000E+00
  0.00000000E+00  0.00000000E+00  0.00000000E+00
  0.00000000E+00  0.00000000E+00  0.00000000E+00
  0.00000000E+00  0.00000000E+00  0.00000000E+00
  0.00000000E+00  0.00000000E+00  0.00000000E+00
  0.00000000E+00  0.00000000E+00  0.00000000E+00
  0.00000000E+00  0.00000000E+00  0.00000000E+00
  0.00000000E+00  0.00000000E+00  0.00000000E+00
  0.00000000E+00  0.00000000E+00  0.00000000E+00
  0.00000000E+00  0.00000000E+00  0.00000000E+00
  0.00000000E+00  0.00000000E+00  0.00000000E+00
  0.00000000E+00  0.00000000E+00  0.00000000E+00
  0.00000000E+00  0.00000000E+00  0.00000000E+00
  0.00000000E+00  0.00000000E+00  0.00000000E+00
  0.00000000E+00  0.00000000E+00  0.00000000E+00
  0.00000000E+00  0.00000000E+00  0.00000000E+00
  0.00000000E+00  0.00000000E+00  0.00000000E+00
  0.00000000E+00  0.00000000E+00  0.00000000E+00
  0.00000000E+00  0.00000000E+00  0.00000000E+00
  0.00000000E+00  0.00000000E+00  0.00000000E+00
