Rh  C  F                                
   1.00000000000000     
    10.8721879999999995    0.0000000000000000    0.0000000000000000
    -5.4360939999999998    9.4155909999999992    0.0000000000000000
     0.0000000000000000    0.0000000000000000   24.6578279400000042
   Rh   C    F 
    64     6     6
Selective dynamics
Direct
  0.9999999559446024  0.7499999670758868  0.3041630438110658   F   F   F
  0.2499999889626636  0.0000000000000000  0.3041630438110658   F   F   F
  0.2499999891709876  0.2499999893793188  0.3041630438110658   F   F   F
  0.2499999888482805  0.4999999776965680  0.3041630438110658   F   F   F
  0.2499999890566116  0.7499999670758868  0.3041630438110658   F   F   F
  0.4999999779253272  0.0000000000000000  0.3041630438110658   F   F   F
  0.4999999781336513  0.2499999893793188  0.3041630438110658   F   F   F
  0.4999999778109441  0.4999999776965680  0.3041630438110658   F   F   F
  0.7499999668879909  0.0000000000000000  0.3041630438110658   F   F   F
  0.7499999670963149  0.2499999893793188  0.3041630438110658   F   F   F
  0.7499999667736077  0.4999999776965680  0.3041630438110658   F   F   F
  0.7499999669819388  0.7499999670758868  0.3041630438110658   F   F   F
  0.0000000000000000  0.0000000000000000  0.3041630438110658   F   F   F
  0.9999999560589785  0.2499999893793188  0.3041630438110658   F   F   F
  0.9999999998856168  0.4999999776965680  0.3041630438110658   F   F   F
  0.4999999780192752  0.7499999670758868  0.3041630438110658   F   F   F
  0.0833330000000032  0.1666669999999968  0.3941659420955475   F   F   F
  0.0833330000000032  0.4166669999999968  0.3941659420955475   F   F   F
  0.0833330000000032  0.6666669999999968  0.3941659420955475   F   F   F
  0.0833330000000032  0.9166669999999968  0.3941659420955475   F   F   F
  0.3333330000000032  0.1666669999999968  0.3941659420955475   F   F   F
  0.3333330000000032  0.4166669999999968  0.3941659420955475   F   F   F
  0.3333330000000032  0.6666669999999968  0.3941659420955475   F   F   F
  0.3333330000000032  0.9166669999999968  0.3941659420955475   F   F   F
  0.5833330000000032  0.1666669999999968  0.3941659420955475   F   F   F
  0.5833330000000032  0.4166669999999968  0.3941659420955475   F   F   F
  0.5833330000000032  0.6666669999999968  0.3941659420955475   F   F   F
  0.5833330000000032  0.9166669999999968  0.3941659420955475   F   F   F
  0.8333330000000032  0.1666669999999968  0.3941659420955475   F   F   F
  0.8333330000000032  0.4166669999999968  0.3941659420955475   F   F   F
  0.8333330000000032  0.6666669999999968  0.3941659420955475   F   F   F
  0.8333330000000032  0.9166669999999968  0.3941659420955475   F   F   F
  0.9999426820668500 -0.0000061740852367  0.5658246109635738   T   T   T
  0.9999120546335375  0.2500302567005637  0.5660176660059435   T   T   T
  0.9999806956841331  0.5000831787630989  0.5657913330366539   T   T   T
  0.0001609730852619  0.7501838171525674  0.5659060207165755   T   T   T
  0.2499015877494997  0.9997702039474208  0.5660111932153388   T   T   T
  0.2500257609608224  0.2501255744155718  0.5662567251833722   T   T   T
  0.2497677892928107  0.5002177783316890  0.5658410912139048   T   T   T
  0.2499542169303519  0.7501871274659604  0.5659100975041410   T   T   T
  0.5000706713724260  0.0000648447743591  0.5657995989851760   T   T   T
  0.5003632102879113  0.2500036593318014  0.5658483079086023   T   T   T
  0.5000418118355192  0.5000528606863121  0.5661879292454876   T   T   T
  0.5002781982411362  0.7504084970390634  0.5659915022974400   T   T   T
  0.7499776125737427 -0.0000374274393023  0.5659044855354323   T   T   T
  0.7499960222342876  0.2500754180556329  0.5659433280554934   T   T   T
  0.7501841092506979  0.5000601997903457  0.5660059132673405   T   T   T
  0.7500489845743158  0.7502024719128354  0.5659518472528774   T   T   T
  0.1668350445201572  0.0835009432332498  0.4799404840234968   T   T   T
  0.1667752789399221  0.3332579016594304  0.4796734652097980   T   T   T
  0.1667361116760036  0.5833771205229901  0.4798173642424975   T   T   T
  0.1667205787570428  0.8334073496937531  0.4796270646434429   T   T   T
  0.4165371395039884  0.0833205534519436  0.4798457211874969   T   T   T
  0.4166691152635136  0.3333563820091834  0.4799501816748906   T   T   T
  0.4167899924645009  0.5833711053352716  0.4799385524296336   T   T   T
  0.4167210690340254  0.8332852647394791  0.4798736437248790   T   T   T
  0.6667272096072163  0.0834266957987330  0.4798522124031080   T   T   T
  0.6668096965156105  0.3335854422835096  0.4796049918835777   T   T   T
  0.6666106702964877  0.5833280112602885  0.4799549197506282   T   T   T
  0.6667244781201538  0.8333038539199203  0.4796221617255987   T   T   T
  0.9167268972348959  0.0833986104788901  0.4798533182805916   T   T   T
  0.9167312083558227  0.3332977020048504  0.4798799946893955   T   T   T
  0.9166814665317550  0.5834062305359485  0.4798558846279299   T   T   T
  0.9166711715075256  0.8333172773973192  0.4798436692659340   T   T   T
  0.3005918755305443  0.2263050476011966  0.6947285775394050   T   T   T
  0.2263101519033904  0.3005689171488085  0.6947232633442362   T   T   T
  0.3006230672739513  0.4488784659331251  0.6950129233334469   T   T   T
  0.4489596773935953  0.5232377563077151  0.6947215458403806   T   T   T
  0.5232651794919455  0.4489488646618580  0.6947289263500176   T   T   T
  0.4489173614412278  0.3006235196230953  0.6950299338413232   T   T   T
  0.2294418946247677  0.0834581737580067  0.6966717165780922   T   T   T
  0.0834898890177366  0.2294584913635437  0.6966511282444826   T   T   T
  0.2290231259125041  0.5202943780260860  0.6967766255583552   T   T   T
  0.5199802418493236  0.6660347824366040  0.6967005712918087   T   T   T
  0.6660495608465773  0.5200262517610006  0.6967216422080436   T   T   T
  0.5203329461949141  0.2290236103990120  0.6968221991299408   T   T   T
 
  0.00000000E+00  0.00000000E+00  0.00000000E+00
  0.00000000E+00  0.00000000E+00  0.00000000E+00
  0.00000000E+00  0.00000000E+00  0.00000000E+00
  0.00000000E+00  0.00000000E+00  0.00000000E+00
  0.00000000E+00  0.00000000E+00  0.00000000E+00
  0.00000000E+00  0.00000000E+00  0.00000000E+00
  0.00000000E+00  0.00000000E+00  0.00000000E+00
  0.00000000E+00  0.00000000E+00  0.00000000E+00
  0.00000000E+00  0.00000000E+00  0.00000000E+00
  0.00000000E+00  0.00000000E+00  0.00000000E+00
  0.00000000E+00  0.00000000E+00  0.00000000E+00
  0.00000000E+00  0.00000000E+00  0.00000000E+00
  0.00000000E+00  0.00000000E+00  0.00000000E+00
  0.00000000E+00  0.00000000E+00  0.00000000E+00
  0.00000000E+00  0.00000000E+00  0.00000000E+00
  0.00000000E+00  0.00000000E+00  0.00000000E+00
  0.00000000E+00  0.00000000E+00  0.00000000E+00
  0.00000000E+00  0.00000000E+00  0.00000000E+00
  0.00000000E+00  0.00000000E+00  0.00000000E+00
  0.00000000E+00  0.00000000E+00  0.00000000E+00
  0.00000000E+00  0.00000000E+00  0.00000000E+00
  0.00000000E+00  0.00000000E+00  0.00000000E+00
  0.00000000E+00  0.00000000E+00  0.00000000E+00
  0.00000000E+00  0.00000000E+00  0.00000000E+00
  0.00000000E+00  0.00000000E+00  0.00000000E+00
  0.00000000E+00  0.00000000E+00  0.00000000E+00
  0.00000000E+00  0.00000000E+00  0.00000000E+00
  0.00000000E+00  0.00000000E+00  0.00000000E+00
  0.00000000E+00  0.00000000E+00  0.00000000E+00
  0.00000000E+00  0.00000000E+00  0.00000000E+00
  0.00000000E+00  0.00000000E+00  0.00000000E+00
  0.00000000E+00  0.00000000E+00  0.00000000E+00
  0.00000000E+00  0.00000000E+00  0.00000000E+00
  0.00000000E+00  0.00000000E+00  0.00000000E+00
  0.00000000E+00  0.00000000E+00  0.00000000E+00
  0.00000000E+00  0.00000000E+00  0.00000000E+00
  0.00000000E+00  0.00000000E+00  0.00000000E+00
  0.00000000E+00  0.00000000E+00  0.00000000E+00
  0.00000000E+00  0.00000000E+00  0.00000000E+00
  0.00000000E+00  0.00000000E+00  0.00000000E+00
  0.00000000E+00  0.00000000E+00  0.00000000E+00
  0.00000000E+00  0.00000000E+00  0.00000000E+00
  0.00000000E+00  0.00000000E+00  0.00000000E+00
  0.00000000E+00  0.00000000E+00  0.00000000E+00
  0.00000000E+00  0.00000000E+00  0.00000000E+00
  0.00000000E+00  0.00000000E+00  0.00000000E+00
  0.00000000E+00  0.00000000E+00  0.00000000E+00
  0.00000000E+00  0.00000000E+00  0.00000000E+00
  0.00000000E+00  0.00000000E+00  0.00000000E+00
  0.00000000E+00  0.00000000E+00  0.00000000E+00
  0.00000000E+00  0.00000000E+00  0.00000000E+00
  0.00000000E+00  0.00000000E+00  0.00000000E+00
  0.00000000E+00  0.00000000E+00  0.00000000E+00
  0.00000000E+00  0.00000000E+00  0.00000000E+00
  0.00000000E+00  0.00000000E+00  0.00000000E+00
  0.00000000E+00  0.00000000E+00  0.00000000E+00
  0.00000000E+00  0.00000000E+00  0.00000000E+00
  0.00000000E+00  0.00000000E+00  0.00000000E+00
  0.00000000E+00  0.00000000E+00  0.00000000E+00
  0.00000000E+00  0.00000000E+00  0.00000000E+00
  0.00000000E+00  0.00000000E+00  0.00000000E+00
  0.00000000E+00  0.00000000E+00  0.00000000E+00
  0.00000000E+00  0.00000000E+00  0.00000000E+00
  0.00000000E+00  0.00000000E+00  0.00000000E+00
  0.00000000E+00  0.00000000E+00  0.00000000E+00
  0.00000000E+00  0.00000000E+00  0.00000000E+00
  0.00000000E+00  0.00000000E+00  0.00000000E+00
  0.00000000E+00  0.00000000E+00  0.00000000E+00
  0.00000000E+00  0.00000000E+00  0.00000000E+00
  0.00000000E+00  0.00000000E+00  0.00000000E+00
  0.00000000E+00  0.00000000E+00  0.00000000E+00
  0.00000000E+00  0.00000000E+00  0.00000000E+00
  0.00000000E+00  0.00000000E+00  0.00000000E+00
  0.00000000E+00  0.00000000E+00  0.00000000E+00
  0.00000000E+00  0.00000000E+00  0.00000000E+00
  0.00000000E+00  0.00000000E+00  0.00000000E+00
