Rh48 C6 H2 Cl4                          
    1.000000000000000     
    10.8856652999999994    0.0000000000000000    0.0000000000000000
     0.0000000000000000   15.3946555000000007    0.0000000000000000
     0.0000000000000000    0.0000000000000000   15.4478894600000007
   Rh   C    H    Cl
    48     6     2     4
Selective dynamics
Direct
  0.2485078242263441  0.2506489059053294  0.4042656351643785   T   T   T
  0.2497463393019359  0.4986985525053882  0.4014830266549154   T   T   T
  0.2525174620337012  0.7477422576947745  0.4033877276365629   T   T   T
  0.2502538213152761  0.0001796260434759  0.4022447442929149   T   T   T
  0.4995000009914037  0.2517352761367135  0.4024914613778634   T   T   T
  0.4999980476884787  0.4999943582512856  0.3957139651055144   T   T   T
  0.5005036434031354  0.7482542081469177  0.4024934650639977   T   T   T
  0.4999960218308175  0.0000163820597763  0.4041404283041246   T   T   T
  0.7474836263788021  0.2522475076317221  0.4034021777906389   T   T   T
  0.7502745672802504  0.5013022216142389  0.4014783491329794   T   T   T
  0.7515095543014283  0.7493423457421997  0.4042613530826955   T   T   T
  0.7497545685128273  0.9998318017477175  0.4022519478695870   T   T   T
  0.9971645196176482  0.2512500969487661  0.4044302649377087   T   T   T
  0.0000119639724190  0.5000033542185918  0.4041951862200222   T   T   T
  0.0028416286874489  0.7487474977508128  0.4044299922875609   T   T   T
  0.9999948536952417  0.9999962173914412  0.4009252595004753   T   T   T
  0.1236788316459183  0.1247793412461391  0.4819446317988110   T   T   T
  0.1206715414556569  0.3746316846022708  0.4819726137915481   T   T   T
  0.1332981175522860  0.6204133968960477  0.4852030220608157   T   T   T
  0.1261586937538013  0.8746186252121220  0.4818182157529378   T   T   T
  0.3749670401425647  0.1257855127624055  0.4817745089468914   T   T   T
  0.3656997997529743  0.3751345504032102  0.4845612761601288   T   T   T
  0.3871427997127199  0.6118755484619882  0.4885016402092219   T   T   T
  0.3750926494914069  0.8743286423388952  0.4817843371335044   T   T   T
  0.6249013548786735  0.1256743043280935  0.4818123267566037   T   T   T
  0.6128719087520480  0.3880786171002839  0.4884970845588228   T   T   T
  0.6343255038754663  0.6248441620251057  0.4845482546234763   T   T   T
  0.6250314582894916  0.8742233143679172  0.4817547633072294   T   T   T
  0.8738463220796362  0.1253797225456381  0.4818492623892539   T   T   T
  0.8667211402323787  0.3795823235763010  0.4852019276763855   T   T   T
  0.8793498913222635  0.6253724180707110  0.4819397081946448   T   T   T
  0.8763324446741265  0.8752266522109977  0.4819063012380767   T   T   T
  0.1249999997703384  0.1250000001623945  0.3236688100951781   F   F   F
  0.1249999997703384  0.3750000004871836  0.3236688100951781   F   F   F
  0.1250000006889778  0.6250000014615438  0.3236688100951781   F   F   F
  0.1250000006889778  0.8750000017863329  0.3236688100951781   F   F   F
  0.3750000002296616  0.1250000001623945  0.3236688100951781   F   F   F
  0.3750000002296616  0.3750000004871836  0.3236688100951781   F   F   F
  0.3750000011483010  0.6250000014615438  0.3236688100951781   F   F   F
  0.3750000011483010  0.8750000017863329  0.3236688100951781   F   F   F
  0.6250000006889778  0.1250000001623945  0.3236688100951781   F   F   F
  0.6250000006889778  0.3750000004871836  0.3236688100951781   F   F   F
  0.6250000006889778  0.6250000014615438  0.3236688100951781   F   F   F
  0.6250000006889778  0.8750000017863329  0.3236688100951781   F   F   F
  0.8750000011483010  0.1250000001623945  0.3236688100951781   F   F   F
  0.8750000011483010  0.3750000004871836  0.3236688100951781   F   F   F
  0.8750000020669404  0.6250000014615438  0.3236688100951781   F   F   F
  0.8750000011483010  0.8750000017863329  0.3236688100951781   F   F   F
  0.3986516623158920  0.4363308619261872  0.6030728610345761   T   T   T
  0.3722426414504483  0.5318036182499029  0.5993172268708733   T   T   T
  0.4713787451587805  0.5929367016413920  0.6124781155058940   T   T   T
  0.6014222311296038  0.5635934849406254  0.6030570515376326   T   T   T
  0.6278747827476963  0.4680829396291841  0.5993108855509917   T   T   T
  0.5286738304790148  0.4069677494976744  0.6124752613447910   T   T   T
  0.3364053249631880  0.4025032426717914  0.6478317207499202   T   T   T
  0.6637051591322489  0.5974049720760917  0.6477867622641540   T   T   T
  0.2174939888341356  0.5569523272666359  0.6346642959072852   T   T   T
  0.4511936538666532  0.6849004128031453  0.6784722749797325   T   T   T
  0.7825968494006403  0.4429418853386622  0.6346350134779755   T   T   T
  0.5489212136500186  0.3149770829014500  0.6785070090275340   T   T   T
 
  0.00000000E+00  0.00000000E+00  0.00000000E+00
  0.00000000E+00  0.00000000E+00  0.00000000E+00
  0.00000000E+00  0.00000000E+00  0.00000000E+00
  0.00000000E+00  0.00000000E+00  0.00000000E+00
  0.00000000E+00  0.00000000E+00  0.00000000E+00
  0.00000000E+00  0.00000000E+00  0.00000000E+00
  0.00000000E+00  0.00000000E+00  0.00000000E+00
  0.00000000E+00  0.00000000E+00  0.00000000E+00
  0.00000000E+00  0.00000000E+00  0.00000000E+00
  0.00000000E+00  0.00000000E+00  0.00000000E+00
  0.00000000E+00  0.00000000E+00  0.00000000E+00
  0.00000000E+00  0.00000000E+00  0.00000000E+00
  0.00000000E+00  0.00000000E+00  0.00000000E+00
  0.00000000E+00  0.00000000E+00  0.00000000E+00
  0.00000000E+00  0.00000000E+00  0.00000000E+00
  0.00000000E+00  0.00000000E+00  0.00000000E+00
  0.00000000E+00  0.00000000E+00  0.00000000E+00
  0.00000000E+00  0.00000000E+00  0.00000000E+00
  0.00000000E+00  0.00000000E+00  0.00000000E+00
  0.00000000E+00  0.00000000E+00  0.00000000E+00
  0.00000000E+00  0.00000000E+00  0.00000000E+00
  0.00000000E+00  0.00000000E+00  0.00000000E+00
  0.00000000E+00  0.00000000E+00  0.00000000E+00
  0.00000000E+00  0.00000000E+00  0.00000000E+00
  0.00000000E+00  0.00000000E+00  0.00000000E+00
  0.00000000E+00  0.00000000E+00  0.00000000E+00
  0.00000000E+00  0.00000000E+00  0.00000000E+00
  0.00000000E+00  0.00000000E+00  0.00000000E+00
  0.00000000E+00  0.00000000E+00  0.00000000E+00
  0.00000000E+00  0.00000000E+00  0.00000000E+00
  0.00000000E+00  0.00000000E+00  0.00000000E+00
  0.00000000E+00  0.00000000E+00  0.00000000E+00
  0.00000000E+00  0.00000000E+00  0.00000000E+00
  0.00000000E+00  0.00000000E+00  0.00000000E+00
  0.00000000E+00  0.00000000E+00  0.00000000E+00
  0.00000000E+00  0.00000000E+00  0.00000000E+00
  0.00000000E+00  0.00000000E+00  0.00000000E+00
  0.00000000E+00  0.00000000E+00  0.00000000E+00
  0.00000000E+00  0.00000000E+00  0.00000000E+00
  0.00000000E+00  0.00000000E+00  0.00000000E+00
  0.00000000E+00  0.00000000E+00  0.00000000E+00
  0.00000000E+00  0.00000000E+00  0.00000000E+00
  0.00000000E+00  0.00000000E+00  0.00000000E+00
  0.00000000E+00  0.00000000E+00  0.00000000E+00
  0.00000000E+00  0.00000000E+00  0.00000000E+00
  0.00000000E+00  0.00000000E+00  0.00000000E+00
  0.00000000E+00  0.00000000E+00  0.00000000E+00
  0.00000000E+00  0.00000000E+00  0.00000000E+00
  0.00000000E+00  0.00000000E+00  0.00000000E+00
  0.00000000E+00  0.00000000E+00  0.00000000E+00
  0.00000000E+00  0.00000000E+00  0.00000000E+00
  0.00000000E+00  0.00000000E+00  0.00000000E+00
  0.00000000E+00  0.00000000E+00  0.00000000E+00
  0.00000000E+00  0.00000000E+00  0.00000000E+00
  0.00000000E+00  0.00000000E+00  0.00000000E+00
  0.00000000E+00  0.00000000E+00  0.00000000E+00
  0.00000000E+00  0.00000000E+00  0.00000000E+00
  0.00000000E+00  0.00000000E+00  0.00000000E+00
  0.00000000E+00  0.00000000E+00  0.00000000E+00
  0.00000000E+00  0.00000000E+00  0.00000000E+00
