Cu  C  H Br                             
   1.00000000000000     
    10.2424769999999992    0.0000000000000000    0.0000000000000000
    -5.1212390000000001    8.8702459999999999    0.0000000000000000
     0.0000000000000000    0.0000000000000000   24.2722108799999958
   Cu   C    H    Br
    64     6     4     2
Selective dynamics
Direct
  0.7500000436217675  0.9999999661790682  0.3089953377992387   F   F   F
  0.0000000023248248  0.2499999909810811  0.3089953377992387   F   F   F
  0.0000000042370090  0.4999999830895305  0.3089953377992387   F   F   F
  0.0000000055855054  0.7499999740706187  0.3089953377992387   F   F   F
  0.0000000084740179  0.9999999661790682  0.3089953377992387   F   F   F
  0.2500000140407437  0.2499999909810811  0.3089953377992387   F   F   F
  0.2500000159529208  0.4999999830895305  0.3089953377992387   F   F   F
  0.2500000173014243  0.7499999740706187  0.3089953377992387   F   F   F
  0.5000000257566555  0.2499999909810811  0.3089953377992387   F   F   F
  0.5000000276688397  0.4999999830895305  0.3089953377992387   F   F   F
  0.5000000290173432  0.7499999740706187  0.3089953377992387   F   F   F
  0.5000000319058486  0.9999999661790682  0.3089953377992387   F   F   F
  0.7500000374725744  0.2499999909810811  0.3089953377992387   F   F   F
  0.7500000393847586  0.4999999830895305  0.3089953377992387   F   F   F
  0.7500000417095833  0.7499999740706187  0.3089953377992387   F   F   F
  0.2500000201899297  0.9999999661790682  0.3089953377992387   F   F   F
  0.0833330000000032  0.1666669999999968  0.3951324008931820   F   F   F
  0.0833330000000032  0.4166669999999968  0.3951324008931820   F   F   F
  0.0833330000000032  0.6666669999999968  0.3951324008931820   F   F   F
  0.0833330000000032  0.9166669999999968  0.3951324008931820   F   F   F
  0.3333330000000032  0.1666669999999968  0.3951324008931820   F   F   F
  0.3333330000000032  0.4166669999999968  0.3951324008931820   F   F   F
  0.3333330000000032  0.6666669999999968  0.3951324008931820   F   F   F
  0.3333330000000032  0.9166669999999968  0.3951324008931820   F   F   F
  0.5833330000000032  0.1666669999999968  0.3951324008931820   F   F   F
  0.5833330000000032  0.4166669999999968  0.3951324008931820   F   F   F
  0.5833330000000032  0.6666669999999968  0.3951324008931820   F   F   F
  0.5833330000000032  0.9166669999999968  0.3951324008931820   F   F   F
  0.8333330000000032  0.1666669999999968  0.3951324008931820   F   F   F
  0.8333330000000032  0.4166669999999968  0.3951324008931820   F   F   F
  0.8333330000000032  0.6666669999999968  0.3951324008931820   F   F   F
  0.8333330000000032  0.9166669999999968  0.3951324008931820   F   F   F
  0.9988031816345769  0.9994942134516801  0.5647844939756353   T   T   T
  0.9985410237157855  0.2492008706188007  0.5646564209197026   T   T   T
  0.9990183254410721  0.4996871913604501  0.5650532020818710   T   T   T
 -0.0006767408713863  0.7499091793102510  0.5650196117773713   T   T   T
  0.2487149948783132  0.9995478625613426  0.5646610670924672   T   T   T
  0.2482443176414475  0.2491555505935816  0.5650180691858067   T   T   T
  0.2494935245848218  0.4996684290749093  0.5637671850046685   T   T   T
  0.2494554869463219  0.7500104529410845  0.5651880194477111   T   T   T
  0.4988544395595497  0.9998376169647039  0.5651333450789557   T   T   T
  0.4989509084802189  0.2502240295668695  0.5638584750336009   T   T   T
  0.5003189288103165  0.5012809657857217  0.5647789110985270   T   T   T
  0.4999298358307218  0.7506129591111036  0.5646086761465987   T   T   T
  0.7492104919255741 -0.0000963259537182  0.5651152672502994   T   T   T
  0.7492941653773255  0.2502293758146453  0.5652304355024628   T   T   T
  0.7496163991187708  0.5005201619489712  0.5646019792718169   T   T   T
  0.7498462812830128  0.7505341820838848  0.5647660629593794   T   T   T
  0.1662464855708518  0.0833079065993537  0.4800061876105049   T   T   T
  0.1660886179145086  0.3328731108563994  0.4799491493411777   T   T   T
  0.1661678593656516  0.5834155620218812  0.4799397732309509   T   T   T
  0.1662545154405017  0.8330656783740115  0.4800348449679664   T   T   T
  0.4161693747299778  0.0830196509732102  0.4799091101256318   T   T   T
  0.4159565066397351  0.3335321241031058  0.4801566088840031   T   T   T
  0.4166729874011129  0.5835878150697070  0.4798730366622844   T   T   T
  0.4160859537313091  0.8331756457829969  0.4800771917455066   T   T   T
  0.6661506982295373  0.0834629797515467  0.4802194631387018   T   T   T
  0.6665684676702130  0.3333803689973720  0.4799433844525395   T   T   T
  0.6663596869413132  0.5834066156675293  0.4799252577191645   T   T   T
  0.6665945074432400  0.8335744116587704  0.4799428502881928   T   T   T
  0.9160032711070880  0.0829674574021059  0.4799227570708505   T   T   T
  0.9163402974637920  0.3333938493397491  0.4800765437517889   T   T   T
  0.9165431324709787  0.5834559188044645  0.4799910950626240   T   T   T
  0.9164345232564869  0.8332139057261732  0.4799126933863652   T   T   T
  0.3000895139531495  0.4552382639102869  0.6865716921505699   T   T   T
  0.4574432257642297  0.5357247824217788  0.6841451454992080   T   T   T
  0.5363648212474463  0.4566999634752045  0.6841730105013666   T   T   T
  0.4559380217692138  0.2993099692477071  0.6866147502086449   T   T   T
  0.2984765772479014  0.2188973823852374  0.6846939599630648   T   T   T
  0.2196485628428216  0.2979412103283184  0.6846491239192823   T   T   T
  0.5189223020130402  0.6586070231820365  0.6825576486979569   T   T   T
  0.6591959670235532  0.5182008353421641  0.6826066887495201   T   T   T
  0.2366813245981128  0.0959927569903179  0.6836877907109052   T   T   T
  0.0968239266492439  0.2363475440999772  0.6836579668628476   T   T   T
  0.1925506804044898  0.5617287022146593  0.6904407738002444   T   T   T
  0.5628835922005510  0.1919667478682506  0.6903579606070223   T   T   T
 
  0.00000000E+00  0.00000000E+00  0.00000000E+00
  0.00000000E+00  0.00000000E+00  0.00000000E+00
  0.00000000E+00  0.00000000E+00  0.00000000E+00
  0.00000000E+00  0.00000000E+00  0.00000000E+00
  0.00000000E+00  0.00000000E+00  0.00000000E+00
  0.00000000E+00  0.00000000E+00  0.00000000E+00
  0.00000000E+00  0.00000000E+00  0.00000000E+00
  0.00000000E+00  0.00000000E+00  0.00000000E+00
  0.00000000E+00  0.00000000E+00  0.00000000E+00
  0.00000000E+00  0.00000000E+00  0.00000000E+00
  0.00000000E+00  0.00000000E+00  0.00000000E+00
  0.00000000E+00  0.00000000E+00  0.00000000E+00
  0.00000000E+00  0.00000000E+00  0.00000000E+00
  0.00000000E+00  0.00000000E+00  0.00000000E+00
  0.00000000E+00  0.00000000E+00  0.00000000E+00
  0.00000000E+00  0.00000000E+00  0.00000000E+00
  0.00000000E+00  0.00000000E+00  0.00000000E+00
  0.00000000E+00  0.00000000E+00  0.00000000E+00
  0.00000000E+00  0.00000000E+00  0.00000000E+00
  0.00000000E+00  0.00000000E+00  0.00000000E+00
  0.00000000E+00  0.00000000E+00  0.00000000E+00
  0.00000000E+00  0.00000000E+00  0.00000000E+00
  0.00000000E+00  0.00000000E+00  0.00000000E+00
  0.00000000E+00  0.00000000E+00  0.00000000E+00
  0.00000000E+00  0.00000000E+00  0.00000000E+00
  0.00000000E+00  0.00000000E+00  0.00000000E+00
  0.00000000E+00  0.00000000E+00  0.00000000E+00
  0.00000000E+00  0.00000000E+00  0.00000000E+00
  0.00000000E+00  0.00000000E+00  0.00000000E+00
  0.00000000E+00  0.00000000E+00  0.00000000E+00
  0.00000000E+00  0.00000000E+00  0.00000000E+00
  0.00000000E+00  0.00000000E+00  0.00000000E+00
  0.00000000E+00  0.00000000E+00  0.00000000E+00
  0.00000000E+00  0.00000000E+00  0.00000000E+00
  0.00000000E+00  0.00000000E+00  0.00000000E+00
  0.00000000E+00  0.00000000E+00  0.00000000E+00
  0.00000000E+00  0.00000000E+00  0.00000000E+00
  0.00000000E+00  0.00000000E+00  0.00000000E+00
  0.00000000E+00  0.00000000E+00  0.00000000E+00
  0.00000000E+00  0.00000000E+00  0.00000000E+00
  0.00000000E+00  0.00000000E+00  0.00000000E+00
  0.00000000E+00  0.00000000E+00  0.00000000E+00
  0.00000000E+00  0.00000000E+00  0.00000000E+00
  0.00000000E+00  0.00000000E+00  0.00000000E+00
  0.00000000E+00  0.00000000E+00  0.00000000E+00
  0.00000000E+00  0.00000000E+00  0.00000000E+00
  0.00000000E+00  0.00000000E+00  0.00000000E+00
  0.00000000E+00  0.00000000E+00  0.00000000E+00
  0.00000000E+00  0.00000000E+00  0.00000000E+00
  0.00000000E+00  0.00000000E+00  0.00000000E+00
  0.00000000E+00  0.00000000E+00  0.00000000E+00
  0.00000000E+00  0.00000000E+00  0.00000000E+00
  0.00000000E+00  0.00000000E+00  0.00000000E+00
  0.00000000E+00  0.00000000E+00  0.00000000E+00
  0.00000000E+00  0.00000000E+00  0.00000000E+00
  0.00000000E+00  0.00000000E+00  0.00000000E+00
  0.00000000E+00  0.00000000E+00  0.00000000E+00
  0.00000000E+00  0.00000000E+00  0.00000000E+00
  0.00000000E+00  0.00000000E+00  0.00000000E+00
  0.00000000E+00  0.00000000E+00  0.00000000E+00
  0.00000000E+00  0.00000000E+00  0.00000000E+00
  0.00000000E+00  0.00000000E+00  0.00000000E+00
  0.00000000E+00  0.00000000E+00  0.00000000E+00
  0.00000000E+00  0.00000000E+00  0.00000000E+00
  0.00000000E+00  0.00000000E+00  0.00000000E+00
  0.00000000E+00  0.00000000E+00  0.00000000E+00
  0.00000000E+00  0.00000000E+00  0.00000000E+00
  0.00000000E+00  0.00000000E+00  0.00000000E+00
  0.00000000E+00  0.00000000E+00  0.00000000E+00
  0.00000000E+00  0.00000000E+00  0.00000000E+00
  0.00000000E+00  0.00000000E+00  0.00000000E+00
  0.00000000E+00  0.00000000E+00  0.00000000E+00
  0.00000000E+00  0.00000000E+00  0.00000000E+00
  0.00000000E+00  0.00000000E+00  0.00000000E+00
  0.00000000E+00  0.00000000E+00  0.00000000E+00
  0.00000000E+00  0.00000000E+00  0.00000000E+00
