Pd  C  N Br                             
   1.00000000000000     
    11.1922750000000004    0.0000000000000000    0.0000000000000000
    -5.5961369999999997    9.6927939999999992    0.0000000000000000
     0.0000000000000000    0.0000000000000000   24.8538405000000040
   Pd   C    N    Br
    64     4     2     4
Selective dynamics
Direct
  0.9999999513476965  0.0000000206338839  0.3017642283493345   F   F   F
  0.2499999873901899  0.2500000051584692  0.3017642283493345   F   F   F
  0.2499999828216346  0.5000000103169455  0.3017642283493345   F   F   F
  0.2499999773596073  0.7500000154754147  0.3017642283493345   F   F   F
  0.2499999727910591  0.0000000206338839  0.3017642283493345   F   F   F
  0.4999999802424000  0.2500000051584692  0.3017642283493345   F   F   F
  0.4999999756738518  0.5000000103169455  0.3017642283493345   F   F   F
  0.4999999702118245  0.7500000154754147  0.3017642283493345   F   F   F
  0.7499999730946101  0.2500000051584692  0.3017642283493345   F   F   F
  0.7499999685260619  0.5000000103169455  0.3017642283493345   F   F   F
  0.7499999630640346  0.7500000154754147  0.3017642283493345   F   F   F
  0.7499999584954864  0.0000000206338839  0.3017642283493345   F   F   F
  0.9999999659468273  0.2500000051584692  0.3017642283493345   F   F   F
  0.9999999613782720  0.5000000103169455  0.3017642283493345   F   F   F
  0.9999999559162518  0.7500000154754147  0.3017642283493345   F   F   F
  0.4999999656432692  0.0000000206338839  0.3017642283493345   F   F   F
  0.0833330000000032  0.1666669999999968  0.3936861790032040   F   F   F
  0.0833330000000032  0.4166669999999968  0.3936861790032040   F   F   F
  0.0833330000000032  0.6666669999999968  0.3936861790032040   F   F   F
  0.0833330000000032  0.9166669999999968  0.3936861790032040   F   F   F
  0.3333330000000032  0.1666669999999968  0.3936861790032040   F   F   F
  0.3333330000000032  0.4166669999999968  0.3936861790032040   F   F   F
  0.3333330000000032  0.6666669999999968  0.3936861790032040   F   F   F
  0.3333330000000032  0.9166669999999968  0.3936861790032040   F   F   F
  0.5833330000000032  0.1666669999999968  0.3936861790032040   F   F   F
  0.5833330000000032  0.4166669999999968  0.3936861790032040   F   F   F
  0.5833330000000032  0.6666669999999968  0.3936861790032040   F   F   F
  0.5833330000000032  0.9166669999999968  0.3936861790032040   F   F   F
  0.8333330000000032  0.1666669999999968  0.3936861790032040   F   F   F
  0.8333330000000032  0.4166669999999968  0.3936861790032040   F   F   F
  0.8333330000000032  0.6666669999999968  0.3936861790032040   F   F   F
  0.8333330000000032  0.9166669999999968  0.3936861790032040   F   F   F
  0.2459641198378270  0.9907103182307416  0.5770774973441899   T   T   T
  0.2529126826952638  0.2514815651941006  0.5789695203256419   T   T   T
  0.2459965843578194  0.5052604004398976  0.5771031558698974   T   T   T
  0.2488966244850891  0.7494631477083196  0.5751680453825151   T   T   T
  0.5008648648535912  0.9947315311996681  0.5737985368291784   T   T   T
  0.5017806911524303  0.2395679046014714  0.5764539653683783   T   T   T
  0.5018456033912810  0.5122514105873970  0.5764800959888140   T   T   T
  0.5008626865456346  0.7561223982917412  0.5738053490772438   T   T   T
  0.7520810506884701  0.0010447289132669  0.5750091160518397   T   T   T
  0.7570662978203614  0.2476975475551422  0.5771926937419015   T   T   T
  0.7543815957556784  0.5022094022487117  0.5793400467136317   T   T   T
  0.7570651488223806  0.7593793746237146  0.5772212735277150   T   T   T
  0.0022394880323304  0.0020446037614721  0.5753840101464200   T   T   T
  0.0022398050433821  0.2501912228692053  0.5753424399048752   T   T   T
  0.0004960190997110  0.5008377984003619  0.5757158306707599   T   T   T
  0.0004829470116435  0.7496751059843937  0.5757254722716947   T   T   T
  0.1686768941704542  0.0850774127923360  0.4853643717448016   T   T   T
  0.1686996989203100  0.3335839149845990  0.4853576563465881   T   T   T
  0.1654169529689191  0.5820211588966774  0.4837002061457734   T   T   T
  0.1654165991156756  0.8334141129985241  0.4836983007963434   T   T   T
  0.4159780941863854  0.0834110141071036  0.4841198551788011   T   T   T
  0.4180193003436697  0.3339973505940817  0.4844768311492230   T   T   T
  0.4159600694881070  0.5825516061897983  0.4841266279091490   T   T   T
  0.4154589883745355  0.8327423482470797  0.4826017048062758   T   T   T
  0.6671686739360790  0.0836521873634994  0.4834715130984699   T   T   T
  0.6660173467476088  0.3324520894224277  0.4845882065464605   T   T   T
  0.6660221214539312  0.5836138040506150  0.4846045399759295   T   T   T
  0.6671771795186033  0.8335185338278417  0.4834787653425973   T   T   T
  0.9180113299525343  0.0839947918720667  0.4836064110281721   T   T   T
  0.9157734780551827  0.3324787451713902  0.4842114701266854   T   T   T
  0.9124125912031842  0.5812246532902517  0.4854785556762080   T   T   T
  0.9157709228056875  0.8333325011871690  0.4842304007579784   T   T   T
  0.5749485774610715  0.5162461123299631  0.6571133655748421   T   T   T
  0.4261292293818012  0.4417507317646430  0.6574442176087815   T   T   T
  0.4261080741178138  0.2343003141171821  0.6574283609968748   T   T   T
  0.5749416602330838  0.3087162860872433  0.6570820685195083   T   T   T
  0.3512864612228078  0.3006005606573717  0.6577005345839201   T   T   T
  0.6500299843914384  0.4500267296306371  0.6571435880443757   T   T   T
  0.6840971280298750  0.2251842655774571  0.6804437947780142   T   T   T
  0.3176871695070392  0.0422728845375330  0.6811356811149564   T   T   T
  0.6838476337892452  0.7088165608477137  0.6806422888767527   T   T   T
  0.3176713474369736  0.5253546001527747  0.6811342973212057   T   T   T
 
  0.00000000E+00  0.00000000E+00  0.00000000E+00
  0.00000000E+00  0.00000000E+00  0.00000000E+00
  0.00000000E+00  0.00000000E+00  0.00000000E+00
  0.00000000E+00  0.00000000E+00  0.00000000E+00
  0.00000000E+00  0.00000000E+00  0.00000000E+00
  0.00000000E+00  0.00000000E+00  0.00000000E+00
  0.00000000E+00  0.00000000E+00  0.00000000E+00
  0.00000000E+00  0.00000000E+00  0.00000000E+00
  0.00000000E+00  0.00000000E+00  0.00000000E+00
  0.00000000E+00  0.00000000E+00  0.00000000E+00
  0.00000000E+00  0.00000000E+00  0.00000000E+00
  0.00000000E+00  0.00000000E+00  0.00000000E+00
  0.00000000E+00  0.00000000E+00  0.00000000E+00
  0.00000000E+00  0.00000000E+00  0.00000000E+00
  0.00000000E+00  0.00000000E+00  0.00000000E+00
  0.00000000E+00  0.00000000E+00  0.00000000E+00
  0.00000000E+00  0.00000000E+00  0.00000000E+00
  0.00000000E+00  0.00000000E+00  0.00000000E+00
  0.00000000E+00  0.00000000E+00  0.00000000E+00
  0.00000000E+00  0.00000000E+00  0.00000000E+00
  0.00000000E+00  0.00000000E+00  0.00000000E+00
  0.00000000E+00  0.00000000E+00  0.00000000E+00
  0.00000000E+00  0.00000000E+00  0.00000000E+00
  0.00000000E+00  0.00000000E+00  0.00000000E+00
  0.00000000E+00  0.00000000E+00  0.00000000E+00
  0.00000000E+00  0.00000000E+00  0.00000000E+00
  0.00000000E+00  0.00000000E+00  0.00000000E+00
  0.00000000E+00  0.00000000E+00  0.00000000E+00
  0.00000000E+00  0.00000000E+00  0.00000000E+00
  0.00000000E+00  0.00000000E+00  0.00000000E+00
  0.00000000E+00  0.00000000E+00  0.00000000E+00
  0.00000000E+00  0.00000000E+00  0.00000000E+00
  0.00000000E+00  0.00000000E+00  0.00000000E+00
  0.00000000E+00  0.00000000E+00  0.00000000E+00
  0.00000000E+00  0.00000000E+00  0.00000000E+00
  0.00000000E+00  0.00000000E+00  0.00000000E+00
  0.00000000E+00  0.00000000E+00  0.00000000E+00
  0.00000000E+00  0.00000000E+00  0.00000000E+00
  0.00000000E+00  0.00000000E+00  0.00000000E+00
  0.00000000E+00  0.00000000E+00  0.00000000E+00
  0.00000000E+00  0.00000000E+00  0.00000000E+00
  0.00000000E+00  0.00000000E+00  0.00000000E+00
  0.00000000E+00  0.00000000E+00  0.00000000E+00
  0.00000000E+00  0.00000000E+00  0.00000000E+00
  0.00000000E+00  0.00000000E+00  0.00000000E+00
  0.00000000E+00  0.00000000E+00  0.00000000E+00
  0.00000000E+00  0.00000000E+00  0.00000000E+00
  0.00000000E+00  0.00000000E+00  0.00000000E+00
  0.00000000E+00  0.00000000E+00  0.00000000E+00
  0.00000000E+00  0.00000000E+00  0.00000000E+00
  0.00000000E+00  0.00000000E+00  0.00000000E+00
  0.00000000E+00  0.00000000E+00  0.00000000E+00
  0.00000000E+00  0.00000000E+00  0.00000000E+00
  0.00000000E+00  0.00000000E+00  0.00000000E+00
  0.00000000E+00  0.00000000E+00  0.00000000E+00
  0.00000000E+00  0.00000000E+00  0.00000000E+00
  0.00000000E+00  0.00000000E+00  0.00000000E+00
  0.00000000E+00  0.00000000E+00  0.00000000E+00
  0.00000000E+00  0.00000000E+00  0.00000000E+00
  0.00000000E+00  0.00000000E+00  0.00000000E+00
  0.00000000E+00  0.00000000E+00  0.00000000E+00
  0.00000000E+00  0.00000000E+00  0.00000000E+00
  0.00000000E+00  0.00000000E+00  0.00000000E+00
  0.00000000E+00  0.00000000E+00  0.00000000E+00
  0.00000000E+00  0.00000000E+00  0.00000000E+00
  0.00000000E+00  0.00000000E+00  0.00000000E+00
  0.00000000E+00  0.00000000E+00  0.00000000E+00
  0.00000000E+00  0.00000000E+00  0.00000000E+00
  0.00000000E+00  0.00000000E+00  0.00000000E+00
  0.00000000E+00  0.00000000E+00  0.00000000E+00
  0.00000000E+00  0.00000000E+00  0.00000000E+00
  0.00000000E+00  0.00000000E+00  0.00000000E+00
  0.00000000E+00  0.00000000E+00  0.00000000E+00
  0.00000000E+00  0.00000000E+00  0.00000000E+00
