Au  C  F                                
    1.000000000000000     
    11.7981856999999994    0.0000000000000000    0.0000000000000000
     0.0000000000000000   16.6851543000000007    0.0000000000000000
     0.0000000000000000    0.0000000000000000   22.4243196299999994
   Au   C    F 
    64     6     6
Selective dynamics
Direct
  0.0000000016951773  0.2499999991010000  0.3344583079330619   F   F   F
  0.7500000012713812  0.7499999979023286  0.3344583079330619   F   F   F
  0.0000000016951773  0.4999999988013286  0.3344583079330619   F   F   F
  0.0000000016951773  0.7499999979023286  0.3344583079330619   F   F   F
  0.0000000016951773  0.0000000000000000  0.3344583079330619   F   F   F
  0.2500000004237961  0.2499999991010000  0.3344583079330619   F   F   F
  0.2500000004237961  0.4999999988013286  0.3344583079330619   F   F   F
  0.7500000012713812  0.0000000000000000  0.3344583079330619   F   F   F
  0.2500000004237961  0.7499999979023286  0.3344583079330619   F   F   F
  0.2500000004237961  0.0000000000000000  0.3344583079330619   F   F   F
  0.5000000008475851  0.2499999991010000  0.3344583079330619   F   F   F
  0.5000000008475851  0.4999999988013286  0.3344583079330619   F   F   F
  0.5000000008475851  0.7499999979023286  0.3344583079330619   F   F   F
  0.5000000008475851  0.0000000000000000  0.3344583079330619   F   F   F
  0.7500000012713812  0.2499999991010000  0.3344583079330619   F   F   F
  0.7500000012713812  0.4999999988013286  0.3344583079330619   F   F   F
  0.0007812811003148  0.2499151074382930  0.4701888228117897   T   T   T
  0.0000000016951773  0.4999999988013286  0.4702902109799782   T   T   T
  0.9992187222900398  0.7500848895650355  0.4701888228117897   T   T   T
  0.0000000016951773  0.0000000000000000  0.4699809563224838   T   T   T
  0.2508292195957130  0.2499383393089167  0.4701842266550856   T   T   T
  0.2502731559116246  0.5004539556706322  0.4706061498672451   T   T   T
  0.2507608246993556  0.7499312581938342  0.4701880917864360   T   T   T
  0.2508015453700634 -0.0000760357513385  0.4702198413575325   T   T   T
  0.4999878856117228  0.2506285853722583  0.4705370488032901   T   T   T
  0.5000000008475851  0.4999999988013286  0.4700236205614975   T   T   T
  0.5000121160834472  0.7493714116310703  0.4705370488032901   T   T   T
  0.5000000008475851  0.0000000000000000  0.4700482959327707   T   T   T
  0.7492391769958219  0.2500687388094946  0.4701880917864360   T   T   T
  0.7497268457835601  0.4995460419320250  0.4706061498672451   T   T   T
  0.7491707820994642  0.7500616576944122  0.4701842266550856   T   T   T
  0.7491984563251139  0.0000760357513385  0.4702198413575325   T   T   T
  0.1242371391037319  0.1245662770298221  0.5287130831522334   T   T   T
  0.1261028806529088  0.3742695580699963  0.5288138279582671   T   T   T
  0.1241578761475056  0.6253532613800500  0.5286817386747723   T   T   T
  0.1260717097790234  0.8749965874731607  0.5287081977167318   T   T   T
  0.3742361895709399  0.1253514174669762  0.5287108072305157   T   T   T
  0.3756919617425464  0.3753715040734316  0.5286263168722410   T   T   T
  0.3749090479359726  0.6245393025632716  0.5287790174349357   T   T   T
  0.3761985426631786  0.8742289419643018  0.5288328101656816   T   T   T
  0.6238014590319987  0.1257710550390198  0.5288328101656816   T   T   T
  0.6250909537592049  0.3754606950393857  0.5287790174349357   T   T   T
  0.6243080399526312  0.6246284935292254  0.5286263168722410   T   T   T
  0.6257638112766523  0.8746485795363385  0.5287108072305157   T   T   T
  0.8739282919161541  0.1250034095301610  0.5287081977167318   T   T   T
  0.8758421255476717  0.3746467362226075  0.5286817386747723   T   T   T
  0.8738971218898605  0.6257304395326684  0.5288138279582671   T   T   T
  0.8757628625914453  0.8754337199734994  0.5287130831522334   T   T   T
  0.1250000006356942  0.1249999995504965  0.4002249949199452   F   F   F
  0.1250000006356942  0.3749999992508322  0.4002249949199452   F   F   F
  0.1250000006356942  0.6249999983518251  0.4002249949199452   F   F   F
  0.1250000006356942  0.8749999974528251  0.4002249949199452   F   F   F
  0.3750000002118981  0.1249999995504965  0.4002249949199452   F   F   F
  0.3750000002118981  0.3749999992508322  0.4002249949199452   F   F   F
  0.3750000010594832  0.6249999983518251  0.4002249949199452   F   F   F
  0.3750000010594832  0.8749999974528251  0.4002249949199452   F   F   F
  0.6250000006356942  0.1249999995504965  0.4002249949199452   F   F   F
  0.6250000006356942  0.3749999992508322  0.4002249949199452   F   F   F
  0.6250000014832793  0.6249999983518251  0.4002249949199452   F   F   F
  0.6250000006356942  0.8749999974528251  0.4002249949199452   F   F   F
  0.8750000010594832  0.1249999995504965  0.4002249949199452   F   F   F
  0.8750000010594832  0.3749999992508322  0.4002249949199452   F   F   F
  0.8750000019070754  0.6249999983518251  0.4002249949199452   F   F   F
  0.8750000010594832  0.8749999974528251  0.4002249949199452   F   F   F
  0.3820876214255932  0.5077196816003970  0.6686642886215317   T   T   T
  0.4504557133634763  0.5760070239064701  0.6691539520673809   T   T   T
  0.5683204517700651  0.5681866254348770  0.6692201362812163   T   T   T
  0.6179123565371228  0.4922803040155607  0.6686642886215317   T   T   T
  0.5495443129117475  0.4239929856828941  0.6691539520673809   T   T   T
  0.4316795499251126  0.4318133721677872  0.6692201362812163   T   T   T
  0.2684844926653408  0.5149913212888613  0.6684221174099838   T   T   T
  0.4028304139376292  0.6493703869971853  0.6709856257484946   T   T   T
  0.6343781947352356  0.6340537977813668  0.6710745977875558   T   T   T
  0.7315155090298294  0.4850086763137960  0.6684221174099838   T   T   T
  0.5971696496314678  0.3506296303835287  0.6709856257484946   T   T   T
  0.3656218315399882  0.3659462118079971  0.6710745977875558   T   T   T
 
  0.00000000E+00  0.00000000E+00  0.00000000E+00
  0.00000000E+00  0.00000000E+00  0.00000000E+00
  0.00000000E+00  0.00000000E+00  0.00000000E+00
  0.00000000E+00  0.00000000E+00  0.00000000E+00
  0.00000000E+00  0.00000000E+00  0.00000000E+00
  0.00000000E+00  0.00000000E+00  0.00000000E+00
  0.00000000E+00  0.00000000E+00  0.00000000E+00
  0.00000000E+00  0.00000000E+00  0.00000000E+00
  0.00000000E+00  0.00000000E+00  0.00000000E+00
  0.00000000E+00  0.00000000E+00  0.00000000E+00
  0.00000000E+00  0.00000000E+00  0.00000000E+00
  0.00000000E+00  0.00000000E+00  0.00000000E+00
  0.00000000E+00  0.00000000E+00  0.00000000E+00
  0.00000000E+00  0.00000000E+00  0.00000000E+00
  0.00000000E+00  0.00000000E+00  0.00000000E+00
  0.00000000E+00  0.00000000E+00  0.00000000E+00
  0.00000000E+00  0.00000000E+00  0.00000000E+00
  0.00000000E+00  0.00000000E+00  0.00000000E+00
  0.00000000E+00  0.00000000E+00  0.00000000E+00
  0.00000000E+00  0.00000000E+00  0.00000000E+00
  0.00000000E+00  0.00000000E+00  0.00000000E+00
  0.00000000E+00  0.00000000E+00  0.00000000E+00
  0.00000000E+00  0.00000000E+00  0.00000000E+00
  0.00000000E+00  0.00000000E+00  0.00000000E+00
  0.00000000E+00  0.00000000E+00  0.00000000E+00
  0.00000000E+00  0.00000000E+00  0.00000000E+00
  0.00000000E+00  0.00000000E+00  0.00000000E+00
  0.00000000E+00  0.00000000E+00  0.00000000E+00
  0.00000000E+00  0.00000000E+00  0.00000000E+00
  0.00000000E+00  0.00000000E+00  0.00000000E+00
  0.00000000E+00  0.00000000E+00  0.00000000E+00
  0.00000000E+00  0.00000000E+00  0.00000000E+00
  0.00000000E+00  0.00000000E+00  0.00000000E+00
  0.00000000E+00  0.00000000E+00  0.00000000E+00
  0.00000000E+00  0.00000000E+00  0.00000000E+00
  0.00000000E+00  0.00000000E+00  0.00000000E+00
  0.00000000E+00  0.00000000E+00  0.00000000E+00
  0.00000000E+00  0.00000000E+00  0.00000000E+00
  0.00000000E+00  0.00000000E+00  0.00000000E+00
  0.00000000E+00  0.00000000E+00  0.00000000E+00
  0.00000000E+00  0.00000000E+00  0.00000000E+00
  0.00000000E+00  0.00000000E+00  0.00000000E+00
  0.00000000E+00  0.00000000E+00  0.00000000E+00
  0.00000000E+00  0.00000000E+00  0.00000000E+00
  0.00000000E+00  0.00000000E+00  0.00000000E+00
  0.00000000E+00  0.00000000E+00  0.00000000E+00
  0.00000000E+00  0.00000000E+00  0.00000000E+00
  0.00000000E+00  0.00000000E+00  0.00000000E+00
  0.00000000E+00  0.00000000E+00  0.00000000E+00
  0.00000000E+00  0.00000000E+00  0.00000000E+00
  0.00000000E+00  0.00000000E+00  0.00000000E+00
  0.00000000E+00  0.00000000E+00  0.00000000E+00
  0.00000000E+00  0.00000000E+00  0.00000000E+00
  0.00000000E+00  0.00000000E+00  0.00000000E+00
  0.00000000E+00  0.00000000E+00  0.00000000E+00
  0.00000000E+00  0.00000000E+00  0.00000000E+00
  0.00000000E+00  0.00000000E+00  0.00000000E+00
  0.00000000E+00  0.00000000E+00  0.00000000E+00
  0.00000000E+00  0.00000000E+00  0.00000000E+00
  0.00000000E+00  0.00000000E+00  0.00000000E+00
  0.00000000E+00  0.00000000E+00  0.00000000E+00
  0.00000000E+00  0.00000000E+00  0.00000000E+00
  0.00000000E+00  0.00000000E+00  0.00000000E+00
  0.00000000E+00  0.00000000E+00  0.00000000E+00
  0.00000000E+00  0.00000000E+00  0.00000000E+00
  0.00000000E+00  0.00000000E+00  0.00000000E+00
  0.00000000E+00  0.00000000E+00  0.00000000E+00
  0.00000000E+00  0.00000000E+00  0.00000000E+00
  0.00000000E+00  0.00000000E+00  0.00000000E+00
  0.00000000E+00  0.00000000E+00  0.00000000E+00
  0.00000000E+00  0.00000000E+00  0.00000000E+00
  0.00000000E+00  0.00000000E+00  0.00000000E+00
  0.00000000E+00  0.00000000E+00  0.00000000E+00
  0.00000000E+00  0.00000000E+00  0.00000000E+00
  0.00000000E+00  0.00000000E+00  0.00000000E+00
  0.00000000E+00  0.00000000E+00  0.00000000E+00
