Pd  C  H Cl                             
    1.000000000000000     
    11.1817229999999999    0.0000000000000000    0.0000000000000000
     0.0000000000000000   15.8133443000000007    0.0000000000000000
     0.0000000000000000    0.0000000000000000   22.1931461100000007
   Pd   C    H    Cl
    64     6     4     2
Selective dynamics
Direct
  0.2499999991056825  0.0000000000000000  0.3379421720033022   F   F   F
  0.9999999964227371  0.4999999987352481  0.3379421720033022   F   F   F
  0.2499999991056825  0.2499999996838085  0.3379421720033022   F   F   F
  0.2499999991056825  0.4999999987352481  0.3379421720033022   F   F   F
  0.2499999991056825  0.7499999984190566  0.3379421720033022   F   F   F
  0.4999999982113650  0.0000000000000000  0.3379421720033022   F   F   F
  0.4999999982113650  0.2499999996838085  0.3379421720033022   F   F   F
  0.9999999964227371  0.7499999984190566  0.3379421720033022   F   F   F
  0.4999999982113650  0.4999999987352481  0.3379421720033022   F   F   F
  0.4999999982113650  0.7499999984190566  0.3379421720033022   F   F   F
  0.7499999973170475  0.0000000000000000  0.3379421720033022   F   F   F
  0.7499999973170475  0.2499999996838085  0.3379421720033022   F   F   F
  0.7499999973170475  0.4999999987352481  0.3379421720033022   F   F   F
  0.7499999973170475  0.7499999984190566  0.3379421720033022   F   F   F
  0.0000000000000000  0.0000000000000000  0.3379421720033022   F   F   F
  0.9999999964227371  0.2499999996838085  0.3379421720033022   F   F   F
  0.2492159786592167  0.0000327343819907  0.4654809032359483   T   T   T
  0.2506235960377348  0.2518308642190675  0.4653789063254225   T   T   T
  0.2462723337466222  0.5004058544430695  0.4627255319463149   T   T   T
  0.2507950743953621  0.7465531892445708  0.4666009398382463   T   T   T
  0.4999984293688238 -0.0000248868607948  0.4652669551544749   T   T   T
  0.5007624661307969  0.2519133582412105  0.4654642969031966   T   T   T
  0.4999704331776599  0.5000021245756650  0.4598060300683406   T   T   T
  0.4992407591080729  0.7480660155456574  0.4654629754221924   T   T   T
  0.7507733273513973 -0.0000321728663031  0.4654932606159227   T   T   T
  0.7491923381213066  0.2534529559740925  0.4666157795435902   T   T   T
  0.7537468534477400  0.4995744374187778  0.4627316959585178   T   T   T
  0.7493634294043853  0.7481547467300366  0.4653899145937839   T   T   T
 -0.0000158121869047  0.0000073484681797  0.4658046080649951   T   T   T
 -0.0001011971740018  0.2515984703151334  0.4653216084560267   T   T   T
 -0.0000134604185409  0.5000073059421690  0.4652753280924423   T   T   T
  0.0001204682926991  0.7484110622879365  0.4653249525748722   T   T   T
  0.1252877641197072  0.1272546771638748  0.5234215513254146   T   T   T
  0.1251293118173819  0.3758602787521124  0.5251050212671107   T   T   T
  0.1251657665428276  0.6237347056680602  0.5251269216303398   T   T   T
  0.1256313894990309  0.8726992856035936  0.5232461594491361   T   T   T
  0.3754523122900981  0.1258275668759553  0.5232676065323826   T   T   T
  0.3750057956735795  0.3833203481580680  0.5245035086700914   T   T   T
  0.3758169558296534  0.6144700612633442  0.5274333589927799   T   T   T
  0.3750714945556188  0.8743333632984381  0.5234907836662908   T   T   T
  0.6250065931755039  0.1256604912180425  0.5234793887931691   T   T   T
  0.6241257511784521  0.3855241623732990  0.5274382568919163   T   T   T
  0.6249652023293738  0.6167088665130568  0.5244641090345106   T   T   T
  0.6245584870959031  0.8741089027199710  0.5232999739030703   T   T   T
  0.8744001945885884  0.1273193003381095  0.5232593504281409   T   T   T
  0.8748572485195188  0.3762476609797917  0.5251226473675906   T   T   T
  0.8748854393108219  0.6241645353188715  0.5251040673236481   T   T   T
  0.8746455310524749  0.8726971232621581  0.5234610294520261   T   T   T
  0.1249999995528412  0.1249999995257198  0.4009217677339905   F   F   F
  0.1249999995528412  0.3749999992095283  0.4009217677339905   F   F   F
  0.1249999995528412  0.6249999982609609  0.4009217677339905   F   F   F
  0.1249999995528412  0.8749999979447765  0.4009217677339905   F   F   F
  0.3749999986585237  0.1249999995257198  0.4009217677339905   F   F   F
  0.3749999986585237  0.3749999992095283  0.4009217677339905   F   F   F
  0.3749999986585237  0.6249999982609609  0.4009217677339905   F   F   F
  0.3749999986585237  0.8749999979447765  0.4009217677339905   F   F   F
  0.6249999977642062  0.1249999995257198  0.4009217677339905   F   F   F
  0.6249999977642062  0.3749999992095283  0.4009217677339905   F   F   F
  0.6249999977642062  0.6249999982609609  0.4009217677339905   F   F   F
  0.6249999977642062  0.8749999979447765  0.4009217677339905   F   F   F
  0.8749999968698887  0.1249999995257198  0.4009217677339905   F   F   F
  0.8749999968698887  0.3749999992095283  0.4009217677339905   F   F   F
  0.8749999968698887  0.6249999982609609  0.4009217677339905   F   F   F
  0.8749999968698887  0.8749999979447765  0.4009217677339905   F   F   F
  0.6061254502227594  0.5540161561683634  0.6059631151063046   T   T   T
  0.6179779423997021  0.4611102506457497  0.6076899332789555   T   T   T
  0.5129367857606997  0.4090468082518459  0.6116159249600758   T   T   T
  0.3938454924060675  0.4458891965860940  0.6059580800766539   T   T   T
  0.3820313687149413  0.5388047538265154  0.6076806226740843   T   T   T
  0.4870307968966612  0.5909041435829157  0.6116010322071757   T   T   T
  0.6999810198422333  0.4382055454872442  0.6290628451171093   T   T   T
  0.5198771467462536  0.3475170197836357  0.6336561703559307   T   T   T
  0.3000084831982155  0.5617016765305833  0.6290717338971783   T   T   T
  0.4800666742622299  0.6523863774907753  0.6336774018371447   T   T   T
  0.7208657489307980  0.6062873266070079  0.6478628743641229   T   T   T
  0.2790639340387442  0.3936486551008002  0.6478769255101725   T   T   T
 
  0.00000000E+00  0.00000000E+00  0.00000000E+00
  0.00000000E+00  0.00000000E+00  0.00000000E+00
  0.00000000E+00  0.00000000E+00  0.00000000E+00
  0.00000000E+00  0.00000000E+00  0.00000000E+00
  0.00000000E+00  0.00000000E+00  0.00000000E+00
  0.00000000E+00  0.00000000E+00  0.00000000E+00
  0.00000000E+00  0.00000000E+00  0.00000000E+00
  0.00000000E+00  0.00000000E+00  0.00000000E+00
  0.00000000E+00  0.00000000E+00  0.00000000E+00
  0.00000000E+00  0.00000000E+00  0.00000000E+00
  0.00000000E+00  0.00000000E+00  0.00000000E+00
  0.00000000E+00  0.00000000E+00  0.00000000E+00
  0.00000000E+00  0.00000000E+00  0.00000000E+00
  0.00000000E+00  0.00000000E+00  0.00000000E+00
  0.00000000E+00  0.00000000E+00  0.00000000E+00
  0.00000000E+00  0.00000000E+00  0.00000000E+00
  0.00000000E+00  0.00000000E+00  0.00000000E+00
  0.00000000E+00  0.00000000E+00  0.00000000E+00
  0.00000000E+00  0.00000000E+00  0.00000000E+00
  0.00000000E+00  0.00000000E+00  0.00000000E+00
  0.00000000E+00  0.00000000E+00  0.00000000E+00
  0.00000000E+00  0.00000000E+00  0.00000000E+00
  0.00000000E+00  0.00000000E+00  0.00000000E+00
  0.00000000E+00  0.00000000E+00  0.00000000E+00
  0.00000000E+00  0.00000000E+00  0.00000000E+00
  0.00000000E+00  0.00000000E+00  0.00000000E+00
  0.00000000E+00  0.00000000E+00  0.00000000E+00
  0.00000000E+00  0.00000000E+00  0.00000000E+00
  0.00000000E+00  0.00000000E+00  0.00000000E+00
  0.00000000E+00  0.00000000E+00  0.00000000E+00
  0.00000000E+00  0.00000000E+00  0.00000000E+00
  0.00000000E+00  0.00000000E+00  0.00000000E+00
  0.00000000E+00  0.00000000E+00  0.00000000E+00
  0.00000000E+00  0.00000000E+00  0.00000000E+00
  0.00000000E+00  0.00000000E+00  0.00000000E+00
  0.00000000E+00  0.00000000E+00  0.00000000E+00
  0.00000000E+00  0.00000000E+00  0.00000000E+00
  0.00000000E+00  0.00000000E+00  0.00000000E+00
  0.00000000E+00  0.00000000E+00  0.00000000E+00
  0.00000000E+00  0.00000000E+00  0.00000000E+00
  0.00000000E+00  0.00000000E+00  0.00000000E+00
  0.00000000E+00  0.00000000E+00  0.00000000E+00
  0.00000000E+00  0.00000000E+00  0.00000000E+00
  0.00000000E+00  0.00000000E+00  0.00000000E+00
  0.00000000E+00  0.00000000E+00  0.00000000E+00
  0.00000000E+00  0.00000000E+00  0.00000000E+00
  0.00000000E+00  0.00000000E+00  0.00000000E+00
  0.00000000E+00  0.00000000E+00  0.00000000E+00
  0.00000000E+00  0.00000000E+00  0.00000000E+00
  0.00000000E+00  0.00000000E+00  0.00000000E+00
  0.00000000E+00  0.00000000E+00  0.00000000E+00
  0.00000000E+00  0.00000000E+00  0.00000000E+00
  0.00000000E+00  0.00000000E+00  0.00000000E+00
  0.00000000E+00  0.00000000E+00  0.00000000E+00
  0.00000000E+00  0.00000000E+00  0.00000000E+00
  0.00000000E+00  0.00000000E+00  0.00000000E+00
  0.00000000E+00  0.00000000E+00  0.00000000E+00
  0.00000000E+00  0.00000000E+00  0.00000000E+00
  0.00000000E+00  0.00000000E+00  0.00000000E+00
  0.00000000E+00  0.00000000E+00  0.00000000E+00
  0.00000000E+00  0.00000000E+00  0.00000000E+00
  0.00000000E+00  0.00000000E+00  0.00000000E+00
  0.00000000E+00  0.00000000E+00  0.00000000E+00
  0.00000000E+00  0.00000000E+00  0.00000000E+00
  0.00000000E+00  0.00000000E+00  0.00000000E+00
  0.00000000E+00  0.00000000E+00  0.00000000E+00
  0.00000000E+00  0.00000000E+00  0.00000000E+00
  0.00000000E+00  0.00000000E+00  0.00000000E+00
  0.00000000E+00  0.00000000E+00  0.00000000E+00
  0.00000000E+00  0.00000000E+00  0.00000000E+00
  0.00000000E+00  0.00000000E+00  0.00000000E+00
  0.00000000E+00  0.00000000E+00  0.00000000E+00
  0.00000000E+00  0.00000000E+00  0.00000000E+00
  0.00000000E+00  0.00000000E+00  0.00000000E+00
  0.00000000E+00  0.00000000E+00  0.00000000E+00
  0.00000000E+00  0.00000000E+00  0.00000000E+00
