Pt48 C4 Br4 N2                          
    1.000000000000000     
    11.2480069999999994    0.0000000000000000    0.0000000000000000
    -5.6240030000000001    9.7410599999999992    0.0000000000000000
     0.0000000000000000    0.0000000000000000   16.5919799999999995
   Pt   C    Br   N 
    48     4     4     2
Selective dynamics
Direct
  0.0833330000000032  0.1666669999999968  0.3616209999999995   F   F   F
  0.0833330000000032  0.4166669999999968  0.3616209999999995   F   F   F
  0.0833330000000032  0.6666669999999968  0.3616209999999995   F   F   F
  0.0833330000000032  0.9166669999999968  0.3616209999999995   F   F   F
  0.3333330000000032  0.1666669999999968  0.3616209999999995   F   F   F
  0.3333330000000032  0.4166669999999968  0.3616209999999995   F   F   F
  0.3333330000000032  0.6666669999999968  0.3616209999999995   F   F   F
  0.3333330000000032  0.9166669999999968  0.3616209999999995   F   F   F
  0.5833330000000032  0.1666669999999968  0.3616209999999995   F   F   F
  0.5833330000000032  0.4166669999999968  0.3616209999999995   F   F   F
  0.5833330000000032  0.6666669999999968  0.3616209999999995   F   F   F
  0.5833330000000032  0.9166669999999968  0.3616209999999995   F   F   F
  0.8333330000000032  0.1666669999999968  0.3616209999999995   F   F   F
  0.8333330000000032  0.4166669999999968  0.3616209999999995   F   F   F
  0.8333330000000032  0.6666669999999968  0.3616209999999995   F   F   F
  0.8333330000000032  0.9166669999999968  0.3616209999999995   F   F   F
  0.2426295640641669  0.2445115306456671  0.6392276828751804   T   T   T
  0.2401881290262011  0.4983320826671900  0.6432414406949576   T   T   T
  0.2496408096959968  0.7514113544836718  0.6433856206146586   T   T   T
  0.2501136861987234  0.9998882643797842  0.6421644445280066   T   T   T
  0.4947613306919720  0.2408952452740465  0.6430473338868907   T   T   T
  0.4882285058779274  0.4906499385200362  0.6419829944381803   T   T   T
  0.4972892844939381  0.7527154706663595  0.6457810038305851   T   T   T
  0.4985922289658546  0.0003608979949234  0.6433788290896629   T   T   T
  0.7495821247347081  0.2522350569236664  0.6425543864238676   T   T   T
  0.7490370456252080  0.5009496690736555  0.6450905068089270   T   T   T
  0.7593429769991360  0.7617636447859937  0.6419831847701261   T   T   T
  0.7516708741504488  0.0098095213893927  0.6432419479974030   T   T   T
  0.9977763739616208  0.2522242897912577  0.6417874842005489   T   T   T
  0.9977637055679338  0.5004206602629395  0.6425576730661859   T   T   T
  0.0091033673815630  0.7552367931974899  0.6430546576453509   T   T   T
  0.0054855125751629  0.0073661886611731  0.6392332289786467   T   T   T
  0.1678283738517266  0.0821695208232924  0.4990249245019527   T   T   T
  0.1661290897642544  0.3329426221403722  0.5005321571960692   T   T   T
  0.1662588959628977  0.5829508814602775  0.5020303203098564   T   T   T
  0.1675980027134898  0.8324651268313517  0.5009422583628051   T   T   T
  0.4175295446184606  0.0823994187098265  0.5009370106791167   T   T   T
  0.4168706947893668  0.3334238858077967  0.5019497945941325   T   T   T
  0.4160895421654729  0.5828815187804111  0.5029377278019496   T   T   T
  0.4181730116057025  0.8318254332316641  0.5046936977248038   T   T   T
  0.6670547924554882  0.0837432708719206  0.5020281130024316   T   T   T
  0.6662388807797797  0.3347297882351796  0.5035228376514240   T   T   T
  0.6656860995327207  0.5843192176500480  0.5027322247721528   T   T   T
  0.6671266533332698  0.8339162297369000  0.5029397216228375   T   T   T
  0.9170603788704952  0.0838711674010142  0.5005329543650276   T   T   T
  0.9157153649197838  0.3342927465461329  0.5008355663028539   T   T   T
  0.9152748765674161  0.5837646300772619  0.5035260520901588   T   T   T
  0.9165772201229245  0.8331300772134824  0.5019510656542892   T   T   T
  0.4837138811697912  0.5594186295933810  0.7617831983190939   T   T   T
  0.5579865792801471  0.4849100124883563  0.7612917199094014   T   T   T
  0.7650629467192118  0.6919508927455098  0.7612943433404169   T   T   T
  0.6905293264876278  0.7662579864194115  0.7617816837145739   T   T   T
  0.7721523649104753  0.9554346881678839  0.8011776550067680   T   T   T
  0.9547446537088788  0.7723761206108364  0.8003429888644220   T   T   T
  0.2945421848327712  0.4778494353099632  0.8011784178912578   T   T   T
  0.4775792235380933  0.2952278501443075  0.8003441883118541   T   T   T
  0.7004583006316309  0.5495310553192212  0.7618935915855687   T   T   T
  0.5482007480608360  0.7018380286061756  0.7624783412050178   T   T   T
 
  0.00000000E+00  0.00000000E+00  0.00000000E+00
  0.00000000E+00  0.00000000E+00  0.00000000E+00
  0.00000000E+00  0.00000000E+00  0.00000000E+00
  0.00000000E+00  0.00000000E+00  0.00000000E+00
  0.00000000E+00  0.00000000E+00  0.00000000E+00
  0.00000000E+00  0.00000000E+00  0.00000000E+00
  0.00000000E+00  0.00000000E+00  0.00000000E+00
  0.00000000E+00  0.00000000E+00  0.00000000E+00
  0.00000000E+00  0.00000000E+00  0.00000000E+00
  0.00000000E+00  0.00000000E+00  0.00000000E+00
  0.00000000E+00  0.00000000E+00  0.00000000E+00
  0.00000000E+00  0.00000000E+00  0.00000000E+00
  0.00000000E+00  0.00000000E+00  0.00000000E+00
  0.00000000E+00  0.00000000E+00  0.00000000E+00
  0.00000000E+00  0.00000000E+00  0.00000000E+00
  0.00000000E+00  0.00000000E+00  0.00000000E+00
  0.00000000E+00  0.00000000E+00  0.00000000E+00
  0.00000000E+00  0.00000000E+00  0.00000000E+00
  0.00000000E+00  0.00000000E+00  0.00000000E+00
  0.00000000E+00  0.00000000E+00  0.00000000E+00
  0.00000000E+00  0.00000000E+00  0.00000000E+00
  0.00000000E+00  0.00000000E+00  0.00000000E+00
  0.00000000E+00  0.00000000E+00  0.00000000E+00
  0.00000000E+00  0.00000000E+00  0.00000000E+00
  0.00000000E+00  0.00000000E+00  0.00000000E+00
  0.00000000E+00  0.00000000E+00  0.00000000E+00
  0.00000000E+00  0.00000000E+00  0.00000000E+00
  0.00000000E+00  0.00000000E+00  0.00000000E+00
  0.00000000E+00  0.00000000E+00  0.00000000E+00
  0.00000000E+00  0.00000000E+00  0.00000000E+00
  0.00000000E+00  0.00000000E+00  0.00000000E+00
  0.00000000E+00  0.00000000E+00  0.00000000E+00
  0.00000000E+00  0.00000000E+00  0.00000000E+00
  0.00000000E+00  0.00000000E+00  0.00000000E+00
  0.00000000E+00  0.00000000E+00  0.00000000E+00
  0.00000000E+00  0.00000000E+00  0.00000000E+00
  0.00000000E+00  0.00000000E+00  0.00000000E+00
  0.00000000E+00  0.00000000E+00  0.00000000E+00
  0.00000000E+00  0.00000000E+00  0.00000000E+00
  0.00000000E+00  0.00000000E+00  0.00000000E+00
  0.00000000E+00  0.00000000E+00  0.00000000E+00
  0.00000000E+00  0.00000000E+00  0.00000000E+00
  0.00000000E+00  0.00000000E+00  0.00000000E+00
  0.00000000E+00  0.00000000E+00  0.00000000E+00
  0.00000000E+00  0.00000000E+00  0.00000000E+00
  0.00000000E+00  0.00000000E+00  0.00000000E+00
  0.00000000E+00  0.00000000E+00  0.00000000E+00
  0.00000000E+00  0.00000000E+00  0.00000000E+00
  0.00000000E+00  0.00000000E+00  0.00000000E+00
  0.00000000E+00  0.00000000E+00  0.00000000E+00
  0.00000000E+00  0.00000000E+00  0.00000000E+00
  0.00000000E+00  0.00000000E+00  0.00000000E+00
  0.00000000E+00  0.00000000E+00  0.00000000E+00
  0.00000000E+00  0.00000000E+00  0.00000000E+00
  0.00000000E+00  0.00000000E+00  0.00000000E+00
  0.00000000E+00  0.00000000E+00  0.00000000E+00
  0.00000000E+00  0.00000000E+00  0.00000000E+00
  0.00000000E+00  0.00000000E+00  0.00000000E+00
