H2 Pt48 C6 Cl4                          
    1.000000000000000     
    11.2480069999999994    0.0000000000000000    0.0000000000000000
    -5.6240030000000001    9.7410599999999992    0.0000000000000000
     0.0000000000000000    0.0000000000000000   17.5940830000000012
   H    Pt   C    Cl
     2    48     6     4
Selective dynamics
Direct
  0.7528958297636947  0.4969138140106821  0.7803355801353220   T   T   T
  0.4972105837097160  0.7526160461988667  0.7801671738250135   T   T   T
  0.0833330000000032  0.1666669999999968  0.3410239999999973   F   F   F
  0.0833330000000032  0.4166669999999968  0.3410239999999973   F   F   F
  0.0833330000000032  0.6666669999999968  0.3410239999999973   F   F   F
  0.0833330000000032  0.9166669999999968  0.3410239999999973   F   F   F
  0.3333330000000032  0.1666669999999968  0.3410239999999973   F   F   F
  0.3333330000000032  0.4166669999999968  0.3410239999999973   F   F   F
  0.3333330000000032  0.6666669999999968  0.3410239999999973   F   F   F
  0.3333330000000032  0.9166669999999968  0.3410239999999973   F   F   F
  0.5833330000000032  0.1666669999999968  0.3410239999999973   F   F   F
  0.5833330000000032  0.4166669999999968  0.3410239999999973   F   F   F
  0.5833330000000032  0.6666669999999968  0.3410239999999973   F   F   F
  0.5833330000000032  0.9166669999999968  0.3410239999999973   F   F   F
  0.8333330000000032  0.1666669999999968  0.3410239999999973   F   F   F
  0.8333330000000032  0.4166669999999968  0.3410239999999973   F   F   F
  0.8333330000000032  0.6666669999999968  0.3410239999999973   F   F   F
  0.8333330000000032  0.9166669999999968  0.3410239999999973   F   F   F
  0.2493840654041364  0.2501761524797885  0.6056337710407931   T   T   T
  0.2492680574841017  0.5004312553706640  0.6057724305062990   T   T   T
  0.2497703912432030  0.7504615095721263  0.6062318484476208   T   T   T
  0.2497106431288216  0.0003459735849702  0.6059355971445513   T   T   T
  0.4997567154297968  0.2498924101219160  0.6057855640971184   T   T   T
  0.4995591447572565  0.5003649115010518  0.6035163823650436   T   T   T
  0.4995564362610665  0.7504973112789628  0.6054688341723420   T   T   T
  0.4995967553005585  0.0002854171417752  0.6062393350525426   T   T   T
  0.7498658130868350  0.2505737058113837  0.6061624732404525   T   T   T
  0.7496909986297666  0.5003474671278951  0.6055330918380761   T   T   T
  0.7496830580987890  0.7504962915427029  0.6035215871787116   T   T   T
  0.7496190844696500  0.0007832381920139  0.6057818349894717   T   T   T
  0.9996254170211571  0.2504162750798855  0.6057487635816656   T   T   T
  0.9994694845442993  0.5001816638642040  0.6061448449620030   T   T   T
  0.0001570690966233  0.7502985479061124  0.6057808759127141   T   T   T
  0.9998687370910631  0.0006629737032853  0.6056362941613216   T   T   T
  0.1665843242450862  0.0834328172342680  0.4733063933704784   T   T   T
  0.1665089182777635  0.3333320077546205  0.4732215610784678   T   T   T
  0.1663380452162571  0.5833361818074536  0.4735623429273375   T   T   T
  0.1669574591415142  0.8335350618997808  0.4734212053949065   T   T   T
  0.4164925861006523  0.0830671422377591  0.4734197007484369   T   T   T
  0.4160917876425287  0.3326831948875935  0.4729694888670508   T   T   T
  0.4162444802516916  0.5836639355377997  0.4728060367271709   T   T   T
  0.4164289927669031  0.8336042903378882  0.4735453737324775   T   T   T
  0.6666994593703777  0.0836927274524513  0.4735623274241973   T   T   T
  0.6662253772522249  0.3330703574158207  0.4734093773849608   T   T   T
  0.6667423471098815  0.5832881129276828  0.4724759257365605   T   T   T
  0.6663754949120886  0.8337937900910930  0.4728086673913339   T   T   T
  0.9166896223586107  0.0835051745548228  0.4732217922149360   T   T   T
  0.9164695259634428  0.3335519394027457  0.4734953993413171   T   T   T
  0.9169547401214615  0.5838075849545845  0.4734034227350605   T   T   T
  0.9173414769397894  0.8339448158593541  0.4729677533158920   T   T   T
  0.6967820699636817  0.5529777817195409  0.7805694700119830   T   T   T
  0.5531810600415668  0.4805957075385621  0.7819070225205493   T   T   T
  0.4808440384060120  0.5529201490354652  0.7818630784365936   T   T   T
  0.5532356839958226  0.6965264638668103  0.7804751197254802   T   T   T
  0.6968367549477321  0.7689266453449193  0.7818829903714004   T   T   T
  0.7691723815403932  0.6965703416786084  0.7819194496969288   T   T   T
  0.4689703678076924  0.3046396988293338  0.7852043814474214   T   T   T
  0.3049345923808104  0.4688234607003423  0.7852130078244528   T   T   T
  0.7810078388044417  0.9449280953281374  0.7852645261908791   T   T   T
  0.9452297918419461  0.7808569272979611  0.7852231606822500   T   T   T
 
  0.00000000E+00  0.00000000E+00  0.00000000E+00
  0.00000000E+00  0.00000000E+00  0.00000000E+00
  0.00000000E+00  0.00000000E+00  0.00000000E+00
  0.00000000E+00  0.00000000E+00  0.00000000E+00
  0.00000000E+00  0.00000000E+00  0.00000000E+00
  0.00000000E+00  0.00000000E+00  0.00000000E+00
  0.00000000E+00  0.00000000E+00  0.00000000E+00
  0.00000000E+00  0.00000000E+00  0.00000000E+00
  0.00000000E+00  0.00000000E+00  0.00000000E+00
  0.00000000E+00  0.00000000E+00  0.00000000E+00
  0.00000000E+00  0.00000000E+00  0.00000000E+00
  0.00000000E+00  0.00000000E+00  0.00000000E+00
  0.00000000E+00  0.00000000E+00  0.00000000E+00
  0.00000000E+00  0.00000000E+00  0.00000000E+00
  0.00000000E+00  0.00000000E+00  0.00000000E+00
  0.00000000E+00  0.00000000E+00  0.00000000E+00
  0.00000000E+00  0.00000000E+00  0.00000000E+00
  0.00000000E+00  0.00000000E+00  0.00000000E+00
  0.00000000E+00  0.00000000E+00  0.00000000E+00
  0.00000000E+00  0.00000000E+00  0.00000000E+00
  0.00000000E+00  0.00000000E+00  0.00000000E+00
  0.00000000E+00  0.00000000E+00  0.00000000E+00
  0.00000000E+00  0.00000000E+00  0.00000000E+00
  0.00000000E+00  0.00000000E+00  0.00000000E+00
  0.00000000E+00  0.00000000E+00  0.00000000E+00
  0.00000000E+00  0.00000000E+00  0.00000000E+00
  0.00000000E+00  0.00000000E+00  0.00000000E+00
  0.00000000E+00  0.00000000E+00  0.00000000E+00
  0.00000000E+00  0.00000000E+00  0.00000000E+00
  0.00000000E+00  0.00000000E+00  0.00000000E+00
  0.00000000E+00  0.00000000E+00  0.00000000E+00
  0.00000000E+00  0.00000000E+00  0.00000000E+00
  0.00000000E+00  0.00000000E+00  0.00000000E+00
  0.00000000E+00  0.00000000E+00  0.00000000E+00
  0.00000000E+00  0.00000000E+00  0.00000000E+00
  0.00000000E+00  0.00000000E+00  0.00000000E+00
  0.00000000E+00  0.00000000E+00  0.00000000E+00
  0.00000000E+00  0.00000000E+00  0.00000000E+00
  0.00000000E+00  0.00000000E+00  0.00000000E+00
  0.00000000E+00  0.00000000E+00  0.00000000E+00
  0.00000000E+00  0.00000000E+00  0.00000000E+00
  0.00000000E+00  0.00000000E+00  0.00000000E+00
  0.00000000E+00  0.00000000E+00  0.00000000E+00
  0.00000000E+00  0.00000000E+00  0.00000000E+00
  0.00000000E+00  0.00000000E+00  0.00000000E+00
  0.00000000E+00  0.00000000E+00  0.00000000E+00
  0.00000000E+00  0.00000000E+00  0.00000000E+00
  0.00000000E+00  0.00000000E+00  0.00000000E+00
  0.00000000E+00  0.00000000E+00  0.00000000E+00
  0.00000000E+00  0.00000000E+00  0.00000000E+00
  0.00000000E+00  0.00000000E+00  0.00000000E+00
  0.00000000E+00  0.00000000E+00  0.00000000E+00
  0.00000000E+00  0.00000000E+00  0.00000000E+00
  0.00000000E+00  0.00000000E+00  0.00000000E+00
  0.00000000E+00  0.00000000E+00  0.00000000E+00
  0.00000000E+00  0.00000000E+00  0.00000000E+00
  0.00000000E+00  0.00000000E+00  0.00000000E+00
  0.00000000E+00  0.00000000E+00  0.00000000E+00
  0.00000000E+00  0.00000000E+00  0.00000000E+00
  0.00000000E+00  0.00000000E+00  0.00000000E+00
