Pt48 C4 N2 F4                           
    1.000000000000000     
    11.2480068000000006    0.0000000000000000    0.0000000000000000
     0.0000000000000000   15.9070838000000006    0.0000000000000000
     0.0000000000000000    0.0000000000000000   15.6744472600000009
   Pt   C    N    F 
    48     4     2     4
Selective dynamics
Direct
  0.2499807735295931  0.2500516755322622  0.4043477147066028   T   T   T
  0.2497682339865150  0.4995674617930774  0.4040950782293962   T   T   T
  0.2496661460741123  0.7503172729833949  0.4038975602963362   T   T   T
  0.2500001661161946  0.0000220960473101  0.4042347070014216   T   T   T
  0.4998654211452447  0.2501081567365304  0.4041392087539961   T   T   T
  0.5000143657060931  0.5000014229922769  0.4047674861160360   T   T   T
  0.5001451111541542  0.7498985887729717  0.4041344840918271   T   T   T
  0.4999888532447798  0.9999950219070470  0.4043803856300485   T   T   T
  0.7503280017076008  0.2497181931524040  0.4038964813088199   T   T   T
  0.7502397977967874  0.5004432347652212  0.4040972068307198   T   T   T
  0.7500251641058355  0.7499281373468136  0.4043606732986973   T   T   T
  0.7499928378585778  0.9999556546698756  0.4042368567996562   T   T   T
  0.0002253206341365  0.2497062313579619  0.4040049993135852   T   T   T
  0.9999697643621488  0.5000066616164460  0.4036514490319121   T   T   T
  0.9997503979356139  0.7503034793159387  0.4040228310189278   T   T   T
  0.0000123975112984  0.9999849030359442  0.4045683426702666   T   T   T
  0.1251481439695397  0.1250195492936825  0.4898597641124454   T   T   T
  0.1238664986587708  0.3748411997647167  0.4900185676227053   T   T   T
  0.1240769895616367  0.6250700655892416  0.4895197506359494   T   T   T
  0.1249538608269063  0.8751270552612525  0.4899940859926275   T   T   T
  0.3750829088182499  0.1250201537530415  0.4898391705592928   T   T   T
  0.3743788126765324  0.3748959198464448  0.4903488420680944   T   T   T
  0.3730886777477238  0.6249851741727852  0.4887068365000715   T   T   T
  0.3750473261642782  0.8748870537966553  0.4897734660174109   T   T   T
  0.6249435190857611  0.1251081990373564  0.4897151777934070   T   T   T
  0.6269278927846926  0.3750253542962128  0.4887055380300609   T   T   T
  0.6256254745384453  0.6251162174169806  0.4904117016565550   T   T   T
  0.6248994047499536  0.8749700966106815  0.4898626084286519   T   T   T
  0.8750519325308872  0.1248688234831405  0.4899470431340021   T   T   T
  0.8759083795626452  0.3749437310230803  0.4896695181953561   T   T   T
  0.8761179094496399  0.6251695074069659  0.4900503872189574   T   T   T
  0.8748545679988524  0.8749667593278403  0.4898618702538187   T   T   T
  0.1250000000000000  0.1250000003143228  0.3189905147570755   F   F   F
  0.1250000000000000  0.3750000003143228  0.3189905147570755   F   F   F
  0.1250000008890453  0.6250000009429755  0.3189905147570755   F   F   F
  0.1250000008890453  0.8750000009429755  0.3189905147570755   F   F   F
  0.3750000008890453  0.1250000003143228  0.3189905147570755   F   F   F
  0.3750000008890453  0.3750000003143228  0.3189905147570755   F   F   F
  0.3750000008890453  0.6250000009429755  0.3189905147570755   F   F   F
  0.3750000008890453  0.8750000009429755  0.3189905147570755   F   F   F
  0.6250000017780906  0.1250000003143228  0.3189905147570755   F   F   F
  0.6250000017780906  0.3750000003143228  0.3189905147570755   F   F   F
  0.6250000017780906  0.6250000009429755  0.3189905147570755   F   F   F
  0.6250000026671358  0.8750000009429755  0.3189905147570755   F   F   F
  0.8750000026671358  0.1250000003143228  0.3189905147570755   F   F   F
  0.8750000026671358  0.3750000003143228  0.3189905147570755   F   F   F
  0.8750000035561882  0.6250000009429755  0.3189905147570755   F   F   F
  0.8750000026671358  0.8750000009429755  0.3189905147570755   F   F   F
  0.4545772321901964  0.5770626809945512  0.6787839726214884   T   T   T
  0.3820121629313959  0.5053972701938676  0.6783304978187772   T   T   T
  0.5454333526342197  0.4229217005272332  0.6787880407070830   T   T   T
  0.6180038794801987  0.4945917989782771  0.6783302087557956   T   T   T
  0.4282804032556555  0.4290954660045401  0.6774245394029563   T   T   T
  0.5717345867782981  0.5708962438059686  0.6774224241950009   T   T   T
  0.7367223192381900  0.4876687652327902  0.6812282531225193   T   T   T
  0.5930775638449930  0.3456256525201056  0.6857187001429565   T   T   T
  0.4069398266285802  0.6543631955576714  0.6857051978028395   T   T   T
  0.2633035176290122  0.5123189870989648  0.6812322436582932   T   T   T
 
  0.00000000E+00  0.00000000E+00  0.00000000E+00
  0.00000000E+00  0.00000000E+00  0.00000000E+00
  0.00000000E+00  0.00000000E+00  0.00000000E+00
  0.00000000E+00  0.00000000E+00  0.00000000E+00
  0.00000000E+00  0.00000000E+00  0.00000000E+00
  0.00000000E+00  0.00000000E+00  0.00000000E+00
  0.00000000E+00  0.00000000E+00  0.00000000E+00
  0.00000000E+00  0.00000000E+00  0.00000000E+00
  0.00000000E+00  0.00000000E+00  0.00000000E+00
  0.00000000E+00  0.00000000E+00  0.00000000E+00
  0.00000000E+00  0.00000000E+00  0.00000000E+00
  0.00000000E+00  0.00000000E+00  0.00000000E+00
  0.00000000E+00  0.00000000E+00  0.00000000E+00
  0.00000000E+00  0.00000000E+00  0.00000000E+00
  0.00000000E+00  0.00000000E+00  0.00000000E+00
  0.00000000E+00  0.00000000E+00  0.00000000E+00
  0.00000000E+00  0.00000000E+00  0.00000000E+00
  0.00000000E+00  0.00000000E+00  0.00000000E+00
  0.00000000E+00  0.00000000E+00  0.00000000E+00
  0.00000000E+00  0.00000000E+00  0.00000000E+00
  0.00000000E+00  0.00000000E+00  0.00000000E+00
  0.00000000E+00  0.00000000E+00  0.00000000E+00
  0.00000000E+00  0.00000000E+00  0.00000000E+00
  0.00000000E+00  0.00000000E+00  0.00000000E+00
  0.00000000E+00  0.00000000E+00  0.00000000E+00
  0.00000000E+00  0.00000000E+00  0.00000000E+00
  0.00000000E+00  0.00000000E+00  0.00000000E+00
  0.00000000E+00  0.00000000E+00  0.00000000E+00
  0.00000000E+00  0.00000000E+00  0.00000000E+00
  0.00000000E+00  0.00000000E+00  0.00000000E+00
  0.00000000E+00  0.00000000E+00  0.00000000E+00
  0.00000000E+00  0.00000000E+00  0.00000000E+00
  0.00000000E+00  0.00000000E+00  0.00000000E+00
  0.00000000E+00  0.00000000E+00  0.00000000E+00
  0.00000000E+00  0.00000000E+00  0.00000000E+00
  0.00000000E+00  0.00000000E+00  0.00000000E+00
  0.00000000E+00  0.00000000E+00  0.00000000E+00
  0.00000000E+00  0.00000000E+00  0.00000000E+00
  0.00000000E+00  0.00000000E+00  0.00000000E+00
  0.00000000E+00  0.00000000E+00  0.00000000E+00
  0.00000000E+00  0.00000000E+00  0.00000000E+00
  0.00000000E+00  0.00000000E+00  0.00000000E+00
  0.00000000E+00  0.00000000E+00  0.00000000E+00
  0.00000000E+00  0.00000000E+00  0.00000000E+00
  0.00000000E+00  0.00000000E+00  0.00000000E+00
  0.00000000E+00  0.00000000E+00  0.00000000E+00
  0.00000000E+00  0.00000000E+00  0.00000000E+00
  0.00000000E+00  0.00000000E+00  0.00000000E+00
  0.00000000E+00  0.00000000E+00  0.00000000E+00
  0.00000000E+00  0.00000000E+00  0.00000000E+00
  0.00000000E+00  0.00000000E+00  0.00000000E+00
  0.00000000E+00  0.00000000E+00  0.00000000E+00
  0.00000000E+00  0.00000000E+00  0.00000000E+00
  0.00000000E+00  0.00000000E+00  0.00000000E+00
  0.00000000E+00  0.00000000E+00  0.00000000E+00
  0.00000000E+00  0.00000000E+00  0.00000000E+00
  0.00000000E+00  0.00000000E+00  0.00000000E+00
  0.00000000E+00  0.00000000E+00  0.00000000E+00
