Rh  C Br                                
    1.000000000000000     
    10.8856652999999994    0.0000000000000000    0.0000000000000000
     0.0000000000000000   10.8856652999999994    0.0000000000000000
     0.0000000000000000    0.0000000000000000   23.7729958199999984
   Rh   C    Br
    64     6     6
Selective dynamics
Direct
  0.0000000000000000  0.0000000000000000  0.3154840078544225   F   F   F
  0.7500000013779555  0.5000000009186394  0.3154840078544225   F   F   F
  0.0000000018372788  0.2500000004593161  0.3154840078544225   F   F   F
  0.0000000018372788  0.5000000009186394  0.3154840078544225   F   F   F
  0.0000000000000000  0.7500000013779555  0.3154840078544225   F   F   F
  0.2500000004593161  0.0000000000000000  0.3154840078544225   F   F   F
  0.2500000004593161  0.2500000004593161  0.3154840078544225   F   F   F
  0.7500000013779555  0.7500000013779555  0.3154840078544225   F   F   F
  0.2500000004593161  0.5000000009186394  0.3154840078544225   F   F   F
  0.2500000004593161  0.7500000013779555  0.3154840078544225   F   F   F
  0.5000000009186394  0.0000000000000000  0.3154840078544225   F   F   F
  0.5000000009186394  0.2500000004593161  0.3154840078544225   F   F   F
  0.5000000009186394  0.5000000009186394  0.3154840078544225   F   F   F
  0.5000000009186394  0.7500000013779555  0.3154840078544225   F   F   F
  0.7500000013779555  0.0000000000000000  0.3154840078544225   F   F   F
  0.7500000013779555  0.2500000004593161  0.3154840078544225   F   F   F
 -0.0000505464115532 -0.0000198050359774  0.4726653192829317   T   T   T
  0.9986442617620634  0.2516847288649831  0.4738474854314852   T   T   T
 -0.0000259306092943  0.5000255318773077  0.4752416817474006   T   T   T
  0.0013105920586060  0.7483925523428718  0.4738428503108568   T   T   T
  0.2516337458304294  0.9986849877834049  0.4738348387090658   T   T   T
  0.2486883878311898  0.2486929847020433  0.4730807043562836   T   T   T
  0.2484951978063648  0.4993324412573041  0.4731826868470429   T   T   T
  0.2519523300423465  0.7480340369560343  0.4738711255445741   T   T   T
  0.5000056678924604  0.0000113925523551  0.4751895356093642   T   T   T
  0.4993395749463956  0.2485265166992703  0.4731653256526607   T   T   T
  0.4999542463798520  0.5000390649320741  0.4726060624402710   T   T   T
  0.5006524325755899  0.7514509428443472  0.4731881228873971   T   T   T
  0.7483337989923923  0.0013043816625817  0.4738359471107279   T   T   T
  0.7480184148868235  0.2519792320788187  0.4738670607816924   T   T   T
  0.7514593892762715  0.5006686470683531  0.4731863825063323   T   T   T
  0.7512635183997006  0.7512987316748306  0.4730928825714377   T   T   T
  0.1193744611559533  0.1193151181018544  0.5484455728474419   T   T   T
  0.1242282162421059  0.3724523693150938  0.5509414340375056   T   T   T
  0.1257031244947096  0.6263375916913180  0.5518514548431626   T   T   T
  0.1258933837381380  0.8741273492521602  0.5484945401596756   T   T   T
  0.3725223357167849  0.1242366147278020  0.5508723632489588   T   T   T
  0.3733087300598468  0.3732926884912167  0.5478649189271688   T   T   T
  0.3752565342380718  0.6246885104194081  0.5520979892718407   T   T   T
  0.3736445080199598  0.8742903422879374  0.5518416551843626   T   T   T
  0.6263607751054091  0.1257103704654779  0.5518360840865639   T   T   T
  0.6246401511025804  0.3753166749008353  0.5520659617969133   T   T   T
  0.6267040724647325  0.6267325406890851  0.5478883301546197   T   T   T
  0.6275098882434323  0.8757541854068768  0.5509017651233722   T   T   T
  0.8740821569573181  0.1259090432863427  0.5484962404499353   T   T   T
  0.8742512827942844  0.3736770866692486  0.5518774297759733   T   T   T
  0.8757308161052707  0.6275866507550282  0.5509157142363961   T   T   T
  0.8806006961342019  0.8807066049203829  0.5484796223166675   T   T   T
  0.1249999997703384  0.1249999997703384  0.3964301349042145   F   F   F
  0.1250000006889778  0.3750000002296616  0.3964301349042145   F   F   F
  0.1250000006889778  0.6250000006889778  0.3964301349042145   F   F   F
  0.1250000006889778  0.8750000011483010  0.3964301349042145   F   F   F
  0.3750000011483010  0.1249999997703384  0.3964301349042145   F   F   F
  0.3750000011483010  0.3750000002296616  0.3964301349042145   F   F   F
  0.3750000011483010  0.6250000006889778  0.3964301349042145   F   F   F
  0.3750000011483010  0.8750000011483010  0.3964301349042145   F   F   F
  0.6250000006889778  0.1249999997703384  0.3964301349042145   F   F   F
  0.6250000006889778  0.3750000002296616  0.3964301349042145   F   F   F
  0.6250000016076172  0.6250000006889778  0.3964301349042145   F   F   F
  0.6250000016076172  0.8750000011483010  0.3964301349042145   F   F   F
  0.8750000011483010  0.1249999997703384  0.3964301349042145   F   F   F
  0.8750000011483010  0.3750000002296616  0.3964301349042145   F   F   F
  0.8750000011483010  0.6250000006889778  0.3964301349042145   F   F   F
  0.8750000020669404  0.8750000011483010  0.3964301349042145   F   F   F
  0.6262945019456607  0.4659218370392721  0.6313613082172679   T   T   T
  0.5339594269247802  0.3738528656159328  0.6313240058416543   T   T   T
  0.4099048456344753  0.4095619208738280  0.6264745334631745   T   T   T
  0.3744748298804930  0.5336130950372523  0.6312140927315756   T   T   T
  0.4665673981107719  0.6256010100329465  0.6312178583683093   T   T   T
  0.5906166715937218  0.5900394645666248  0.6265194928378283   T   T   T
  0.8192826876997158  0.4257483153097817  0.6505185468752762   T   T   T
  0.5737765404296837  0.1802594475761219  0.6504084982265124   T   T   T
  0.2009354162413129  0.2027571491956558  0.6343492537314723   T   T   T
  0.1797796944646977  0.5744439832827655  0.6505320794426485   T   T   T
  0.4262734144329479  0.8201860811821675  0.6504475466614374   T   T   T
  0.7988843280315702  0.7974005670695785  0.6343839371676662   T   T   T
 
  0.00000000E+00  0.00000000E+00  0.00000000E+00
  0.00000000E+00  0.00000000E+00  0.00000000E+00
  0.00000000E+00  0.00000000E+00  0.00000000E+00
  0.00000000E+00  0.00000000E+00  0.00000000E+00
  0.00000000E+00  0.00000000E+00  0.00000000E+00
  0.00000000E+00  0.00000000E+00  0.00000000E+00
  0.00000000E+00  0.00000000E+00  0.00000000E+00
  0.00000000E+00  0.00000000E+00  0.00000000E+00
  0.00000000E+00  0.00000000E+00  0.00000000E+00
  0.00000000E+00  0.00000000E+00  0.00000000E+00
  0.00000000E+00  0.00000000E+00  0.00000000E+00
  0.00000000E+00  0.00000000E+00  0.00000000E+00
  0.00000000E+00  0.00000000E+00  0.00000000E+00
  0.00000000E+00  0.00000000E+00  0.00000000E+00
  0.00000000E+00  0.00000000E+00  0.00000000E+00
  0.00000000E+00  0.00000000E+00  0.00000000E+00
  0.00000000E+00  0.00000000E+00  0.00000000E+00
  0.00000000E+00  0.00000000E+00  0.00000000E+00
  0.00000000E+00  0.00000000E+00  0.00000000E+00
  0.00000000E+00  0.00000000E+00  0.00000000E+00
  0.00000000E+00  0.00000000E+00  0.00000000E+00
  0.00000000E+00  0.00000000E+00  0.00000000E+00
  0.00000000E+00  0.00000000E+00  0.00000000E+00
  0.00000000E+00  0.00000000E+00  0.00000000E+00
  0.00000000E+00  0.00000000E+00  0.00000000E+00
  0.00000000E+00  0.00000000E+00  0.00000000E+00
  0.00000000E+00  0.00000000E+00  0.00000000E+00
  0.00000000E+00  0.00000000E+00  0.00000000E+00
  0.00000000E+00  0.00000000E+00  0.00000000E+00
  0.00000000E+00  0.00000000E+00  0.00000000E+00
  0.00000000E+00  0.00000000E+00  0.00000000E+00
  0.00000000E+00  0.00000000E+00  0.00000000E+00
  0.00000000E+00  0.00000000E+00  0.00000000E+00
  0.00000000E+00  0.00000000E+00  0.00000000E+00
  0.00000000E+00  0.00000000E+00  0.00000000E+00
  0.00000000E+00  0.00000000E+00  0.00000000E+00
  0.00000000E+00  0.00000000E+00  0.00000000E+00
  0.00000000E+00  0.00000000E+00  0.00000000E+00
  0.00000000E+00  0.00000000E+00  0.00000000E+00
  0.00000000E+00  0.00000000E+00  0.00000000E+00
  0.00000000E+00  0.00000000E+00  0.00000000E+00
  0.00000000E+00  0.00000000E+00  0.00000000E+00
  0.00000000E+00  0.00000000E+00  0.00000000E+00
  0.00000000E+00  0.00000000E+00  0.00000000E+00
  0.00000000E+00  0.00000000E+00  0.00000000E+00
  0.00000000E+00  0.00000000E+00  0.00000000E+00
  0.00000000E+00  0.00000000E+00  0.00000000E+00
  0.00000000E+00  0.00000000E+00  0.00000000E+00
  0.00000000E+00  0.00000000E+00  0.00000000E+00
  0.00000000E+00  0.00000000E+00  0.00000000E+00
  0.00000000E+00  0.00000000E+00  0.00000000E+00
  0.00000000E+00  0.00000000E+00  0.00000000E+00
  0.00000000E+00  0.00000000E+00  0.00000000E+00
  0.00000000E+00  0.00000000E+00  0.00000000E+00
  0.00000000E+00  0.00000000E+00  0.00000000E+00
  0.00000000E+00  0.00000000E+00  0.00000000E+00
  0.00000000E+00  0.00000000E+00  0.00000000E+00
  0.00000000E+00  0.00000000E+00  0.00000000E+00
  0.00000000E+00  0.00000000E+00  0.00000000E+00
  0.00000000E+00  0.00000000E+00  0.00000000E+00
  0.00000000E+00  0.00000000E+00  0.00000000E+00
  0.00000000E+00  0.00000000E+00  0.00000000E+00
  0.00000000E+00  0.00000000E+00  0.00000000E+00
  0.00000000E+00  0.00000000E+00  0.00000000E+00
  0.00000000E+00  0.00000000E+00  0.00000000E+00
  0.00000000E+00  0.00000000E+00  0.00000000E+00
  0.00000000E+00  0.00000000E+00  0.00000000E+00
  0.00000000E+00  0.00000000E+00  0.00000000E+00
  0.00000000E+00  0.00000000E+00  0.00000000E+00
  0.00000000E+00  0.00000000E+00  0.00000000E+00
  0.00000000E+00  0.00000000E+00  0.00000000E+00
  0.00000000E+00  0.00000000E+00  0.00000000E+00
  0.00000000E+00  0.00000000E+00  0.00000000E+00
  0.00000000E+00  0.00000000E+00  0.00000000E+00
  0.00000000E+00  0.00000000E+00  0.00000000E+00
  0.00000000E+00  0.00000000E+00  0.00000000E+00
