Ag48 C6 Cl2 H4                          
    1.000000000000000     
    11.7702790000000004    0.0000000000000000    0.0000000000000000
     0.0000000000000000   11.7702790000000004    0.0000000000000000
     0.0000000000000000    0.0000000000000000   16.8008125499999998
   Ag   C    Cl   H 
    48     6     2     4
Selective dynamics
Direct
  0.0000048010375480  0.2499500173871780  0.4105256467665797   T   T   T
  0.0000005807650751  0.4999999579789147  0.4104564315995987   T   T   T
  0.9999958146721539  0.7500499129723650  0.4105253742782367   T   T   T
  0.0000002790777174  0.0000000974389636  0.4103830973833382   T   T   T
  0.2496889884571303  0.2496889170426968  0.4103131461396927   T   T   T
  0.2499083488168878  0.5002911783333843  0.4104495467434788   T   T   T
  0.2500421893664608  0.7499579680045656  0.4106480124744252   T   T   T
  0.2499503655104505  0.0000043308184132  0.4105252291753558   T   T   T
  0.5002904146258516  0.2499075051935264  0.4104500535460289   T   T   T
  0.4999983643891710  0.4999997926837025  0.4101978495875898   T   T   T
  0.4997079019193293  0.7500925649908794  0.4104488160668112   T   T   T
  0.4999996656357908  0.0000000424691819  0.4104559076081316   T   T   T
  0.7499582518983772  0.2500411536927842  0.4106489901309018   T   T   T
  0.7500926813253344  0.4997088435099215  0.4104499154942545   T   T   T
  0.7503115431657150  0.7503118482519753  0.4103127266413793   T   T   T
  0.7500496852599383  0.9999955807091538  0.4105252918898614   T   T   T
  0.1246920080607552  0.1246917948128470  0.5232424917353740   T   T   T
  0.1245525798777720  0.3751626754978332  0.5232765320322628   T   T   T
  0.1250608818462524  0.6249952923069628  0.5233689738431622   T   T   T
  0.1249752143794609  0.8750249824098617  0.5234851841615225   T   T   T
  0.3751625917381745  0.1245523453988895  0.5232765149134480   T   T   T
  0.3751224941780649  0.3751221572596464  0.5211634794072140   T   T   T
  0.3748070959900360  0.6251924260096189  0.5238718505108011   T   T   T
  0.3750047206333420  0.8749393938205827  0.5233687806526319   T   T   T
  0.6249950409266916  0.1250606032468937  0.5233690545627496   T   T   T
  0.6251922698783616  0.3748070129612415  0.5238713809743487   T   T   T
  0.6248761774417844  0.6248767641280040  0.5211588597053023   T   T   T
  0.6248369072527140  0.8754482721910719  0.5232759005885228   T   T   T
  0.8750250558691519  0.1249749733963625  0.5234852990195193   T   T   T
  0.8749393958844038  0.3750046371154028  0.5233688308175459   T   T   T
  0.8754483300633567  0.6248371032021964  0.5232760924173618   T   T   T
  0.8753085289383833  0.8753085747432792  0.5232411463972042   T   T   T
  0.1249999995752020  0.1249999995752020  0.2976046536511134   F   F   F
  0.1249999995752020  0.3749999987256061  0.2976046536511134   F   F   F
  0.1249999995752020  0.6249999978760030  0.2976046536511134   F   F   F
  0.1249999995752020  0.8749999970264071  0.2976046536511134   F   F   F
  0.3749999987256061  0.1249999995752020  0.2976046536511134   F   F   F
  0.3749999987256061  0.3749999987256061  0.2976046536511134   F   F   F
  0.3749999987256061  0.6249999978760030  0.2976046536511134   F   F   F
  0.3749999987256061  0.8749999970264071  0.2976046536511134   F   F   F
  0.6249999978760030  0.1249999995752020  0.2976046536511134   F   F   F
  0.6249999978760030  0.3749999987256061  0.2976046536511134   F   F   F
  0.6249999978760030  0.6249999978760030  0.2976046536511134   F   F   F
  0.6249999978760030  0.8749999970264071  0.2976046536511134   F   F   F
  0.8749999970264071  0.1249999995752020  0.2976046536511134   F   F   F
  0.8749999970264071  0.3749999987256061  0.2976046536511134   F   F   F
  0.8749999970264071  0.6249999978760030  0.2976046536511134   F   F   F
  0.8749999970264071  0.8749999970264071  0.2976046536511134   F   F   F
  0.5833740974003234  0.5833746922778644  0.7026949294870661   T   T   T
  0.6151519708616462  0.4688834169985725  0.7017323749697724   T   T   T
  0.5311101597317460  0.3848477207057783  0.7017393611405609   T   T   T
  0.4166251813456228  0.4166244710429297  0.7027082034511380   T   T   T
  0.3848501002484994  0.5311168678571363  0.7017396759276124   T   T   T
  0.4688893224517585  0.6151544154101884  0.7017330002557713   T   T   T
  0.6874925910373122  0.6874777841350053  0.7038751624116131   T   T   T
  0.3125114270403841  0.3125261373570751  0.7039065335162249   T   T   T
  0.7046943765188942  0.4453198119235040  0.7019898426520754   T   T   T
  0.5546698199079430  0.2953020826563488  0.7020038423723918   T   T   T
  0.2953072126143468  0.5546804040040385  0.7020033090336142   T   T   T
  0.4453311626990626  0.7046993929131418  0.7019902700366885   T   T   T
 
  0.00000000E+00  0.00000000E+00  0.00000000E+00
  0.00000000E+00  0.00000000E+00  0.00000000E+00
  0.00000000E+00  0.00000000E+00  0.00000000E+00
  0.00000000E+00  0.00000000E+00  0.00000000E+00
  0.00000000E+00  0.00000000E+00  0.00000000E+00
  0.00000000E+00  0.00000000E+00  0.00000000E+00
  0.00000000E+00  0.00000000E+00  0.00000000E+00
  0.00000000E+00  0.00000000E+00  0.00000000E+00
  0.00000000E+00  0.00000000E+00  0.00000000E+00
  0.00000000E+00  0.00000000E+00  0.00000000E+00
  0.00000000E+00  0.00000000E+00  0.00000000E+00
  0.00000000E+00  0.00000000E+00  0.00000000E+00
  0.00000000E+00  0.00000000E+00  0.00000000E+00
  0.00000000E+00  0.00000000E+00  0.00000000E+00
  0.00000000E+00  0.00000000E+00  0.00000000E+00
  0.00000000E+00  0.00000000E+00  0.00000000E+00
  0.00000000E+00  0.00000000E+00  0.00000000E+00
  0.00000000E+00  0.00000000E+00  0.00000000E+00
  0.00000000E+00  0.00000000E+00  0.00000000E+00
  0.00000000E+00  0.00000000E+00  0.00000000E+00
  0.00000000E+00  0.00000000E+00  0.00000000E+00
  0.00000000E+00  0.00000000E+00  0.00000000E+00
  0.00000000E+00  0.00000000E+00  0.00000000E+00
  0.00000000E+00  0.00000000E+00  0.00000000E+00
  0.00000000E+00  0.00000000E+00  0.00000000E+00
  0.00000000E+00  0.00000000E+00  0.00000000E+00
  0.00000000E+00  0.00000000E+00  0.00000000E+00
  0.00000000E+00  0.00000000E+00  0.00000000E+00
  0.00000000E+00  0.00000000E+00  0.00000000E+00
  0.00000000E+00  0.00000000E+00  0.00000000E+00
  0.00000000E+00  0.00000000E+00  0.00000000E+00
  0.00000000E+00  0.00000000E+00  0.00000000E+00
  0.00000000E+00  0.00000000E+00  0.00000000E+00
  0.00000000E+00  0.00000000E+00  0.00000000E+00
  0.00000000E+00  0.00000000E+00  0.00000000E+00
  0.00000000E+00  0.00000000E+00  0.00000000E+00
  0.00000000E+00  0.00000000E+00  0.00000000E+00
  0.00000000E+00  0.00000000E+00  0.00000000E+00
  0.00000000E+00  0.00000000E+00  0.00000000E+00
  0.00000000E+00  0.00000000E+00  0.00000000E+00
  0.00000000E+00  0.00000000E+00  0.00000000E+00
  0.00000000E+00  0.00000000E+00  0.00000000E+00
  0.00000000E+00  0.00000000E+00  0.00000000E+00
  0.00000000E+00  0.00000000E+00  0.00000000E+00
  0.00000000E+00  0.00000000E+00  0.00000000E+00
  0.00000000E+00  0.00000000E+00  0.00000000E+00
  0.00000000E+00  0.00000000E+00  0.00000000E+00
  0.00000000E+00  0.00000000E+00  0.00000000E+00
  0.00000000E+00  0.00000000E+00  0.00000000E+00
  0.00000000E+00  0.00000000E+00  0.00000000E+00
  0.00000000E+00  0.00000000E+00  0.00000000E+00
  0.00000000E+00  0.00000000E+00  0.00000000E+00
  0.00000000E+00  0.00000000E+00  0.00000000E+00
  0.00000000E+00  0.00000000E+00  0.00000000E+00
  0.00000000E+00  0.00000000E+00  0.00000000E+00
  0.00000000E+00  0.00000000E+00  0.00000000E+00
  0.00000000E+00  0.00000000E+00  0.00000000E+00
  0.00000000E+00  0.00000000E+00  0.00000000E+00
  0.00000000E+00  0.00000000E+00  0.00000000E+00
  0.00000000E+00  0.00000000E+00  0.00000000E+00
