Rh  C  H Cl                             
    1.000000000000000     
    10.8856652999999994    0.0000000000000000    0.0000000000000000
     0.0000000000000000   10.8856652999999994    0.0000000000000000
     0.0000000000000000    0.0000000000000000   23.7729958199999984
   Rh   C    H    Cl
    64     6     4     2
Selective dynamics
Direct
  0.0000000000000000  0.0000000000000000  0.3154840078544225   F   F   F
  0.7500000013779555  0.5000000009186394  0.3154840078544225   F   F   F
  0.0000000018372788  0.2500000004593161  0.3154840078544225   F   F   F
  0.0000000018372788  0.5000000009186394  0.3154840078544225   F   F   F
  0.0000000000000000  0.7500000013779555  0.3154840078544225   F   F   F
  0.2500000004593161  0.0000000000000000  0.3154840078544225   F   F   F
  0.2500000004593161  0.2500000004593161  0.3154840078544225   F   F   F
  0.7500000013779555  0.7500000013779555  0.3154840078544225   F   F   F
  0.2500000004593161  0.5000000009186394  0.3154840078544225   F   F   F
  0.2500000004593161  0.7500000013779555  0.3154840078544225   F   F   F
  0.5000000009186394  0.0000000000000000  0.3154840078544225   F   F   F
  0.5000000009186394  0.2500000004593161  0.3154840078544225   F   F   F
  0.5000000009186394  0.5000000009186394  0.3154840078544225   F   F   F
  0.5000000009186394  0.7500000013779555  0.3154840078544225   F   F   F
  0.7500000013779555  0.0000000000000000  0.3154840078544225   F   F   F
  0.7500000013779555  0.2500000004593161  0.3154840078544225   F   F   F
  0.0000232904699250  0.0000089060730364  0.4736870495321817   T   T   T
  0.9995421526397535  0.2496055347343768  0.4736135174870815   T   T   T
  0.0000294284701515  0.5000044959578190  0.4732440675547792   T   T   T
  0.0004818124796772  0.7504011740059314  0.4736064363403364   T   T   T
  0.2496251804776389  0.9995619452192177  0.4736187438678872   T   T   T
  0.2497299247727040  0.2497023495574932  0.4736720290131720   T   T   T
  0.2503793831656715  0.4999001548761928  0.4739646928296274   T   T   T
  0.2515785160164422  0.7484186824460319  0.4740223386934078   T   T   T
  0.4999626652538808  0.0000397325986128  0.4732870178384634   T   T   T
  0.4999008699246841  0.2503892573221350  0.4739718594367311   T   T   T
  0.4999708809018166  0.4999853860801936  0.4738366534733982   T   T   T
  0.5000957764099200  0.7496180044220049  0.4739629472360823   T   T   T
  0.7503780987010309  0.0004525990182328  0.4736142026818795   T   T   T
  0.7484078750127143  0.2515695056932307  0.4740156083162357   T   T   T
  0.7496196356094261  0.5000959315005721  0.4739594250839563   T   T   T
  0.7503115622206884  0.7503190144491036  0.4736629454949765   T   T   T
  0.1248176973757731  0.1248359132750033  0.5489708151096763   T   T   T
  0.1232338061434120  0.3747970535839297  0.5487997091113141   T   T   T
  0.1237533186937560  0.6248358718246829  0.5487706333635463   T   T   T
  0.1257467310112962  0.8742271968295537  0.5490129455315944   T   T   T
  0.3747708617642408  0.1232463453142797  0.5488390360747465   T   T   T
  0.3735058610451372  0.3735174644322908  0.5495336365736625   T   T   T
  0.3736370110298308  0.6263755637214928  0.5527422573244913   T   T   T
  0.3751452340503028  0.8762524686538173  0.5487745609284485   T   T   T
  0.6248338909213282  0.1237517785012062  0.5487779723191795   T   T   T
  0.6263623104068233  0.3736343927715306  0.5527289419721421   T   T   T
  0.6264878209855956  0.6264833582015475  0.5494965117061437   T   T   T
  0.6251781876327730  0.8767829875268586  0.5488020163075304   T   T   T
  0.8742627577922593  0.1257828823057981  0.5490125667024111   T   T   T
  0.8762550007165779  0.3751594239193627  0.5487632314055598   T   T   T
  0.8767938093526942  0.6251881615331949  0.5487822338214859   T   T   T
  0.8751997349578128  0.8751710853356818  0.5489603767603809   T   T   T
  0.1249999997703384  0.1249999997703384  0.3964301349042145   F   F   F
  0.1250000006889778  0.3750000002296616  0.3964301349042145   F   F   F
  0.1250000006889778  0.6250000006889778  0.3964301349042145   F   F   F
  0.1250000006889778  0.8750000011483010  0.3964301349042145   F   F   F
  0.3750000011483010  0.1249999997703384  0.3964301349042145   F   F   F
  0.3750000011483010  0.3750000002296616  0.3964301349042145   F   F   F
  0.3750000011483010  0.6250000006889778  0.3964301349042145   F   F   F
  0.3750000011483010  0.8750000011483010  0.3964301349042145   F   F   F
  0.6250000006889778  0.1249999997703384  0.3964301349042145   F   F   F
  0.6250000006889778  0.3750000002296616  0.3964301349042145   F   F   F
  0.6250000016076172  0.6250000006889778  0.3964301349042145   F   F   F
  0.6250000016076172  0.8750000011483010  0.3964301349042145   F   F   F
  0.8750000011483010  0.1249999997703384  0.3964301349042145   F   F   F
  0.8750000011483010  0.3750000002296616  0.3964301349042145   F   F   F
  0.8750000011483010  0.6250000006889778  0.3964301349042145   F   F   F
  0.8750000020669404  0.8750000011483010  0.3964301349042145   F   F   F
  0.4051774455768933  0.4050884911547432  0.6338985147008701   T   T   T
  0.3714449073601551  0.5355155865522199  0.6362528836563427   T   T   T
  0.4644028100999332  0.6285325988010330  0.6362315140969222   T   T   T
  0.5948367027739480  0.5949340562430490  0.6338544280572754   T   T   T
  0.6285865205321449  0.4644238541400330  0.6362236413268771   T   T   T
  0.5356205168674479  0.3714288133688943  0.6362315059028433   T   T   T
  0.2806377224418654  0.5568773446049485  0.6530466649737211   T   T   T
  0.4429816370564159  0.7192971290953025  0.6530342396107042   T   T   T
  0.7193978428167814  0.4430910243031798  0.6530443489313646   T   T   T
  0.5570484418647133  0.2806719108132641  0.6530326190990730   T   T   T
  0.3055919676841770  0.3055725514022858  0.6717857850058115   T   T   T
  0.6943397048296229  0.6944890643714271  0.6717657153418782   T   T   T
 
  0.00000000E+00  0.00000000E+00  0.00000000E+00
  0.00000000E+00  0.00000000E+00  0.00000000E+00
  0.00000000E+00  0.00000000E+00  0.00000000E+00
  0.00000000E+00  0.00000000E+00  0.00000000E+00
  0.00000000E+00  0.00000000E+00  0.00000000E+00
  0.00000000E+00  0.00000000E+00  0.00000000E+00
  0.00000000E+00  0.00000000E+00  0.00000000E+00
  0.00000000E+00  0.00000000E+00  0.00000000E+00
  0.00000000E+00  0.00000000E+00  0.00000000E+00
  0.00000000E+00  0.00000000E+00  0.00000000E+00
  0.00000000E+00  0.00000000E+00  0.00000000E+00
  0.00000000E+00  0.00000000E+00  0.00000000E+00
  0.00000000E+00  0.00000000E+00  0.00000000E+00
  0.00000000E+00  0.00000000E+00  0.00000000E+00
  0.00000000E+00  0.00000000E+00  0.00000000E+00
  0.00000000E+00  0.00000000E+00  0.00000000E+00
  0.00000000E+00  0.00000000E+00  0.00000000E+00
  0.00000000E+00  0.00000000E+00  0.00000000E+00
  0.00000000E+00  0.00000000E+00  0.00000000E+00
  0.00000000E+00  0.00000000E+00  0.00000000E+00
  0.00000000E+00  0.00000000E+00  0.00000000E+00
  0.00000000E+00  0.00000000E+00  0.00000000E+00
  0.00000000E+00  0.00000000E+00  0.00000000E+00
  0.00000000E+00  0.00000000E+00  0.00000000E+00
  0.00000000E+00  0.00000000E+00  0.00000000E+00
  0.00000000E+00  0.00000000E+00  0.00000000E+00
  0.00000000E+00  0.00000000E+00  0.00000000E+00
  0.00000000E+00  0.00000000E+00  0.00000000E+00
  0.00000000E+00  0.00000000E+00  0.00000000E+00
  0.00000000E+00  0.00000000E+00  0.00000000E+00
  0.00000000E+00  0.00000000E+00  0.00000000E+00
  0.00000000E+00  0.00000000E+00  0.00000000E+00
  0.00000000E+00  0.00000000E+00  0.00000000E+00
  0.00000000E+00  0.00000000E+00  0.00000000E+00
  0.00000000E+00  0.00000000E+00  0.00000000E+00
  0.00000000E+00  0.00000000E+00  0.00000000E+00
  0.00000000E+00  0.00000000E+00  0.00000000E+00
  0.00000000E+00  0.00000000E+00  0.00000000E+00
  0.00000000E+00  0.00000000E+00  0.00000000E+00
  0.00000000E+00  0.00000000E+00  0.00000000E+00
  0.00000000E+00  0.00000000E+00  0.00000000E+00
  0.00000000E+00  0.00000000E+00  0.00000000E+00
  0.00000000E+00  0.00000000E+00  0.00000000E+00
  0.00000000E+00  0.00000000E+00  0.00000000E+00
  0.00000000E+00  0.00000000E+00  0.00000000E+00
  0.00000000E+00  0.00000000E+00  0.00000000E+00
  0.00000000E+00  0.00000000E+00  0.00000000E+00
  0.00000000E+00  0.00000000E+00  0.00000000E+00
  0.00000000E+00  0.00000000E+00  0.00000000E+00
  0.00000000E+00  0.00000000E+00  0.00000000E+00
  0.00000000E+00  0.00000000E+00  0.00000000E+00
  0.00000000E+00  0.00000000E+00  0.00000000E+00
  0.00000000E+00  0.00000000E+00  0.00000000E+00
  0.00000000E+00  0.00000000E+00  0.00000000E+00
  0.00000000E+00  0.00000000E+00  0.00000000E+00
  0.00000000E+00  0.00000000E+00  0.00000000E+00
  0.00000000E+00  0.00000000E+00  0.00000000E+00
  0.00000000E+00  0.00000000E+00  0.00000000E+00
  0.00000000E+00  0.00000000E+00  0.00000000E+00
  0.00000000E+00  0.00000000E+00  0.00000000E+00
  0.00000000E+00  0.00000000E+00  0.00000000E+00
  0.00000000E+00  0.00000000E+00  0.00000000E+00
  0.00000000E+00  0.00000000E+00  0.00000000E+00
  0.00000000E+00  0.00000000E+00  0.00000000E+00
  0.00000000E+00  0.00000000E+00  0.00000000E+00
  0.00000000E+00  0.00000000E+00  0.00000000E+00
  0.00000000E+00  0.00000000E+00  0.00000000E+00
  0.00000000E+00  0.00000000E+00  0.00000000E+00
  0.00000000E+00  0.00000000E+00  0.00000000E+00
  0.00000000E+00  0.00000000E+00  0.00000000E+00
  0.00000000E+00  0.00000000E+00  0.00000000E+00
  0.00000000E+00  0.00000000E+00  0.00000000E+00
  0.00000000E+00  0.00000000E+00  0.00000000E+00
  0.00000000E+00  0.00000000E+00  0.00000000E+00
  0.00000000E+00  0.00000000E+00  0.00000000E+00
  0.00000000E+00  0.00000000E+00  0.00000000E+00
