Ir  C  H Cl                             
    1.000000000000000     
    10.9622135000000007    0.0000000000000000    0.0000000000000000
     0.0000000000000000   10.9622135000000007    0.0000000000000000
     0.0000000000000000    0.0000000000000000   23.8135916099999996
   Ir   C    H    Cl
    64     6     4     2
Selective dynamics
Direct
  0.0000000000000000  0.2499999995438884  0.3149461921926360   F   F   F
  0.7499999986316652  0.7499999986316652  0.3149461921926360   F   F   F
  0.0000000000000000  0.4999999990877768  0.3149461921926360   F   F   F
  0.0000000000000000  0.7499999986316652  0.3149461921926360   F   F   F
  0.0000000000000000  0.0000000000000000  0.3149461921926360   F   F   F
  0.2499999995438884  0.2499999995438884  0.3149461921926360   F   F   F
  0.2499999995438884  0.4999999990877768  0.3149461921926360   F   F   F
  0.7499999986316652  0.0000000000000000  0.3149461921926360   F   F   F
  0.2499999995438884  0.7499999986316652  0.3149461921926360   F   F   F
  0.2499999995438884  0.0000000000000000  0.3149461921926360   F   F   F
  0.4999999990877768  0.2499999995438884  0.3149461921926360   F   F   F
  0.4999999990877768  0.4999999990877768  0.3149461921926360   F   F   F
  0.4999999990877768  0.7499999986316652  0.3149461921926360   F   F   F
  0.4999999990877768  0.0000000000000000  0.3149461921926360   F   F   F
  0.7499999986316652  0.2499999995438884  0.3149461921926360   F   F   F
  0.7499999986316652  0.4999999990877768  0.3149461921926360   F   F   F
  0.9991040141525733  0.2494208868994429  0.4779925563174124   T   T   T
  0.0000369797306558  0.5000023665901911  0.4778621574233354   T   T   T
  0.0009458209127443  0.7505868787900447  0.4779959518301565   T   T   T
  0.0000257965203535  0.0000044516319701  0.4782629406658591   T   T   T
  0.2497850714317759  0.2497404561776967  0.4782758662246424   T   T   T
  0.2510709153158441  0.4994860539010397  0.4790357045661516   T   T   T
  0.2521729965549452  0.7478260220834341  0.4792457289032737   T   T   T
  0.2494440336463699  0.9990835503653729  0.4779823483507153   T   T   T
  0.4995063784972852  0.2510389299226238  0.4790377055371044   T   T   T
  0.5000132443371018  0.4999984165005338  0.4792479177637202   T   T   T
  0.5005019236551362  0.7489463974637551  0.4790257986973317   T   T   T
  0.5000013505682099  0.0000100027908698  0.4778377914594740   T   T   T
  0.7478132987453956  0.2521789190364359  0.4792590112632422   T   T   T
  0.7489719596902371  0.5004916103444388  0.4790386893024546   T   T   T
  0.7502462946635720  0.7502344994972955  0.4782768032334228   T   T   T
  0.7505745634972888  0.0009235135510720  0.4779908688140427   T   T   T
  0.1249370300621070  0.1249349231012849  0.5563424185922824   T   T   T
  0.1228786275857368  0.3744722919378086  0.5563768379233714   T   T   T
  0.1229759196414189  0.6245522365082355  0.5565262001229745   T   T   T
  0.1252315452517389  0.8748421512817031  0.5565228726181050   T   T   T
  0.3744784307793501  0.1228433881896766  0.5563716477240196   T   T   T
  0.3724031155358765  0.3723844173589068  0.5579871812024164   T   T   T
  0.3724638747208095  0.6275251261720706  0.5625100816359254   T   T   T
  0.3754797641638176  0.8770456798535592  0.5565215767564071   T   T   T
  0.6245377926249740  0.1229613248824257  0.5565258015121055   T   T   T
  0.6275493224517310  0.3724605910177227  0.5625244486752914   T   T   T
  0.6276422470918972  0.6276344381908976  0.5579915814053460   T   T   T
  0.6255425585517298  0.8771361636648423  0.5563865217251295   T   T   T
  0.8748252818107271  0.1251975252329196  0.5565314474794441   T   T   T
  0.8770557995165734  0.3754770330293451  0.5565331702264966   T   T   T
  0.8771533506453305  0.6255237880469126  0.5563822320716855   T   T   T
  0.8750622580748807  0.8750634314454540  0.5563474480906422   T   T   T
  0.1250000002280558  0.1250000002280558  0.3963225717718615   F   F   F
  0.1250000002280558  0.3749999997719442  0.3963225717718615   F   F   F
  0.1250000002280558  0.6249999993158326  0.3963225717718615   F   F   F
  0.1250000002280558  0.8749999988597210  0.3963225717718615   F   F   F
  0.3749999997719442  0.1250000002280558  0.3963225717718615   F   F   F
  0.3749999997719442  0.3749999997719442  0.3963225717718615   F   F   F
  0.3749999997719442  0.6249999993158326  0.3963225717718615   F   F   F
  0.3749999997719442  0.8749999988597210  0.3963225717718615   F   F   F
  0.6249999993158326  0.1250000002280558  0.3963225717718615   F   F   F
  0.6249999993158326  0.3749999997719442  0.3963225717718615   F   F   F
  0.6249999993158326  0.6249999993158326  0.3963225717718615   F   F   F
  0.6249999993158326  0.8749999988597210  0.3963225717718615   F   F   F
  0.8749999988597210  0.1250000002280558  0.3963225717718615   F   F   F
  0.8749999988597210  0.3749999997719442  0.3963225717718615   F   F   F
  0.8749999988597210  0.6249999993158326  0.3963225717718615   F   F   F
  0.8749999988597210  0.8749999988597210  0.3963225717718615   F   F   F
  0.5959147005038752  0.5958902289967770  0.6433313352539912   T   T   T
  0.6280488339684394  0.4644133291114829  0.6460543691283401   T   T   T
  0.5355299053290413  0.3719671939758882  0.6460538869607848   T   T   T
  0.4039967542515307  0.4040849765105629  0.6433226378663622   T   T   T
  0.3719347577935312  0.5355962067326016  0.6460408174447706   T   T   T
  0.4644407413748721  0.6280468122117494  0.6460406641665842   T   T   T
  0.7163810401646552  0.4437349638209906  0.6647929633718082   T   T   T
  0.5561936266024052  0.2835033933996992  0.6647994074758922   T   T   T
  0.2835485800184420  0.5562709225567937  0.6647845416177038   T   T   T
  0.4437630368819699  0.7164641854241188  0.6647890724600236   T   T   T
  0.6877538568459959  0.6877739239250836  0.6883601789182863   T   T   T
  0.3120091973542883  0.3122871291194045  0.6882724723745755   T   T   T
 
  0.00000000E+00  0.00000000E+00  0.00000000E+00
  0.00000000E+00  0.00000000E+00  0.00000000E+00
  0.00000000E+00  0.00000000E+00  0.00000000E+00
  0.00000000E+00  0.00000000E+00  0.00000000E+00
  0.00000000E+00  0.00000000E+00  0.00000000E+00
  0.00000000E+00  0.00000000E+00  0.00000000E+00
  0.00000000E+00  0.00000000E+00  0.00000000E+00
  0.00000000E+00  0.00000000E+00  0.00000000E+00
  0.00000000E+00  0.00000000E+00  0.00000000E+00
  0.00000000E+00  0.00000000E+00  0.00000000E+00
  0.00000000E+00  0.00000000E+00  0.00000000E+00
  0.00000000E+00  0.00000000E+00  0.00000000E+00
  0.00000000E+00  0.00000000E+00  0.00000000E+00
  0.00000000E+00  0.00000000E+00  0.00000000E+00
  0.00000000E+00  0.00000000E+00  0.00000000E+00
  0.00000000E+00  0.00000000E+00  0.00000000E+00
  0.00000000E+00  0.00000000E+00  0.00000000E+00
  0.00000000E+00  0.00000000E+00  0.00000000E+00
  0.00000000E+00  0.00000000E+00  0.00000000E+00
  0.00000000E+00  0.00000000E+00  0.00000000E+00
  0.00000000E+00  0.00000000E+00  0.00000000E+00
  0.00000000E+00  0.00000000E+00  0.00000000E+00
  0.00000000E+00  0.00000000E+00  0.00000000E+00
  0.00000000E+00  0.00000000E+00  0.00000000E+00
  0.00000000E+00  0.00000000E+00  0.00000000E+00
  0.00000000E+00  0.00000000E+00  0.00000000E+00
  0.00000000E+00  0.00000000E+00  0.00000000E+00
  0.00000000E+00  0.00000000E+00  0.00000000E+00
  0.00000000E+00  0.00000000E+00  0.00000000E+00
  0.00000000E+00  0.00000000E+00  0.00000000E+00
  0.00000000E+00  0.00000000E+00  0.00000000E+00
  0.00000000E+00  0.00000000E+00  0.00000000E+00
  0.00000000E+00  0.00000000E+00  0.00000000E+00
  0.00000000E+00  0.00000000E+00  0.00000000E+00
  0.00000000E+00  0.00000000E+00  0.00000000E+00
  0.00000000E+00  0.00000000E+00  0.00000000E+00
  0.00000000E+00  0.00000000E+00  0.00000000E+00
  0.00000000E+00  0.00000000E+00  0.00000000E+00
  0.00000000E+00  0.00000000E+00  0.00000000E+00
  0.00000000E+00  0.00000000E+00  0.00000000E+00
  0.00000000E+00  0.00000000E+00  0.00000000E+00
  0.00000000E+00  0.00000000E+00  0.00000000E+00
  0.00000000E+00  0.00000000E+00  0.00000000E+00
  0.00000000E+00  0.00000000E+00  0.00000000E+00
  0.00000000E+00  0.00000000E+00  0.00000000E+00
  0.00000000E+00  0.00000000E+00  0.00000000E+00
  0.00000000E+00  0.00000000E+00  0.00000000E+00
  0.00000000E+00  0.00000000E+00  0.00000000E+00
  0.00000000E+00  0.00000000E+00  0.00000000E+00
  0.00000000E+00  0.00000000E+00  0.00000000E+00
  0.00000000E+00  0.00000000E+00  0.00000000E+00
  0.00000000E+00  0.00000000E+00  0.00000000E+00
  0.00000000E+00  0.00000000E+00  0.00000000E+00
  0.00000000E+00  0.00000000E+00  0.00000000E+00
  0.00000000E+00  0.00000000E+00  0.00000000E+00
  0.00000000E+00  0.00000000E+00  0.00000000E+00
  0.00000000E+00  0.00000000E+00  0.00000000E+00
  0.00000000E+00  0.00000000E+00  0.00000000E+00
  0.00000000E+00  0.00000000E+00  0.00000000E+00
  0.00000000E+00  0.00000000E+00  0.00000000E+00
  0.00000000E+00  0.00000000E+00  0.00000000E+00
  0.00000000E+00  0.00000000E+00  0.00000000E+00
  0.00000000E+00  0.00000000E+00  0.00000000E+00
  0.00000000E+00  0.00000000E+00  0.00000000E+00
  0.00000000E+00  0.00000000E+00  0.00000000E+00
  0.00000000E+00  0.00000000E+00  0.00000000E+00
  0.00000000E+00  0.00000000E+00  0.00000000E+00
  0.00000000E+00  0.00000000E+00  0.00000000E+00
  0.00000000E+00  0.00000000E+00  0.00000000E+00
  0.00000000E+00  0.00000000E+00  0.00000000E+00
  0.00000000E+00  0.00000000E+00  0.00000000E+00
  0.00000000E+00  0.00000000E+00  0.00000000E+00
  0.00000000E+00  0.00000000E+00  0.00000000E+00
  0.00000000E+00  0.00000000E+00  0.00000000E+00
  0.00000000E+00  0.00000000E+00  0.00000000E+00
  0.00000000E+00  0.00000000E+00  0.00000000E+00
