Cu48 H2 C6 Br4                          
    1.000000000000000     
    10.2424769999999992    0.0000000000000000    0.0000000000000000
    -5.1212390000000001    8.8702459999999999    0.0000000000000000
     0.0000000000000000    0.0000000000000000   17.1871879999999990
   Cu   H    C    Br
    48     2     6     4
Selective dynamics
Direct
  0.0833330000000032  0.1666669999999968  0.3490970000000004   F   F   F
  0.0833330000000032  0.4166669999999968  0.3490970000000004   F   F   F
  0.0833330000000032  0.6666669999999968  0.3490970000000004   F   F   F
  0.0833330000000032  0.9166669999999968  0.3490970000000004   F   F   F
  0.3333330000000032  0.1666669999999968  0.3490970000000004   F   F   F
  0.3333330000000032  0.4166669999999968  0.3490970000000004   F   F   F
  0.3333330000000032  0.6666669999999968  0.3490970000000004   F   F   F
  0.3333330000000032  0.9166669999999968  0.3490970000000004   F   F   F
  0.5833330000000032  0.1666669999999968  0.3490970000000004   F   F   F
  0.5833330000000032  0.4166669999999968  0.3490970000000004   F   F   F
  0.5833330000000032  0.6666669999999968  0.3490970000000004   F   F   F
  0.5833330000000032  0.9166669999999968  0.3490970000000004   F   F   F
  0.8333330000000032  0.1666669999999968  0.3490970000000004   F   F   F
  0.8333330000000032  0.4166669999999968  0.3490970000000004   F   F   F
  0.8333330000000032  0.6666669999999968  0.3490970000000004   F   F   F
  0.8333330000000032  0.9166669999999968  0.3490970000000004   F   F   F
  0.9995157957740162  0.9996724760734281  0.5884134121677604   T   T   T
  0.9994051854989365  0.2499889008904290  0.5886557854911132   T   T   T
  0.0005338011454938  0.5001573769210381  0.5887464598649004   T   T   T
  0.0002014329284847  0.7497643853416776  0.5882811567411181   T   T   T
  0.2498513787698329  0.9994739709486637  0.5887490614610940   T   T   T
  0.2500185486627018  0.2502244787383603  0.5869450811090076   T   T   T
  0.2500222209151275  0.5000038065785546  0.5881401723463213   T   T   T
  0.2498440184176758  0.7494547945463452  0.5887625757159114   T   T   T
  0.5000962837285741  0.0007040076755800  0.5888675016346099   T   T   T
  0.4997068089498455  0.2503372085109987  0.5881472380526489   T   T   T
  0.4998221895997546  0.5000271516180348  0.5869355183924725   T   T   T
  0.5000184165976336  0.7505870292123973  0.5886631015033004   T   T   T
  0.7495660717413131  0.0004117228884084  0.5883793122801393   T   T   T
  0.7492819560195016  0.2499217434886702  0.5888389485027048   T   T   T
  0.7505134736881089  0.5001520912223256  0.5887080237377802   T   T   T
  0.7503000402165725  0.7504430273170186  0.5883957421435966   T   T   T
  0.1664681832149952  0.0827522507636118  0.4687421338650424   T   T   T
  0.1663568083253750  0.3333609138726956  0.4685996800443633   T   T   T
  0.1666335568136859  0.5833594961467483  0.4687227072079381   T   T   T
  0.1668426410528596  0.8332761349698572  0.4688293614362351   T   T   T
  0.4164577948271742  0.0832209054104212  0.4689219689050788   T   T   T
  0.4168057159063352  0.3332127058666998  0.4681604401168471   T   T   T
  0.4166522375470407  0.5836554390563364  0.4686009286965103   T   T   T
  0.4167563743171669  0.8334789780894667  0.4690153620031339   T   T   T
  0.6665485473976673  0.0834585545824780  0.4687773714543368   T   T   T
  0.6667954778322809  0.3335572186187150  0.4688846373749413   T   T   T
  0.6672571947099470  0.5835426628024436  0.4687131861617289   T   T   T
  0.6665370135498279  0.8332471732996893  0.4688158408887233   T   T   T
  0.9167321623589970  0.0834593281672085  0.4688138933386483   T   T   T
  0.9165043385389424  0.3332577435309716  0.4689837210239389   T   T   T
  0.9167068508773966  0.5831383521260065  0.4687956014903776   T   T   T
  0.9167148241831597  0.8332432992038150  0.4687764661469132   T   T   T
  0.2348278072420342  0.5152049185412864  0.7648638717655132   T   T   T
  0.5152333055409954  0.2347708482440183  0.7649137226211451   T   T   T
  0.2962846978875078  0.4537516809814051  0.7678871112176395   T   T   T
  0.4539416740339419  0.5329132630201059  0.7696766842726674   T   T   T
  0.5329394172423818  0.4538927673815749  0.7697237342837084   T   T   T
  0.4537628984626210  0.2962068560280926  0.7679483472804236   T   T   T
  0.2961152613904119  0.2170421917686767  0.7696024466366040   T   T   T
  0.2171123870569929  0.2960749089489099  0.7695861301615707   T   T   T
  0.5535894244845068  0.7460933322971002  0.7672245947967156   T   T   T
  0.7461739812390391  0.5535538446934964  0.7672615939029228   T   T   T
  0.1964534924905692  0.0038714306297933  0.7669241845448340   T   T   T
  0.0038933752970962  0.1964177585677049  0.7670671490452889   T   T   T
 
  0.00000000E+00  0.00000000E+00  0.00000000E+00
  0.00000000E+00  0.00000000E+00  0.00000000E+00
  0.00000000E+00  0.00000000E+00  0.00000000E+00
  0.00000000E+00  0.00000000E+00  0.00000000E+00
  0.00000000E+00  0.00000000E+00  0.00000000E+00
  0.00000000E+00  0.00000000E+00  0.00000000E+00
  0.00000000E+00  0.00000000E+00  0.00000000E+00
  0.00000000E+00  0.00000000E+00  0.00000000E+00
  0.00000000E+00  0.00000000E+00  0.00000000E+00
  0.00000000E+00  0.00000000E+00  0.00000000E+00
  0.00000000E+00  0.00000000E+00  0.00000000E+00
  0.00000000E+00  0.00000000E+00  0.00000000E+00
  0.00000000E+00  0.00000000E+00  0.00000000E+00
  0.00000000E+00  0.00000000E+00  0.00000000E+00
  0.00000000E+00  0.00000000E+00  0.00000000E+00
  0.00000000E+00  0.00000000E+00  0.00000000E+00
  0.00000000E+00  0.00000000E+00  0.00000000E+00
  0.00000000E+00  0.00000000E+00  0.00000000E+00
  0.00000000E+00  0.00000000E+00  0.00000000E+00
  0.00000000E+00  0.00000000E+00  0.00000000E+00
  0.00000000E+00  0.00000000E+00  0.00000000E+00
  0.00000000E+00  0.00000000E+00  0.00000000E+00
  0.00000000E+00  0.00000000E+00  0.00000000E+00
  0.00000000E+00  0.00000000E+00  0.00000000E+00
  0.00000000E+00  0.00000000E+00  0.00000000E+00
  0.00000000E+00  0.00000000E+00  0.00000000E+00
  0.00000000E+00  0.00000000E+00  0.00000000E+00
  0.00000000E+00  0.00000000E+00  0.00000000E+00
  0.00000000E+00  0.00000000E+00  0.00000000E+00
  0.00000000E+00  0.00000000E+00  0.00000000E+00
  0.00000000E+00  0.00000000E+00  0.00000000E+00
  0.00000000E+00  0.00000000E+00  0.00000000E+00
  0.00000000E+00  0.00000000E+00  0.00000000E+00
  0.00000000E+00  0.00000000E+00  0.00000000E+00
  0.00000000E+00  0.00000000E+00  0.00000000E+00
  0.00000000E+00  0.00000000E+00  0.00000000E+00
  0.00000000E+00  0.00000000E+00  0.00000000E+00
  0.00000000E+00  0.00000000E+00  0.00000000E+00
  0.00000000E+00  0.00000000E+00  0.00000000E+00
  0.00000000E+00  0.00000000E+00  0.00000000E+00
  0.00000000E+00  0.00000000E+00  0.00000000E+00
  0.00000000E+00  0.00000000E+00  0.00000000E+00
  0.00000000E+00  0.00000000E+00  0.00000000E+00
  0.00000000E+00  0.00000000E+00  0.00000000E+00
  0.00000000E+00  0.00000000E+00  0.00000000E+00
  0.00000000E+00  0.00000000E+00  0.00000000E+00
  0.00000000E+00  0.00000000E+00  0.00000000E+00
  0.00000000E+00  0.00000000E+00  0.00000000E+00
  0.00000000E+00  0.00000000E+00  0.00000000E+00
  0.00000000E+00  0.00000000E+00  0.00000000E+00
  0.00000000E+00  0.00000000E+00  0.00000000E+00
  0.00000000E+00  0.00000000E+00  0.00000000E+00
  0.00000000E+00  0.00000000E+00  0.00000000E+00
  0.00000000E+00  0.00000000E+00  0.00000000E+00
  0.00000000E+00  0.00000000E+00  0.00000000E+00
  0.00000000E+00  0.00000000E+00  0.00000000E+00
  0.00000000E+00  0.00000000E+00  0.00000000E+00
  0.00000000E+00  0.00000000E+00  0.00000000E+00
  0.00000000E+00  0.00000000E+00  0.00000000E+00
  0.00000000E+00  0.00000000E+00  0.00000000E+00
