Ir  C  N  F                             
    1.000000000000000     
    10.9622135000000007    0.0000000000000000    0.0000000000000000
     0.0000000000000000   15.5029109999999992    0.0000000000000000
     0.0000000000000000    0.0000000000000000   22.1108300437499992
   Ir   C    N    F 
    64     4     2     4
Selective dynamics
Direct
  0.2499999995438884  0.0000000000000000  0.3392002916742598   F   F   F
  0.9999999981755536  0.4999999993549622  0.3392002916742598   F   F   F
  0.2499999995438884  0.2499999993549622  0.3392002916742598   F   F   F
  0.2499999995438884  0.4999999993549622  0.3392002916742598   F   F   F
  0.2499999995438884  0.7499999987099173  0.3392002916742598   F   F   F
  0.4999999990877768  0.0000000000000000  0.3392002916742598   F   F   F
  0.4999999990877768  0.2499999993549622  0.3392002916742598   F   F   F
  0.4999999990877768  0.4999999993549622  0.3392002916742598   F   F   F
  0.4999999990877768  0.7499999987099173  0.3392002916742598   F   F   F
  0.7499999986316652  0.0000000000000000  0.3392002916742598   F   F   F
  0.7499999986316652  0.2499999993549622  0.3392002916742598   F   F   F
  0.7499999986316652  0.4999999993549622  0.3392002916742598   F   F   F
  0.0000000000000000  0.0000000000000000  0.3392002916742598   F   F   F
  0.9999999981755536  0.2499999993549622  0.3392002916742598   F   F   F
  0.9999999981755536  0.7499999987099173  0.3392002916742598   F   F   F
  0.7499999986316652  0.7499999987099173  0.3392002916742598   F   F   F
  0.2500714470276014  0.0000019038040066  0.4628682415234173   T   T   T
  0.2499779373668979  0.2502326827753533  0.4631768332399440   T   T   T
  0.2501118984414937  0.5001805239409557  0.4625523948584570   T   T   T
  0.2518957265310512  0.7483083959568010  0.4639816592740635   T   T   T
  0.4999984936499501  0.0000030589115910  0.4631369940530106   T   T   T
  0.5002674946107023  0.2503450835263100  0.4617905330747966   T   T   T
  0.5000087903003578  0.4999848599242113  0.4610121841324757   T   T   T
  0.4997670379861536  0.7496725993207002  0.4617599042354923   T   T   T
  0.7499283856315677  0.9999923495990516  0.4628469187338451   T   T   T
  0.7481078639666960  0.2516939368912949  0.4639899546655167   T   T   T
  0.7499051662070115  0.4998003371864259  0.4625472842620599   T   T   T
  0.7499828958736289  0.7497561048977224  0.4631915519251004   T   T   T
 -0.0000013630266628 -0.0000064066034466  0.4632924168877111   T   T   T
  0.9993033771494351  0.2498529441682945  0.4625685752315585   T   T   T
 -0.0000300120612135  0.5000002994674854  0.4633719292154741   T   T   T
  0.0007151755191250  0.7501362718162300  0.4625865992443292   T   T   T
  0.1251907316493377  0.1253666221431965  0.5198644404574134   T   T   T
  0.1213161829870185  0.3743606628115695  0.5199326937337463   T   T   T
  0.1246581620616590  0.6251013593691652  0.5200378663037173   T   T   T
  0.1252411253597175  0.8746824408803320  0.5198116249911099   T   T   T
  0.3751549583343382  0.1253298955837980  0.5197637720669257   T   T   T
  0.3707524870135519  0.3736881124449064  0.5209470948410977   T   T   T
  0.3772084731456516  0.6211215505691351  0.5243138756064909   T   T   T
  0.3747378606767627  0.8745546458691521  0.5196886613745791   T   T   T
  0.6252384341195087  0.1254315413024336  0.5196981337559090   T   T   T
  0.6228380680328394  0.3788963304391158  0.5243194737596893   T   T   T
  0.6291988724631610  0.6263261865704672  0.5209427626977674   T   T   T
  0.6248263743098722  0.8746851647411640  0.5197630912945005   T   T   T
  0.8747879715754021  0.1253134648738352  0.5198176478163525   T   T   T
  0.8753842191974209  0.3749008502525643  0.5200310771154332   T   T   T
  0.8786666524286503  0.6256449253787768  0.5199399400952337   T   T   T
  0.8747981029448216  0.8746470611346295  0.5198532274343477   T   T   T
  0.1249999993158326  0.1249999996774775  0.4011733916681877   F   F   F
  0.1249999993158326  0.3749999996774775  0.4011733916681877   F   F   F
  0.1250000002280558  0.6249999990324397  0.4011733916681877   F   F   F
  0.1250000002280558  0.8749999983874019  0.4011733916681877   F   F   F
  0.3749999988597210  0.1249999996774775  0.4011733916681877   F   F   F
  0.3749999997719442  0.3749999996774775  0.4011733916681877   F   F   F
  0.3749999997719442  0.6249999990324397  0.4011733916681877   F   F   F
  0.3749999997719442  0.8749999983874019  0.4011733916681877   F   F   F
  0.6249999993158326  0.1249999996774775  0.4011733916681877   F   F   F
  0.6249999984036094  0.3749999996774775  0.4011733916681877   F   F   F
  0.6249999993158326  0.6249999990324397  0.4011733916681877   F   F   F
  0.6249999993158326  0.8749999983874019  0.4011733916681877   F   F   F
  0.8749999979474978  0.1249999996774775  0.4011733916681877   F   F   F
  0.8749999988597210  0.3749999996774775  0.4011733916681877   F   F   F
  0.8749999988597210  0.6249999990324397  0.4011733916681877   F   F   F
  0.8749999988597210  0.8749999983874019  0.4011733916681877   F   F   F
  0.5529291054453394  0.4150165124797656  0.6093270371519545   T   T   T
  0.6220351016190051  0.4947500946792930  0.6144641032964825   T   T   T
  0.4470824744188688  0.5849853511010319  0.6093218115268587   T   T   T
  0.3779785766779530  0.5052519068450472  0.6144635816691165   T   T   T
  0.5772581638388755  0.5726064880693202  0.6031399730296380   T   T   T
  0.4227563327679471  0.4273932854147905  0.6031316806305423   T   T   T
  0.2596762449341212  0.5100453442426807  0.6302457608738766   T   T   T
  0.4236608784934786  0.6455441561443581  0.6546061273318894   T   T   T
  0.5763529744715171  0.3544513043616013  0.6546046149492815   T   T   T
  0.7403450804906054  0.4899571896339526  0.6302498725372102   T   T   T
 
  0.00000000E+00  0.00000000E+00  0.00000000E+00
  0.00000000E+00  0.00000000E+00  0.00000000E+00
  0.00000000E+00  0.00000000E+00  0.00000000E+00
  0.00000000E+00  0.00000000E+00  0.00000000E+00
  0.00000000E+00  0.00000000E+00  0.00000000E+00
  0.00000000E+00  0.00000000E+00  0.00000000E+00
  0.00000000E+00  0.00000000E+00  0.00000000E+00
  0.00000000E+00  0.00000000E+00  0.00000000E+00
  0.00000000E+00  0.00000000E+00  0.00000000E+00
  0.00000000E+00  0.00000000E+00  0.00000000E+00
  0.00000000E+00  0.00000000E+00  0.00000000E+00
  0.00000000E+00  0.00000000E+00  0.00000000E+00
  0.00000000E+00  0.00000000E+00  0.00000000E+00
  0.00000000E+00  0.00000000E+00  0.00000000E+00
  0.00000000E+00  0.00000000E+00  0.00000000E+00
  0.00000000E+00  0.00000000E+00  0.00000000E+00
  0.00000000E+00  0.00000000E+00  0.00000000E+00
  0.00000000E+00  0.00000000E+00  0.00000000E+00
  0.00000000E+00  0.00000000E+00  0.00000000E+00
  0.00000000E+00  0.00000000E+00  0.00000000E+00
  0.00000000E+00  0.00000000E+00  0.00000000E+00
  0.00000000E+00  0.00000000E+00  0.00000000E+00
  0.00000000E+00  0.00000000E+00  0.00000000E+00
  0.00000000E+00  0.00000000E+00  0.00000000E+00
  0.00000000E+00  0.00000000E+00  0.00000000E+00
  0.00000000E+00  0.00000000E+00  0.00000000E+00
  0.00000000E+00  0.00000000E+00  0.00000000E+00
  0.00000000E+00  0.00000000E+00  0.00000000E+00
  0.00000000E+00  0.00000000E+00  0.00000000E+00
  0.00000000E+00  0.00000000E+00  0.00000000E+00
  0.00000000E+00  0.00000000E+00  0.00000000E+00
  0.00000000E+00  0.00000000E+00  0.00000000E+00
  0.00000000E+00  0.00000000E+00  0.00000000E+00
  0.00000000E+00  0.00000000E+00  0.00000000E+00
  0.00000000E+00  0.00000000E+00  0.00000000E+00
  0.00000000E+00  0.00000000E+00  0.00000000E+00
  0.00000000E+00  0.00000000E+00  0.00000000E+00
  0.00000000E+00  0.00000000E+00  0.00000000E+00
  0.00000000E+00  0.00000000E+00  0.00000000E+00
  0.00000000E+00  0.00000000E+00  0.00000000E+00
  0.00000000E+00  0.00000000E+00  0.00000000E+00
  0.00000000E+00  0.00000000E+00  0.00000000E+00
  0.00000000E+00  0.00000000E+00  0.00000000E+00
  0.00000000E+00  0.00000000E+00  0.00000000E+00
  0.00000000E+00  0.00000000E+00  0.00000000E+00
  0.00000000E+00  0.00000000E+00  0.00000000E+00
  0.00000000E+00  0.00000000E+00  0.00000000E+00
  0.00000000E+00  0.00000000E+00  0.00000000E+00
  0.00000000E+00  0.00000000E+00  0.00000000E+00
  0.00000000E+00  0.00000000E+00  0.00000000E+00
  0.00000000E+00  0.00000000E+00  0.00000000E+00
  0.00000000E+00  0.00000000E+00  0.00000000E+00
  0.00000000E+00  0.00000000E+00  0.00000000E+00
  0.00000000E+00  0.00000000E+00  0.00000000E+00
  0.00000000E+00  0.00000000E+00  0.00000000E+00
  0.00000000E+00  0.00000000E+00  0.00000000E+00
  0.00000000E+00  0.00000000E+00  0.00000000E+00
  0.00000000E+00  0.00000000E+00  0.00000000E+00
  0.00000000E+00  0.00000000E+00  0.00000000E+00
  0.00000000E+00  0.00000000E+00  0.00000000E+00
  0.00000000E+00  0.00000000E+00  0.00000000E+00
  0.00000000E+00  0.00000000E+00  0.00000000E+00
  0.00000000E+00  0.00000000E+00  0.00000000E+00
  0.00000000E+00  0.00000000E+00  0.00000000E+00
  0.00000000E+00  0.00000000E+00  0.00000000E+00
  0.00000000E+00  0.00000000E+00  0.00000000E+00
  0.00000000E+00  0.00000000E+00  0.00000000E+00
  0.00000000E+00  0.00000000E+00  0.00000000E+00
  0.00000000E+00  0.00000000E+00  0.00000000E+00
  0.00000000E+00  0.00000000E+00  0.00000000E+00
  0.00000000E+00  0.00000000E+00  0.00000000E+00
  0.00000000E+00  0.00000000E+00  0.00000000E+00
  0.00000000E+00  0.00000000E+00  0.00000000E+00
  0.00000000E+00  0.00000000E+00  0.00000000E+00
