Au48 C6 F2 H4                           
    1.000000000000000     
    11.7981856999999994    0.0000000000000000    0.0000000000000000
     0.0000000000000000   16.6851543000000007    0.0000000000000000
     0.0000000000000000    0.0000000000000000   15.8905330199999995
   Au   C    F    H 
    48     6     2     4
Selective dynamics
Direct
  0.9999626463697027  0.2500276200088791  0.4054966966923033   T   T   T
  0.0000007457668261  0.4999996957614954  0.4056043137030869   T   T   T
  0.0000391928999193  0.7499734685121240  0.4054959580717821   T   T   T
  0.0000010247215627  0.9999990128680381  0.4053608073985089   T   T   T
  0.2497704829162828  0.2498001689355718  0.4055187859102958   T   T   T
  0.2499244143257044  0.5001621775185825  0.4056478129375662   T   T   T
  0.2500959973700105  0.7498753330332804  0.4058415382271860   T   T   T
  0.2500128024231287  0.0000050943510885  0.4056378825583167   T   T   T
  0.5002332306924657  0.2498672293158748  0.4056097746901415   T   T   T
  0.4999989602967219  0.4999991717564072  0.4052400824100459   T   T   T
  0.4997610252100770  0.7501396432002778  0.4056036088780886   T   T   T
  0.4999958646078539  0.9999942520334670  0.4056137757683800   T   T   T
  0.7499079207242687  0.2501303148891267  0.4058478093426601   T   T   T
  0.7500764184304316  0.4998363756253497  0.4056500522854236   T   T   T
  0.7502302836924386  0.7502025295280035  0.4055176155883018   T   T   T
  0.7499904061934473  0.9999881386929488  0.4056416443842252   T   T   T
  0.1250365954018733  0.1250077156068699  0.4964109749809893   T   T   T
  0.1246305999102830  0.3751005006077293  0.4964471810236901   T   T   T
  0.1251651956670088  0.6248867926762998  0.4966665057011994   T   T   T
  0.1250526786330326  0.8750174445880390  0.4964505049931489   T   T   T
  0.3750039179899360  0.1251119799074516  0.4964430262018311   T   T   T
  0.3744711457755230  0.3748828538275433  0.4940409662797052   T   T   T
  0.3747017228762317  0.6247343440319000  0.4966202761135676   T   T   T
  0.3749868801862064  0.8748939644903686  0.4964811270344001   T   T   T
  0.6250128843920777  0.1251058672230627  0.4964859918105518   T   T   T
  0.6252956970272265  0.3752655325943905  0.4966251859404167   T   T   T
  0.6255310678332648  0.6251194788958188  0.4940232432765725   T   T   T
  0.6249963113373838  0.8748876946070681  0.4964423692844591   T   T   T
  0.8749472092153852  0.1249820706744984  0.4964512767503138   T   T   T
  0.8748345225947105  0.3751127597054165  0.4966666856681599   T   T   T
  0.8753724042961153  0.6248996281554966  0.4964465675352514   T   T   T
  0.8749637547041118  0.8749924142601486  0.4964115078913807   T   T   T
  0.1250000006356942  0.1249999995504965  0.3146527554303518   F   F   F
  0.1250000006356942  0.3749999992508322  0.3146527554303518   F   F   F
  0.1250000006356942  0.6249999983518251  0.3146527554303518   F   F   F
  0.1250000006356942  0.8749999974528251  0.3146527554303518   F   F   F
  0.3750000002118981  0.1249999995504965  0.3146527554303518   F   F   F
  0.3750000002118981  0.3749999992508322  0.3146527554303518   F   F   F
  0.3750000010594832  0.6249999983518251  0.3146527554303518   F   F   F
  0.3750000010594832  0.8749999974528251  0.3146527554303518   F   F   F
  0.6250000006356942  0.1249999995504965  0.3146527554303518   F   F   F
  0.6250000006356942  0.3749999992508322  0.3146527554303518   F   F   F
  0.6250000014832793  0.6249999983518251  0.3146527554303518   F   F   F
  0.6250000006356942  0.8749999974528251  0.3146527554303518   F   F   F
  0.8750000010594832  0.1249999995504965  0.3146527554303518   F   F   F
  0.8750000010594832  0.3749999992508322  0.3146527554303518   F   F   F
  0.8750000019070754  0.6249999983518251  0.3146527554303518   F   F   F
  0.8750000010594832  0.8749999974528251  0.3146527554303518   F   F   F
  0.5670081709608610  0.5667383721423533  0.6854208181601820   T   T   T
  0.6187745679413439  0.4919685346854905  0.6846868838972426   T   T   T
  0.5502559159121745  0.4235996243103770  0.6847481894649547   T   T   T
  0.4329708456674553  0.4332360076446591  0.6854557670340924   T   T   T
  0.3811837510444462  0.5079910501372495  0.6847212585861655   T   T   T
  0.4497083954623946  0.5763586586082567  0.6847061896548681   T   T   T
  0.6336780058205136  0.6336479371681776  0.6879484673932197   T   T   T
  0.3662978083050774  0.3663456333509743  0.6880382524487132   T   T   T
  0.7108779106954159  0.4874113440957117  0.6848351086999784   T   T   T
  0.5868678063355475  0.3636311657923272  0.6861214458911959   T   T   T
  0.2890681001866184  0.5125724396682330  0.6848784153907346   T   T   T
  0.4131224251528494  0.6363282855996388  0.6860635589636601   T   T   T
 
  0.00000000E+00  0.00000000E+00  0.00000000E+00
  0.00000000E+00  0.00000000E+00  0.00000000E+00
  0.00000000E+00  0.00000000E+00  0.00000000E+00
  0.00000000E+00  0.00000000E+00  0.00000000E+00
  0.00000000E+00  0.00000000E+00  0.00000000E+00
  0.00000000E+00  0.00000000E+00  0.00000000E+00
  0.00000000E+00  0.00000000E+00  0.00000000E+00
  0.00000000E+00  0.00000000E+00  0.00000000E+00
  0.00000000E+00  0.00000000E+00  0.00000000E+00
  0.00000000E+00  0.00000000E+00  0.00000000E+00
  0.00000000E+00  0.00000000E+00  0.00000000E+00
  0.00000000E+00  0.00000000E+00  0.00000000E+00
  0.00000000E+00  0.00000000E+00  0.00000000E+00
  0.00000000E+00  0.00000000E+00  0.00000000E+00
  0.00000000E+00  0.00000000E+00  0.00000000E+00
  0.00000000E+00  0.00000000E+00  0.00000000E+00
  0.00000000E+00  0.00000000E+00  0.00000000E+00
  0.00000000E+00  0.00000000E+00  0.00000000E+00
  0.00000000E+00  0.00000000E+00  0.00000000E+00
  0.00000000E+00  0.00000000E+00  0.00000000E+00
  0.00000000E+00  0.00000000E+00  0.00000000E+00
  0.00000000E+00  0.00000000E+00  0.00000000E+00
  0.00000000E+00  0.00000000E+00  0.00000000E+00
  0.00000000E+00  0.00000000E+00  0.00000000E+00
  0.00000000E+00  0.00000000E+00  0.00000000E+00
  0.00000000E+00  0.00000000E+00  0.00000000E+00
  0.00000000E+00  0.00000000E+00  0.00000000E+00
  0.00000000E+00  0.00000000E+00  0.00000000E+00
  0.00000000E+00  0.00000000E+00  0.00000000E+00
  0.00000000E+00  0.00000000E+00  0.00000000E+00
  0.00000000E+00  0.00000000E+00  0.00000000E+00
  0.00000000E+00  0.00000000E+00  0.00000000E+00
  0.00000000E+00  0.00000000E+00  0.00000000E+00
  0.00000000E+00  0.00000000E+00  0.00000000E+00
  0.00000000E+00  0.00000000E+00  0.00000000E+00
  0.00000000E+00  0.00000000E+00  0.00000000E+00
  0.00000000E+00  0.00000000E+00  0.00000000E+00
  0.00000000E+00  0.00000000E+00  0.00000000E+00
  0.00000000E+00  0.00000000E+00  0.00000000E+00
  0.00000000E+00  0.00000000E+00  0.00000000E+00
  0.00000000E+00  0.00000000E+00  0.00000000E+00
  0.00000000E+00  0.00000000E+00  0.00000000E+00
  0.00000000E+00  0.00000000E+00  0.00000000E+00
  0.00000000E+00  0.00000000E+00  0.00000000E+00
  0.00000000E+00  0.00000000E+00  0.00000000E+00
  0.00000000E+00  0.00000000E+00  0.00000000E+00
  0.00000000E+00  0.00000000E+00  0.00000000E+00
  0.00000000E+00  0.00000000E+00  0.00000000E+00
  0.00000000E+00  0.00000000E+00  0.00000000E+00
  0.00000000E+00  0.00000000E+00  0.00000000E+00
  0.00000000E+00  0.00000000E+00  0.00000000E+00
  0.00000000E+00  0.00000000E+00  0.00000000E+00
  0.00000000E+00  0.00000000E+00  0.00000000E+00
  0.00000000E+00  0.00000000E+00  0.00000000E+00
  0.00000000E+00  0.00000000E+00  0.00000000E+00
  0.00000000E+00  0.00000000E+00  0.00000000E+00
  0.00000000E+00  0.00000000E+00  0.00000000E+00
  0.00000000E+00  0.00000000E+00  0.00000000E+00
  0.00000000E+00  0.00000000E+00  0.00000000E+00
  0.00000000E+00  0.00000000E+00  0.00000000E+00
