Ir  C  H  F                             
    1.000000000000000     
    10.9622135000000007    0.0000000000000000    0.0000000000000000
     0.0000000000000000   10.9622135000000007    0.0000000000000000
     0.0000000000000000    0.0000000000000000   23.8135916099999996
   Ir   C    H    F 
    64     6     2     4
Selective dynamics
Direct
  0.0000000000000000  0.2499999995438884  0.3149461921926360   F   F   F
  0.7499999986316652  0.7499999986316652  0.3149461921926360   F   F   F
  0.0000000000000000  0.4999999990877768  0.3149461921926360   F   F   F
  0.0000000000000000  0.7499999986316652  0.3149461921926360   F   F   F
  0.0000000000000000  0.0000000000000000  0.3149461921926360   F   F   F
  0.2499999995438884  0.2499999995438884  0.3149461921926360   F   F   F
  0.2499999995438884  0.4999999990877768  0.3149461921926360   F   F   F
  0.7499999986316652  0.0000000000000000  0.3149461921926360   F   F   F
  0.2499999995438884  0.7499999986316652  0.3149461921926360   F   F   F
  0.2499999995438884  0.0000000000000000  0.3149461921926360   F   F   F
  0.4999999990877768  0.2499999995438884  0.3149461921926360   F   F   F
  0.4999999990877768  0.4999999990877768  0.3149461921926360   F   F   F
  0.4999999990877768  0.7499999986316652  0.3149461921926360   F   F   F
  0.4999999990877768  0.0000000000000000  0.3149461921926360   F   F   F
  0.7499999986316652  0.2499999995438884  0.3149461921926360   F   F   F
  0.7499999986316652  0.4999999990877768  0.3149461921926360   F   F   F
  0.9983789285233567  0.2495993442843988  0.4780505930653323   T   T   T
  0.0000088930838589  0.5000035879574969  0.4781773486812098   T   T   T
  0.0016078171641304  0.7503925305018969  0.4780467498056198   T   T   T
  0.0000065641411879  0.9999959403058105  0.4783481489146367   T   T   T
  0.2494237499163535  0.2494344214970108  0.4779690368260616   T   T   T
  0.2508363207781223  0.4993547142133805  0.4786192056934558   T   T   T
  0.2527266398375089  0.7472877892316857  0.4793567436270790   T   T   T
  0.2495955477016802  0.9984008224042860  0.4780522563909947   T   T   T
  0.4993641304735770  0.2508323370214733  0.4786240346794291   T   T   T
  0.4999891409389984  0.4999951808543676  0.4789249144947537   T   T   T
  0.5006060446312756  0.7491895310034871  0.4786125580202066   T   T   T
  0.5000132715765209  0.0000152230521641  0.4781670464553299   T   T   T
  0.7472834681875316  0.2527156559179237  0.4793697155428387   T   T   T
  0.7491846277148928  0.5006141531327499  0.4786315697315240   T   T   T
  0.7505958874970343  0.7505708889953547  0.4779729880449500   T   T   T
  0.7504278699369376  0.0016224094851349  0.4780424166319833   T   T   T
  0.1249383224366725  0.1249615451454955  0.5563969841964016   T   T   T
  0.1230271302074021  0.3739084305417783  0.5561383088369897   T   T   T
  0.1240645564085765  0.6240701560799012  0.5567302451484565   T   T   T
  0.1255282922122601  0.8744837292166053  0.5566044781986420   T   T   T
  0.3739146523797157  0.1230273445683407  0.5561489576127141   T   T   T
  0.3718773988868950  0.3718873074221234  0.5568355852867907   T   T   T
  0.3744867206865810  0.6255302615658024  0.5648109554084927   T   T   T
  0.3759323068759675  0.8759497475812813  0.5567329218805190   T   T   T
  0.6240714708126358  0.1240639050826019  0.5567395568262510   T   T   T
  0.6255317183688448  0.3744746946711981  0.5648103873349728   T   T   T
  0.6281132883386388  0.6281306814950786  0.5568256353837354   T   T   T
  0.6260955578465771  0.8770016260243272  0.5561515090499202   T   T   T
  0.8745003629222569  0.1254826912246966  0.5565995235258169   T   T   T
  0.8759229774150626  0.3759592784182882  0.5567336074140620   T   T   T
  0.8769832510849329  0.6260896151073378  0.5561400802203103   T   T   T
  0.8750083898294645  0.8750135214930047  0.5564002323909060   T   T   T
  0.1250000002280558  0.1250000002280558  0.3963225717718615   F   F   F
  0.1250000002280558  0.3749999997719442  0.3963225717718615   F   F   F
  0.1250000002280558  0.6249999993158326  0.3963225717718615   F   F   F
  0.1250000002280558  0.8749999988597210  0.3963225717718615   F   F   F
  0.3749999997719442  0.1250000002280558  0.3963225717718615   F   F   F
  0.3749999997719442  0.3749999997719442  0.3963225717718615   F   F   F
  0.3749999997719442  0.6249999993158326  0.3963225717718615   F   F   F
  0.3749999997719442  0.8749999988597210  0.3963225717718615   F   F   F
  0.6249999993158326  0.1250000002280558  0.3963225717718615   F   F   F
  0.6249999993158326  0.3749999997719442  0.3963225717718615   F   F   F
  0.6249999993158326  0.6249999993158326  0.3963225717718615   F   F   F
  0.6249999993158326  0.8749999988597210  0.3963225717718615   F   F   F
  0.8749999988597210  0.1250000002280558  0.3963225717718615   F   F   F
  0.8749999988597210  0.3749999997719442  0.3963225717718615   F   F   F
  0.8749999988597210  0.6249999993158326  0.3963225717718615   F   F   F
  0.8749999988597210  0.8749999988597210  0.3963225717718615   F   F   F
  0.5966716725016596  0.5967158634357832  0.6428052211222596   T   T   T
  0.6283655963446889  0.4652074878617729  0.6459969731631913   T   T   T
  0.5348130793101077  0.3716687282562606  0.6459970858830985   T   T   T
  0.4032955866710701  0.4033307763562768  0.6428539130389357   T   T   T
  0.3716202056201466  0.5348345833034680  0.6459799884101740   T   T   T
  0.4651504755797616  0.6284053331641699  0.6459762369800369   T   T   T
  0.6548095889333424  0.6548810776576031  0.6690577463446382   T   T   T
  0.3451800099529171  0.3451990741026429  0.6690673793695970   T   T   T
  0.7318853277638250  0.4419987339731523  0.6766137631763866   T   T   T
  0.5580940686796626  0.2681849807366387  0.6766394874467230   T   T   T
  0.2681346783693064  0.5581085781131188  0.6766193663017638   T   T   T
  0.4419221594636191  0.7319397319408296  0.6766093693137909   T   T   T
 
  0.00000000E+00  0.00000000E+00  0.00000000E+00
  0.00000000E+00  0.00000000E+00  0.00000000E+00
  0.00000000E+00  0.00000000E+00  0.00000000E+00
  0.00000000E+00  0.00000000E+00  0.00000000E+00
  0.00000000E+00  0.00000000E+00  0.00000000E+00
  0.00000000E+00  0.00000000E+00  0.00000000E+00
  0.00000000E+00  0.00000000E+00  0.00000000E+00
  0.00000000E+00  0.00000000E+00  0.00000000E+00
  0.00000000E+00  0.00000000E+00  0.00000000E+00
  0.00000000E+00  0.00000000E+00  0.00000000E+00
  0.00000000E+00  0.00000000E+00  0.00000000E+00
  0.00000000E+00  0.00000000E+00  0.00000000E+00
  0.00000000E+00  0.00000000E+00  0.00000000E+00
  0.00000000E+00  0.00000000E+00  0.00000000E+00
  0.00000000E+00  0.00000000E+00  0.00000000E+00
  0.00000000E+00  0.00000000E+00  0.00000000E+00
  0.00000000E+00  0.00000000E+00  0.00000000E+00
  0.00000000E+00  0.00000000E+00  0.00000000E+00
  0.00000000E+00  0.00000000E+00  0.00000000E+00
  0.00000000E+00  0.00000000E+00  0.00000000E+00
  0.00000000E+00  0.00000000E+00  0.00000000E+00
  0.00000000E+00  0.00000000E+00  0.00000000E+00
  0.00000000E+00  0.00000000E+00  0.00000000E+00
  0.00000000E+00  0.00000000E+00  0.00000000E+00
  0.00000000E+00  0.00000000E+00  0.00000000E+00
  0.00000000E+00  0.00000000E+00  0.00000000E+00
  0.00000000E+00  0.00000000E+00  0.00000000E+00
  0.00000000E+00  0.00000000E+00  0.00000000E+00
  0.00000000E+00  0.00000000E+00  0.00000000E+00
  0.00000000E+00  0.00000000E+00  0.00000000E+00
  0.00000000E+00  0.00000000E+00  0.00000000E+00
  0.00000000E+00  0.00000000E+00  0.00000000E+00
  0.00000000E+00  0.00000000E+00  0.00000000E+00
  0.00000000E+00  0.00000000E+00  0.00000000E+00
  0.00000000E+00  0.00000000E+00  0.00000000E+00
  0.00000000E+00  0.00000000E+00  0.00000000E+00
  0.00000000E+00  0.00000000E+00  0.00000000E+00
  0.00000000E+00  0.00000000E+00  0.00000000E+00
  0.00000000E+00  0.00000000E+00  0.00000000E+00
  0.00000000E+00  0.00000000E+00  0.00000000E+00
  0.00000000E+00  0.00000000E+00  0.00000000E+00
  0.00000000E+00  0.00000000E+00  0.00000000E+00
  0.00000000E+00  0.00000000E+00  0.00000000E+00
  0.00000000E+00  0.00000000E+00  0.00000000E+00
  0.00000000E+00  0.00000000E+00  0.00000000E+00
  0.00000000E+00  0.00000000E+00  0.00000000E+00
  0.00000000E+00  0.00000000E+00  0.00000000E+00
  0.00000000E+00  0.00000000E+00  0.00000000E+00
  0.00000000E+00  0.00000000E+00  0.00000000E+00
  0.00000000E+00  0.00000000E+00  0.00000000E+00
  0.00000000E+00  0.00000000E+00  0.00000000E+00
  0.00000000E+00  0.00000000E+00  0.00000000E+00
  0.00000000E+00  0.00000000E+00  0.00000000E+00
  0.00000000E+00  0.00000000E+00  0.00000000E+00
  0.00000000E+00  0.00000000E+00  0.00000000E+00
  0.00000000E+00  0.00000000E+00  0.00000000E+00
  0.00000000E+00  0.00000000E+00  0.00000000E+00
  0.00000000E+00  0.00000000E+00  0.00000000E+00
  0.00000000E+00  0.00000000E+00  0.00000000E+00
  0.00000000E+00  0.00000000E+00  0.00000000E+00
  0.00000000E+00  0.00000000E+00  0.00000000E+00
  0.00000000E+00  0.00000000E+00  0.00000000E+00
  0.00000000E+00  0.00000000E+00  0.00000000E+00
  0.00000000E+00  0.00000000E+00  0.00000000E+00
  0.00000000E+00  0.00000000E+00  0.00000000E+00
  0.00000000E+00  0.00000000E+00  0.00000000E+00
  0.00000000E+00  0.00000000E+00  0.00000000E+00
  0.00000000E+00  0.00000000E+00  0.00000000E+00
  0.00000000E+00  0.00000000E+00  0.00000000E+00
  0.00000000E+00  0.00000000E+00  0.00000000E+00
  0.00000000E+00  0.00000000E+00  0.00000000E+00
  0.00000000E+00  0.00000000E+00  0.00000000E+00
  0.00000000E+00  0.00000000E+00  0.00000000E+00
  0.00000000E+00  0.00000000E+00  0.00000000E+00
  0.00000000E+00  0.00000000E+00  0.00000000E+00
  0.00000000E+00  0.00000000E+00  0.00000000E+00
