Pd  C  F                                
    1.000000000000000     
    11.1817229999999999    0.0000000000000000    0.0000000000000000
     0.0000000000000000   11.1817229999999999    0.0000000000000000
     0.0000000000000000    0.0000000000000000   23.9300040900000006
   Pd   C    F 
    64     6     6
Selective dynamics
Direct
  0.0000000000000000  0.2499999991056825  0.3134140709626578   F   F   F
  0.7499999973170475  0.7499999973170475  0.3134140709626578   F   F   F
  0.0000000000000000  0.4999999982113650  0.3134140709626578   F   F   F
  0.0000000000000000  0.7499999973170475  0.3134140709626578   F   F   F
  0.0000000000000000  0.0000000000000000  0.3134140709626578   F   F   F
  0.2499999991056825  0.2499999991056825  0.3134140709626578   F   F   F
  0.2499999991056825  0.4999999982113650  0.3134140709626578   F   F   F
  0.7499999973170475  0.0000000000000000  0.3134140709626578   F   F   F
  0.2499999991056825  0.7499999973170475  0.3134140709626578   F   F   F
  0.2499999991056825  0.0000000000000000  0.3134140709626578   F   F   F
  0.4999999982113650  0.2499999991056825  0.3134140709626578   F   F   F
  0.4999999982113650  0.4999999982113650  0.3134140709626578   F   F   F
  0.4999999982113650  0.7499999973170475  0.3134140709626578   F   F   F
  0.4999999982113650  0.0000000000000000  0.3134140709626578   F   F   F
  0.7499999973170475  0.2499999991056825  0.3134140709626578   F   F   F
  0.7499999973170475  0.4999999982113650  0.3134140709626578   F   F   F
  0.9999965588382134  0.2501793542890591  0.4774072498332622   T   T   T
  0.0000000000000000  0.4999999982113650  0.4773828808552715   T   T   T
  0.0000034411617866  0.7498206421336711  0.4774072498332622   T   T   T
  0.0000000000000000  0.0000000000000000  0.4773492422802925   T   T   T
  0.2496062626077522  0.2496066222272716  0.4771883331521545   T   T   T
  0.2490134488368481  0.4999622560633920  0.4768804760958829   T   T   T
  0.2495358592585203  0.7504632833709307  0.4771467044796548   T   T   T
  0.2501789042039286  0.9999968581273869  0.4774073721803776   T   T   T
  0.4999620438979768  0.2490140974179006  0.4768802227953767   T   T   T
  0.4999999982113650  0.4999999982113650  0.4763024015292319   T   T   T
  0.5000379525247531  0.7509858990048294  0.4768802227953767   T   T   T
  0.4999999982113650  0.0000000000000000  0.4773836102850980   T   T   T
  0.7504641371642099  0.2495367130517994  0.4771467044796548   T   T   T
  0.7509865475858819  0.5000377403593379  0.4768804760958829   T   T   T
  0.7503937338149778  0.7503933741954584  0.4771883331521545   T   T   T
  0.7498210922188013  0.0000031418726132  0.4774073721803776   T   T   T
  0.1250000377074779  0.1250005195639233  0.5584675581669630   T   T   T
  0.1252276953533103  0.3750777789409916  0.5583805086029140   T   T   T
  0.1249881154724830  0.6249448158258787  0.5585007748739746   T   T   T
  0.1249597843784358  0.8750403747022472  0.5584386402762541   T   T   T
  0.3750776491270219  0.1252280166296532  0.5583800426074084   T   T   T
  0.3751903706373425  0.3751909574027960  0.5577653086207301   T   T   T
  0.3749413703410425  0.6250586136344857  0.5574072991076229   T   T   T
  0.3750543060617488  0.8750108793012529  0.5585001709104389   T   T   T
  0.6249456903609811  0.1249891171214769  0.5585001709104389   T   T   T
  0.6250586260816876  0.3749413827882513  0.5574072991076229   T   T   T
  0.6248096257853875  0.6248090390199339  0.5577653086207301   T   T   T
  0.6249223472957079  0.8747719797930769  0.5583800426074084   T   T   T
  0.8750402120442943  0.1249596217204828  0.5584386402762541   T   T   T
  0.8750118809502470  0.3750551805968514  0.5585007748739746   T   T   T
  0.8747723010694196  0.6249222174817383  0.5583805086029140   T   T   T
  0.8749999587152520  0.8749994768588067  0.5584675581669630   T   T   T
  0.1249999995528412  0.1249999995528412  0.3960161475258630   F   F   F
  0.1249999995528412  0.3749999986585237  0.3960161475258630   F   F   F
  0.1249999995528412  0.6249999977642062  0.3960161475258630   F   F   F
  0.1249999995528412  0.8749999968698887  0.3960161475258630   F   F   F
  0.3749999986585237  0.1249999995528412  0.3960161475258630   F   F   F
  0.3749999986585237  0.3749999986585237  0.3960161475258630   F   F   F
  0.3749999986585237  0.6249999977642062  0.3960161475258630   F   F   F
  0.3749999986585237  0.8749999968698887  0.3960161475258630   F   F   F
  0.6249999977642062  0.1249999995528412  0.3960161475258630   F   F   F
  0.6249999977642062  0.3749999986585237  0.3960161475258630   F   F   F
  0.6249999977642062  0.6249999977642062  0.3960161475258630   F   F   F
  0.6249999977642062  0.8749999968698887  0.3960161475258630   F   F   F
  0.8749999968698887  0.1249999995528412  0.3960161475258630   F   F   F
  0.8749999968698887  0.3749999986585237  0.3960161475258630   F   F   F
  0.8749999968698887  0.6249999977642062  0.3960161475258630   F   F   F
  0.8749999968698887  0.8749999968698887  0.3960161475258630   F   F   F
  0.3792084191398277  0.5323637416946825  0.6836395399934663   T   T   T
  0.4676426331368602  0.6207899901868599  0.6836354390471134   T   T   T
  0.5884467303363239  0.5884483072799310  0.6837200041227665   T   T   T
  0.6207915486647776  0.4676362413132992  0.6836395399934663   T   T   T
  0.5323573910096842  0.3792100196506256  0.6836354390471134   T   T   T
  0.4115532660864062  0.4115516891427919  0.6837200041227665   T   T   T
  0.2629159573735407  0.5634281638380336  0.6859302014704982   T   T   T
  0.4365743559813587  0.7370848102847870  0.6859302793239778   T   T   T
  0.6735709214886391  0.6735645552066412  0.6870365885251759   T   T   T
  0.7370840390491892  0.4365718325847036  0.6859302014704982   T   T   T
  0.5634257101980658  0.2629152040242789  0.6859302793239778   T   T   T
  0.3264291026579124  0.3264354546308443  0.6870365885251759   T   T   T
 
  0.00000000E+00  0.00000000E+00  0.00000000E+00
  0.00000000E+00  0.00000000E+00  0.00000000E+00
  0.00000000E+00  0.00000000E+00  0.00000000E+00
  0.00000000E+00  0.00000000E+00  0.00000000E+00
  0.00000000E+00  0.00000000E+00  0.00000000E+00
  0.00000000E+00  0.00000000E+00  0.00000000E+00
  0.00000000E+00  0.00000000E+00  0.00000000E+00
  0.00000000E+00  0.00000000E+00  0.00000000E+00
  0.00000000E+00  0.00000000E+00  0.00000000E+00
  0.00000000E+00  0.00000000E+00  0.00000000E+00
  0.00000000E+00  0.00000000E+00  0.00000000E+00
  0.00000000E+00  0.00000000E+00  0.00000000E+00
  0.00000000E+00  0.00000000E+00  0.00000000E+00
  0.00000000E+00  0.00000000E+00  0.00000000E+00
  0.00000000E+00  0.00000000E+00  0.00000000E+00
  0.00000000E+00  0.00000000E+00  0.00000000E+00
  0.00000000E+00  0.00000000E+00  0.00000000E+00
  0.00000000E+00  0.00000000E+00  0.00000000E+00
  0.00000000E+00  0.00000000E+00  0.00000000E+00
  0.00000000E+00  0.00000000E+00  0.00000000E+00
  0.00000000E+00  0.00000000E+00  0.00000000E+00
  0.00000000E+00  0.00000000E+00  0.00000000E+00
  0.00000000E+00  0.00000000E+00  0.00000000E+00
  0.00000000E+00  0.00000000E+00  0.00000000E+00
  0.00000000E+00  0.00000000E+00  0.00000000E+00
  0.00000000E+00  0.00000000E+00  0.00000000E+00
  0.00000000E+00  0.00000000E+00  0.00000000E+00
  0.00000000E+00  0.00000000E+00  0.00000000E+00
  0.00000000E+00  0.00000000E+00  0.00000000E+00
  0.00000000E+00  0.00000000E+00  0.00000000E+00
  0.00000000E+00  0.00000000E+00  0.00000000E+00
  0.00000000E+00  0.00000000E+00  0.00000000E+00
  0.00000000E+00  0.00000000E+00  0.00000000E+00
  0.00000000E+00  0.00000000E+00  0.00000000E+00
  0.00000000E+00  0.00000000E+00  0.00000000E+00
  0.00000000E+00  0.00000000E+00  0.00000000E+00
  0.00000000E+00  0.00000000E+00  0.00000000E+00
  0.00000000E+00  0.00000000E+00  0.00000000E+00
  0.00000000E+00  0.00000000E+00  0.00000000E+00
  0.00000000E+00  0.00000000E+00  0.00000000E+00
  0.00000000E+00  0.00000000E+00  0.00000000E+00
  0.00000000E+00  0.00000000E+00  0.00000000E+00
  0.00000000E+00  0.00000000E+00  0.00000000E+00
  0.00000000E+00  0.00000000E+00  0.00000000E+00
  0.00000000E+00  0.00000000E+00  0.00000000E+00
  0.00000000E+00  0.00000000E+00  0.00000000E+00
  0.00000000E+00  0.00000000E+00  0.00000000E+00
  0.00000000E+00  0.00000000E+00  0.00000000E+00
  0.00000000E+00  0.00000000E+00  0.00000000E+00
  0.00000000E+00  0.00000000E+00  0.00000000E+00
  0.00000000E+00  0.00000000E+00  0.00000000E+00
  0.00000000E+00  0.00000000E+00  0.00000000E+00
  0.00000000E+00  0.00000000E+00  0.00000000E+00
  0.00000000E+00  0.00000000E+00  0.00000000E+00
  0.00000000E+00  0.00000000E+00  0.00000000E+00
  0.00000000E+00  0.00000000E+00  0.00000000E+00
  0.00000000E+00  0.00000000E+00  0.00000000E+00
  0.00000000E+00  0.00000000E+00  0.00000000E+00
  0.00000000E+00  0.00000000E+00  0.00000000E+00
  0.00000000E+00  0.00000000E+00  0.00000000E+00
  0.00000000E+00  0.00000000E+00  0.00000000E+00
  0.00000000E+00  0.00000000E+00  0.00000000E+00
  0.00000000E+00  0.00000000E+00  0.00000000E+00
  0.00000000E+00  0.00000000E+00  0.00000000E+00
  0.00000000E+00  0.00000000E+00  0.00000000E+00
  0.00000000E+00  0.00000000E+00  0.00000000E+00
  0.00000000E+00  0.00000000E+00  0.00000000E+00
  0.00000000E+00  0.00000000E+00  0.00000000E+00
  0.00000000E+00  0.00000000E+00  0.00000000E+00
  0.00000000E+00  0.00000000E+00  0.00000000E+00
  0.00000000E+00  0.00000000E+00  0.00000000E+00
  0.00000000E+00  0.00000000E+00  0.00000000E+00
  0.00000000E+00  0.00000000E+00  0.00000000E+00
  0.00000000E+00  0.00000000E+00  0.00000000E+00
  0.00000000E+00  0.00000000E+00  0.00000000E+00
  0.00000000E+00  0.00000000E+00  0.00000000E+00
