Ir48 C4 N2 F4                           
    1.000000000000000     
    10.9622135000000007    0.0000000000000000    0.0000000000000000
     0.0000000000000000   10.9622135000000007    0.0000000000000000
     0.0000000000000000    0.0000000000000000   16.7325000400000015
   Ir   C    N    F 
    48     4     2     4
Selective dynamics
Direct
 -0.0009256968187759  0.2495405415981591  0.4093814955772129   T   T   T
 -0.0000026464205976  0.5000034199550741  0.4093886058904297   T   T   T
  0.0009193757050085  0.7504557238320418  0.4093822490043669   T   T   T
 -0.0000006558640023 -0.0000013054471373  0.4093302750745826   T   T   T
  0.2507730118032773  0.2507690448197638  0.4103328661866174   T   T   T
  0.2511343627837596  0.4998407194177735  0.4104607584865202   T   T   T
  0.2530539265268620  0.7469532803726582  0.4120028054252772   T   T   T
  0.2495426490842090 -0.0009252050210545  0.4093849039161894   T   T   T
  0.4998352904837137  0.2511303984203577  0.4104717175571793   T   T   T
  0.5000034287458801  0.5000191442630597  0.4114086456824708   T   T   T
  0.5001742149957348  0.7488717691301853  0.4104567450002131   T   T   T
  0.5000046288929753 -0.0000035290172419  0.4093930597139189   T   T   T
  0.7469455760079337  0.2530460336998178  0.4120069529378780   T   T   T
  0.7488672093802061  0.5001718658324781  0.4104576685282929   T   T   T
  0.7492217620611872  0.7492249973017409  0.4103246799913408   T   T   T
  0.7504534770800343  0.0009200877961383  0.4093836954941134   T   T   T
  0.1248745441835413  0.1248770338618745  0.5209882112412506   T   T   T
  0.1225528354579901  0.3745377967643007  0.5209364048143037   T   T   T
  0.1234353579389258  0.6246854421067251  0.5218840550207968   T   T   T
  0.1248922598867700  0.8751054480240292  0.5210267478885554   T   T   T
  0.3745381377637376  0.1225461944735229  0.5209356160972505   T   T   T
  0.3720685927690026  0.3720887320609082  0.5232765184663964   T   T   T
  0.3741233130817536  0.6258874243495630  0.5328189859717960   T   T   T
  0.3753152668387260  0.8765643250430579  0.5218790476380778   T   T   T
  0.6246890482702748  0.1234257788134753  0.5218831769683883   T   T   T
  0.6258733687661441  0.3741141463996931  0.5328315978374747   T   T   T
  0.6279261604926499  0.6279300941373072  0.5232835281261108   T   T   T
  0.6254654632104197  0.8774505042548540  0.5209412726997268   T   T   T
  0.8751055534095515  0.1248891206465149  0.5210287396633499   T   T   T
  0.8765687671003572  0.3753135010553085  0.5218830549451260   T   T   T
  0.8774488690438510  0.6254659252234420  0.5209413803785575   T   T   T
  0.8751225308829149  0.8751222242808019  0.5209837404569131   T   T   T
  0.1250000002280558  0.1250000002280558  0.2988196616194330   F   F   F
  0.1250000002280558  0.3749999997719442  0.2988196616194330   F   F   F
  0.1250000002280558  0.6249999993158326  0.2988196616194330   F   F   F
  0.1250000002280558  0.8749999988597210  0.2988196616194330   F   F   F
  0.3749999997719442  0.1250000002280558  0.2988196616194330   F   F   F
  0.3749999997719442  0.3749999997719442  0.2988196616194330   F   F   F
  0.3749999997719442  0.6249999993158326  0.2988196616194330   F   F   F
  0.3749999997719442  0.8749999988597210  0.2988196616194330   F   F   F
  0.6249999993158326  0.1250000002280558  0.2988196616194330   F   F   F
  0.6249999993158326  0.3749999997719442  0.2988196616194330   F   F   F
  0.6249999993158326  0.6249999993158326  0.2988196616194330   F   F   F
  0.6249999993158326  0.8749999988597210  0.2988196616194330   F   F   F
  0.8749999988597210  0.1250000002280558  0.2988196616194330   F   F   F
  0.8749999988597210  0.3749999997719442  0.2988196616194330   F   F   F
  0.8749999988597210  0.6249999993158326  0.2988196616194330   F   F   F
  0.8749999988597210  0.8749999988597210  0.2988196616194330   F   F   F
  0.5303512412327667  0.3756485353610963  0.6478453061178724   T   T   T
  0.6243310763832777  0.4694538017999137  0.6478354540645954   T   T   T
  0.4696491990787000  0.6243527733622251  0.6478426590157106   T   T   T
  0.3756649669683566  0.5305471426041133  0.6478330806004039   T   T   T
  0.5950650294561245  0.5949312162117337  0.6429949087410906   T   T   T
  0.4049263393607122  0.4050708142522185  0.6429901530154986   T   T   T
  0.2724694913730012  0.5523390406498518  0.6930840544524020   T   T   T
  0.4480421525154978  0.7276043202721436  0.6930582923530819   T   T   T
  0.5519377303562035  0.2724022489153625  0.6930662919707661   T   T   T
  0.7275280894918411  0.4476722697652580  0.6930935354781950   T   T   T
 
  0.00000000E+00  0.00000000E+00  0.00000000E+00
  0.00000000E+00  0.00000000E+00  0.00000000E+00
  0.00000000E+00  0.00000000E+00  0.00000000E+00
  0.00000000E+00  0.00000000E+00  0.00000000E+00
  0.00000000E+00  0.00000000E+00  0.00000000E+00
  0.00000000E+00  0.00000000E+00  0.00000000E+00
  0.00000000E+00  0.00000000E+00  0.00000000E+00
  0.00000000E+00  0.00000000E+00  0.00000000E+00
  0.00000000E+00  0.00000000E+00  0.00000000E+00
  0.00000000E+00  0.00000000E+00  0.00000000E+00
  0.00000000E+00  0.00000000E+00  0.00000000E+00
  0.00000000E+00  0.00000000E+00  0.00000000E+00
  0.00000000E+00  0.00000000E+00  0.00000000E+00
  0.00000000E+00  0.00000000E+00  0.00000000E+00
  0.00000000E+00  0.00000000E+00  0.00000000E+00
  0.00000000E+00  0.00000000E+00  0.00000000E+00
  0.00000000E+00  0.00000000E+00  0.00000000E+00
  0.00000000E+00  0.00000000E+00  0.00000000E+00
  0.00000000E+00  0.00000000E+00  0.00000000E+00
  0.00000000E+00  0.00000000E+00  0.00000000E+00
  0.00000000E+00  0.00000000E+00  0.00000000E+00
  0.00000000E+00  0.00000000E+00  0.00000000E+00
  0.00000000E+00  0.00000000E+00  0.00000000E+00
  0.00000000E+00  0.00000000E+00  0.00000000E+00
  0.00000000E+00  0.00000000E+00  0.00000000E+00
  0.00000000E+00  0.00000000E+00  0.00000000E+00
  0.00000000E+00  0.00000000E+00  0.00000000E+00
  0.00000000E+00  0.00000000E+00  0.00000000E+00
  0.00000000E+00  0.00000000E+00  0.00000000E+00
  0.00000000E+00  0.00000000E+00  0.00000000E+00
  0.00000000E+00  0.00000000E+00  0.00000000E+00
  0.00000000E+00  0.00000000E+00  0.00000000E+00
  0.00000000E+00  0.00000000E+00  0.00000000E+00
  0.00000000E+00  0.00000000E+00  0.00000000E+00
  0.00000000E+00  0.00000000E+00  0.00000000E+00
  0.00000000E+00  0.00000000E+00  0.00000000E+00
  0.00000000E+00  0.00000000E+00  0.00000000E+00
  0.00000000E+00  0.00000000E+00  0.00000000E+00
  0.00000000E+00  0.00000000E+00  0.00000000E+00
  0.00000000E+00  0.00000000E+00  0.00000000E+00
  0.00000000E+00  0.00000000E+00  0.00000000E+00
  0.00000000E+00  0.00000000E+00  0.00000000E+00
  0.00000000E+00  0.00000000E+00  0.00000000E+00
  0.00000000E+00  0.00000000E+00  0.00000000E+00
  0.00000000E+00  0.00000000E+00  0.00000000E+00
  0.00000000E+00  0.00000000E+00  0.00000000E+00
  0.00000000E+00  0.00000000E+00  0.00000000E+00
  0.00000000E+00  0.00000000E+00  0.00000000E+00
  0.00000000E+00  0.00000000E+00  0.00000000E+00
  0.00000000E+00  0.00000000E+00  0.00000000E+00
  0.00000000E+00  0.00000000E+00  0.00000000E+00
  0.00000000E+00  0.00000000E+00  0.00000000E+00
  0.00000000E+00  0.00000000E+00  0.00000000E+00
  0.00000000E+00  0.00000000E+00  0.00000000E+00
  0.00000000E+00  0.00000000E+00  0.00000000E+00
  0.00000000E+00  0.00000000E+00  0.00000000E+00
  0.00000000E+00  0.00000000E+00  0.00000000E+00
  0.00000000E+00  0.00000000E+00  0.00000000E+00
