Cu48 C6 Br6                             
    1.000000000000000     
    10.2424774999999997    0.0000000000000000    0.0000000000000000
     0.0000000000000000   14.4850505999999992    0.0000000000000000
     0.0000000000000000    0.0000000000000000   15.4658551800000001
   Cu   C    Br
    48     6     6
Selective dynamics
Direct
  0.2488426778724389  0.2496196287384223  0.4001909003371580   T   T   T
  0.2495832159153082  0.5001291652274276  0.4015762326290400   T   T   T
  0.2493772825082772  0.7501117750760216  0.4026947989174658   T   T   T
  0.2500054959487414  0.9998511782043877  0.4024855640888063   T   T   T
  0.5005496573888450  0.2503641041934017  0.4006020536947332   T   T   T
  0.4995487433240342  0.4991902775441517  0.4010588453544202   T   T   T
  0.4997198761423647  0.7503775110143351  0.4020025490165153   T   T   T
  0.5001219656086349  0.0004769380651766  0.4026328389005087   T   T   T
  0.7488164584599772  0.2515902023999814  0.4004361121851616   T   T   T
  0.7485251625620464  0.4994295961566735  0.3993765394261715   T   T   T
  0.7499716457884631  0.7498945379666537  0.4023202077186525   T   T   T
  0.7498072743379325  0.0000054826608178  0.4015822757408571   T   T   T
  0.9992155177842363  0.2500904825344463  0.4017128339638276   T   T   T
  0.9998823000772461  0.5000126784040191  0.4008549742231793   T   T   T
  0.9999597344653921  0.7495743811382596  0.4031847218866531   T   T   T
  0.9995702705462577  0.0006764039613714  0.4024761945528255   T   T   T
  0.1257913240259114  0.1257768000651680  0.4814991815775400   T   T   T
  0.1227246027466506  0.3752116269639174  0.4815901341971411   T   T   T
  0.1252290904462683  0.6237898284167400  0.4827788451422279   T   T   T
  0.1247417959596433  0.8754413650036099  0.4821471953957968   T   T   T
  0.3740157753845494  0.1260019244281025  0.4810444819133863   T   T   T
  0.3715536885716588  0.3736017649537686  0.4800198282367347   T   T   T
  0.3743790370431768  0.6252591977955788  0.4810962045827338   T   T   T
  0.3749235803653406  0.8747923883111426  0.4824133673880056   T   T   T
  0.6226411960856311  0.1252487324904266  0.4842606482751037   T   T   T
  0.6239881788460124  0.3748381134756968  0.4901122129708071   T   T   T
  0.6233176734646477  0.6255529779422204  0.4815401984265932   T   T   T
  0.6247385382556985  0.8750981506796052  0.4820425774077890   T   T   T
  0.8764924413602131  0.1246078497859955  0.4845423461057479   T   T   T
  0.8747019499243720  0.3748381219314325  0.4825769228520613   T   T   T
  0.8745873602876486  0.6254591464068042  0.4829106310361340   T   T   T
  0.8749234640456720  0.8754776960617434  0.4816811311308555   T   T   T
  0.1250000002440785  0.1249999996548183  0.3232928242122597   F   F   F
  0.1250000002440785  0.3749999989644479  0.3232928242122597   F   F   F
  0.1250000002440785  0.6249999982740846  0.3232928242122597   F   F   F
  0.1250000002440785  0.8749999975837142  0.3232928242122597   F   F   F
  0.3749999997559215  0.1249999996548183  0.3232928242122597   F   F   F
  0.3749999997559215  0.3749999989644479  0.3232928242122597   F   F   F
  0.3749999997559215  0.6249999982740846  0.3232928242122597   F   F   F
  0.3749999997559215  0.8749999975837142  0.3232928242122597   F   F   F
  0.6249999982914289  0.1249999996548183  0.3232928242122597   F   F   F
  0.6249999992677573  0.3749999989644479  0.3232928242122597   F   F   F
  0.6249999992677573  0.6249999982740846  0.3232928242122597   F   F   F
  0.6249999992677573  0.8749999975837142  0.3232928242122597   F   F   F
  0.8749999987795931  0.1249999996548183  0.3232928242122597   F   F   F
  0.8749999978032648  0.3749999989644479  0.3232928242122597   F   F   F
  0.8749999987795931  0.6249999982740846  0.3232928242122597   F   F   F
  0.8749999987795931  0.8749999975837142  0.3232928242122597   F   F   F
  0.3868074045007575  0.5293909290407086  0.6560759837313554   T   T   T
  0.4600493429134431  0.6114364266622161  0.6634359532729448   T   T   T
  0.5974744964888927  0.6068663073535134  0.6533776114987973   T   T   T
  0.6510140452896849  0.5237633200046332  0.6228088499543176   T   T   T
  0.5798389471003276  0.4452056786472554  0.6009185902770398   T   T   T
  0.4512144965447291  0.4485425977682311  0.6304769179034082   T   T   T
  0.2032198493287041  0.5317452660424635  0.6743929591183999   T   T   T
  0.3776818149527017  0.7247533024376764  0.6901626096361255   T   T   T
  0.7029906976706499  0.7100330408676143  0.6832224698076743   T   T   T
  0.8432932564013313  0.5147466408420485  0.6133181867229567   T   T   T
  0.7492242826383801  0.1738360610932759  0.6072545253952697   T   T   T
  0.3538912730488022  0.3314556686636081  0.6350638546828336   T   T   T
 
  0.00000000E+00  0.00000000E+00  0.00000000E+00
  0.00000000E+00  0.00000000E+00  0.00000000E+00
  0.00000000E+00  0.00000000E+00  0.00000000E+00
  0.00000000E+00  0.00000000E+00  0.00000000E+00
  0.00000000E+00  0.00000000E+00  0.00000000E+00
  0.00000000E+00  0.00000000E+00  0.00000000E+00
  0.00000000E+00  0.00000000E+00  0.00000000E+00
  0.00000000E+00  0.00000000E+00  0.00000000E+00
  0.00000000E+00  0.00000000E+00  0.00000000E+00
  0.00000000E+00  0.00000000E+00  0.00000000E+00
  0.00000000E+00  0.00000000E+00  0.00000000E+00
  0.00000000E+00  0.00000000E+00  0.00000000E+00
  0.00000000E+00  0.00000000E+00  0.00000000E+00
  0.00000000E+00  0.00000000E+00  0.00000000E+00
  0.00000000E+00  0.00000000E+00  0.00000000E+00
  0.00000000E+00  0.00000000E+00  0.00000000E+00
  0.00000000E+00  0.00000000E+00  0.00000000E+00
  0.00000000E+00  0.00000000E+00  0.00000000E+00
  0.00000000E+00  0.00000000E+00  0.00000000E+00
  0.00000000E+00  0.00000000E+00  0.00000000E+00
  0.00000000E+00  0.00000000E+00  0.00000000E+00
  0.00000000E+00  0.00000000E+00  0.00000000E+00
  0.00000000E+00  0.00000000E+00  0.00000000E+00
  0.00000000E+00  0.00000000E+00  0.00000000E+00
  0.00000000E+00  0.00000000E+00  0.00000000E+00
  0.00000000E+00  0.00000000E+00  0.00000000E+00
  0.00000000E+00  0.00000000E+00  0.00000000E+00
  0.00000000E+00  0.00000000E+00  0.00000000E+00
  0.00000000E+00  0.00000000E+00  0.00000000E+00
  0.00000000E+00  0.00000000E+00  0.00000000E+00
  0.00000000E+00  0.00000000E+00  0.00000000E+00
  0.00000000E+00  0.00000000E+00  0.00000000E+00
  0.00000000E+00  0.00000000E+00  0.00000000E+00
  0.00000000E+00  0.00000000E+00  0.00000000E+00
  0.00000000E+00  0.00000000E+00  0.00000000E+00
  0.00000000E+00  0.00000000E+00  0.00000000E+00
  0.00000000E+00  0.00000000E+00  0.00000000E+00
  0.00000000E+00  0.00000000E+00  0.00000000E+00
  0.00000000E+00  0.00000000E+00  0.00000000E+00
  0.00000000E+00  0.00000000E+00  0.00000000E+00
  0.00000000E+00  0.00000000E+00  0.00000000E+00
  0.00000000E+00  0.00000000E+00  0.00000000E+00
  0.00000000E+00  0.00000000E+00  0.00000000E+00
  0.00000000E+00  0.00000000E+00  0.00000000E+00
  0.00000000E+00  0.00000000E+00  0.00000000E+00
  0.00000000E+00  0.00000000E+00  0.00000000E+00
  0.00000000E+00  0.00000000E+00  0.00000000E+00
  0.00000000E+00  0.00000000E+00  0.00000000E+00
  0.00000000E+00  0.00000000E+00  0.00000000E+00
  0.00000000E+00  0.00000000E+00  0.00000000E+00
  0.00000000E+00  0.00000000E+00  0.00000000E+00
  0.00000000E+00  0.00000000E+00  0.00000000E+00
  0.00000000E+00  0.00000000E+00  0.00000000E+00
  0.00000000E+00  0.00000000E+00  0.00000000E+00
  0.00000000E+00  0.00000000E+00  0.00000000E+00
  0.00000000E+00  0.00000000E+00  0.00000000E+00
  0.00000000E+00  0.00000000E+00  0.00000000E+00
  0.00000000E+00  0.00000000E+00  0.00000000E+00
  0.00000000E+00  0.00000000E+00  0.00000000E+00
  0.00000000E+00  0.00000000E+00  0.00000000E+00
