Ir48 C4 N2 Cl4                          
    1.000000000000000     
    10.9622135000000007    0.0000000000000000    0.0000000000000000
     0.0000000000000000   10.9622135000000007    0.0000000000000000
     0.0000000000000000    0.0000000000000000   16.7325000400000015
   Ir   C    N    Cl
    48     4     2     4
Selective dynamics
Direct
  0.9986977581305396  0.2498144211279865  0.4094247123322177   T   T   T
  0.9999995423098653  0.5000022071753421  0.4095596207674461   T   T   T
  0.0013083720372222  0.7501848608051702  0.4094165470190276   T   T   T
  0.0000059104075589  0.0000031351857643  0.4091048014828971   T   T   T
  0.2504479122269530  0.2504533295525349  0.4099406964558341   T   T   T
  0.2503678789505557  0.4998440647202571  0.4100428675741838   T   T   T
  0.2527766646726946  0.7472255791824765  0.4119391024491819   T   T   T
  0.2498120322265791  0.9986916549685958  0.4094186665021766   T   T   T
  0.4998407567732741  0.2503703598596658  0.4100374415219576   T   T   T
  0.4999979394071161  0.4999993348177654  0.4101355739580725   T   T   T
  0.5001571751588827  0.7496328594433379  0.4100430118972511   T   T   T
  0.5000026256127938  0.9999945498181546  0.4095583735014046   T   T   T
  0.7472229741358234  0.2527768807697157  0.4119379832634920   T   T   T
  0.7496293522181219  0.5001618178125895  0.4100377957446071   T   T   T
  0.7495440442300847  0.7495479651736332  0.4099386672228107   T   T   T
  0.7501812918569399  0.0013046839255892  0.4094208763562577   T   T   T
  0.1247258063851788  0.1247280641299326  0.5207923057581070   T   T   T
  0.1229522074124603  0.3738065714922669  0.5209400735877239   T   T   T
  0.1232225288688369  0.6250634993260675  0.5226055172517974   T   T   T
  0.1245101908662889  0.8754914655236092  0.5211726242659012   T   T   T
  0.3737992587842598  0.1229522184025953  0.5209432832612464   T   T   T
  0.3718867646913964  0.3718993108026822  0.5221378073752945   T   T   T
  0.3746819871452658  0.6253094450783934  0.5301000011952297   T   T   T
  0.3749343017130045  0.8767725931242012  0.5226066951417394   T   T   T
  0.6250655494612758  0.1232238554009797  0.5226079564260715   T   T   T
  0.6253036590608758  0.3746951980686077  0.5300681002340966   T   T   T
  0.6281049918216368  0.6281116801146567  0.5221376400248161   T   T   T
  0.6261944620267812  0.8770481942528363  0.5209432082901273   T   T   T
  0.8754959014111705  0.1245102467957366  0.5211697188942708   T   T   T
  0.8767793543029683  0.3749387589092734  0.5226106015878287   T   T   T
  0.8770501116604734  0.6261996892605666  0.5209396521727072   T   T   T
  0.8752782128338339  0.8752727582659929  0.5207939110597124   T   T   T
  0.1250000002280558  0.1250000002280558  0.2988196616194330   F   F   F
  0.1250000002280558  0.3749999997719442  0.2988196616194330   F   F   F
  0.1250000002280558  0.6249999993158326  0.2988196616194330   F   F   F
  0.1250000002280558  0.8749999988597210  0.2988196616194330   F   F   F
  0.3749999997719442  0.1250000002280558  0.2988196616194330   F   F   F
  0.3749999997719442  0.3749999997719442  0.2988196616194330   F   F   F
  0.3749999997719442  0.6249999993158326  0.2988196616194330   F   F   F
  0.3749999997719442  0.8749999988597210  0.2988196616194330   F   F   F
  0.6249999993158326  0.1250000002280558  0.2988196616194330   F   F   F
  0.6249999993158326  0.3749999997719442  0.2988196616194330   F   F   F
  0.6249999993158326  0.6249999993158326  0.2988196616194330   F   F   F
  0.6249999993158326  0.8749999988597210  0.2988196616194330   F   F   F
  0.8749999988597210  0.1250000002280558  0.2988196616194330   F   F   F
  0.8749999988597210  0.3749999997719442  0.2988196616194330   F   F   F
  0.8749999988597210  0.6249999993158326  0.2988196616194330   F   F   F
  0.8749999988597210  0.8749999988597210  0.2988196616194330   F   F   F
  0.5310080136051454  0.3750778731400999  0.6458313688004012   T   T   T
  0.6249281388312298  0.4689672738958990  0.6458304273346229   T   T   T
  0.4689911022980127  0.6249455579540282  0.6458477805711595   T   T   T
  0.3750407751499765  0.5310257933736864  0.6458602512073810   T   T   T
  0.5928868745239271  0.5929130059933243  0.6412275015377773   T   T   T
  0.4070930818726879  0.4071005526290961  0.6412246875375018   T   T   T
  0.2353100755146684  0.5542269775149506  0.6961814088002640   T   T   T
  0.4457748025189403  0.7647130468607486  0.6961409005747683   T   T   T
  0.5542290917083150  0.2352694918820362  0.6960905910161159   T   T   T
  0.7647460212933552  0.4457561743716383  0.6960859885429329   T   T   T
 
  0.00000000E+00  0.00000000E+00  0.00000000E+00
  0.00000000E+00  0.00000000E+00  0.00000000E+00
  0.00000000E+00  0.00000000E+00  0.00000000E+00
  0.00000000E+00  0.00000000E+00  0.00000000E+00
  0.00000000E+00  0.00000000E+00  0.00000000E+00
  0.00000000E+00  0.00000000E+00  0.00000000E+00
  0.00000000E+00  0.00000000E+00  0.00000000E+00
  0.00000000E+00  0.00000000E+00  0.00000000E+00
  0.00000000E+00  0.00000000E+00  0.00000000E+00
  0.00000000E+00  0.00000000E+00  0.00000000E+00
  0.00000000E+00  0.00000000E+00  0.00000000E+00
  0.00000000E+00  0.00000000E+00  0.00000000E+00
  0.00000000E+00  0.00000000E+00  0.00000000E+00
  0.00000000E+00  0.00000000E+00  0.00000000E+00
  0.00000000E+00  0.00000000E+00  0.00000000E+00
  0.00000000E+00  0.00000000E+00  0.00000000E+00
  0.00000000E+00  0.00000000E+00  0.00000000E+00
  0.00000000E+00  0.00000000E+00  0.00000000E+00
  0.00000000E+00  0.00000000E+00  0.00000000E+00
  0.00000000E+00  0.00000000E+00  0.00000000E+00
  0.00000000E+00  0.00000000E+00  0.00000000E+00
  0.00000000E+00  0.00000000E+00  0.00000000E+00
  0.00000000E+00  0.00000000E+00  0.00000000E+00
  0.00000000E+00  0.00000000E+00  0.00000000E+00
  0.00000000E+00  0.00000000E+00  0.00000000E+00
  0.00000000E+00  0.00000000E+00  0.00000000E+00
  0.00000000E+00  0.00000000E+00  0.00000000E+00
  0.00000000E+00  0.00000000E+00  0.00000000E+00
  0.00000000E+00  0.00000000E+00  0.00000000E+00
  0.00000000E+00  0.00000000E+00  0.00000000E+00
  0.00000000E+00  0.00000000E+00  0.00000000E+00
  0.00000000E+00  0.00000000E+00  0.00000000E+00
  0.00000000E+00  0.00000000E+00  0.00000000E+00
  0.00000000E+00  0.00000000E+00  0.00000000E+00
  0.00000000E+00  0.00000000E+00  0.00000000E+00
  0.00000000E+00  0.00000000E+00  0.00000000E+00
  0.00000000E+00  0.00000000E+00  0.00000000E+00
  0.00000000E+00  0.00000000E+00  0.00000000E+00
  0.00000000E+00  0.00000000E+00  0.00000000E+00
  0.00000000E+00  0.00000000E+00  0.00000000E+00
  0.00000000E+00  0.00000000E+00  0.00000000E+00
  0.00000000E+00  0.00000000E+00  0.00000000E+00
  0.00000000E+00  0.00000000E+00  0.00000000E+00
  0.00000000E+00  0.00000000E+00  0.00000000E+00
  0.00000000E+00  0.00000000E+00  0.00000000E+00
  0.00000000E+00  0.00000000E+00  0.00000000E+00
  0.00000000E+00  0.00000000E+00  0.00000000E+00
  0.00000000E+00  0.00000000E+00  0.00000000E+00
  0.00000000E+00  0.00000000E+00  0.00000000E+00
  0.00000000E+00  0.00000000E+00  0.00000000E+00
  0.00000000E+00  0.00000000E+00  0.00000000E+00
  0.00000000E+00  0.00000000E+00  0.00000000E+00
  0.00000000E+00  0.00000000E+00  0.00000000E+00
  0.00000000E+00  0.00000000E+00  0.00000000E+00
  0.00000000E+00  0.00000000E+00  0.00000000E+00
  0.00000000E+00  0.00000000E+00  0.00000000E+00
  0.00000000E+00  0.00000000E+00  0.00000000E+00
  0.00000000E+00  0.00000000E+00  0.00000000E+00
