Cu48 C6 Br6                             
    1.000000000000000     
    10.2424774999999997    0.0000000000000000    0.0000000000000000
     0.0000000000000000   10.2424774999999997    0.0000000000000000
     0.0000000000000000    0.0000000000000000   16.5498655300000017
   Cu   C    Br
    48     6     6
Selective dynamics
Direct
  0.2506314142195833  0.9984530830499310  0.4088225711857731   T   T   T
  0.2481465805585614  0.2481394632432270  0.4084661148230850   T   T   T
  0.2499578447819886  0.4976766225568809  0.4092992654645471   T   T   T
  0.2523654764911427  0.7476227525587475  0.4093220216099809   T   T   T
  0.5000099721064970  0.0000007181400292  0.4098371344636078   T   T   T
  0.4977031610242975  0.2499655650394104  0.4092897016457755   T   T   T
  0.5000006903190197  0.4999986228163209  0.4084037607872162   T   T   T
  0.5023048755778703  0.7500340500188756  0.4092963532695819   T   T   T
  0.7493763301574035  0.0015456186748253  0.4088098485226084   T   T   T
  0.7476459769438293  0.2523683699214843  0.4092992392822623   T   T   T
  0.7500445538020344  0.5023179435426854  0.4092937458427883   T   T   T
  0.7518573583276549  0.7518612600832455  0.4084689262698902   T   T   T
  0.9999962795911088  0.9999978257851581  0.4079750917490941   T   T   T
  0.9984640512172120  0.2506370174504937  0.4088075852362749   T   T   T
  0.9999978511055190  0.4999960463923543  0.4098506853597783   T   T   T
  0.0015288408265661  0.7493596598579870  0.4088259235747955   T   T   T
  0.1213512544149751  0.1213003066106353  0.5161619482170892   T   T   T
  0.1217813421919303  0.3720518979095360  0.5169489839096926   T   T   T
  0.1268924246124712  0.6235332649121901  0.5171603139816625   T   T   T
  0.1269121933701456  0.8730593724775488  0.5144549462907264   T   T   T
  0.3720982975252980  0.1217773662958308  0.5169117162124479   T   T   T
  0.3682441397471194  0.3682242895106569  0.5169840981717684   T   T   T
  0.3788738560820661  0.6211127497562643  0.5157688927087207   T   T   T
  0.3764410161050975  0.8731081153840847  0.5171624071668361   T   T   T
  0.6235699023923544  0.1269024154458975  0.5171489045886233   T   T   T
  0.6211357244255353  0.3788759578856542  0.5157492772589123   T   T   T
  0.6317630651913220  0.6317612659350260  0.5169811141127028   T   T   T
  0.6279099998735092  0.8782313513134312  0.5169082640505067   T   T   T
  0.8730876035754420  0.1269472578575375  0.5144523852591405   T   T   T
  0.8731025784784165  0.3764574534192349  0.5171505550278468   T   T   T
  0.8782151267714937  0.6279357049830381  0.5169471794743998   T   T   T
  0.8786454730001978  0.8787064513983438  0.5161704790907393   T   T   T
  0.1250000002440785  0.1249999992677573  0.3021172583509184   F   F   F
  0.1250000002440785  0.3749999997559215  0.3021172583509184   F   F   F
  0.1250000002440785  0.6249999982914289  0.3021172583509184   F   F   F
  0.1250000002440785  0.8749999987795931  0.3021172583509184   F   F   F
  0.3749999997559215  0.1249999992677573  0.3021172583509184   F   F   F
  0.3749999997559215  0.3749999997559215  0.3021172583509184   F   F   F
  0.3749999997559215  0.6249999982914289  0.3021172583509184   F   F   F
  0.3749999997559215  0.8749999987795931  0.3021172583509184   F   F   F
  0.6249999982914289  0.1249999992677573  0.3021172583509184   F   F   F
  0.6249999982914289  0.3749999997559215  0.3021172583509184   F   F   F
  0.6249999992677573  0.6249999982914289  0.3021172583509184   F   F   F
  0.6249999992677573  0.8749999987795931  0.3021172583509184   F   F   F
  0.8749999987795931  0.1249999992677573  0.3021172583509184   F   F   F
  0.8749999978032648  0.3749999997559215  0.3021172583509184   F   F   F
  0.8749999987795931  0.6249999982914289  0.3021172583509184   F   F   F
  0.8749999987795931  0.8749999987795931  0.3021172583509184   F   F   F
  0.3693841694638138  0.5328531066235698  0.6437642892133013   T   T   T
  0.4671028018511763  0.6306077009334814  0.6437740226002688   T   T   T
  0.5982953487452605  0.5982375025453024  0.6342484367587247   T   T   T
  0.6305824479026398  0.4670735973072624  0.6437790955822962   T   T   T
  0.5328471212657604  0.3694169800039830  0.6437788794317498   T   T   T
  0.4017772635012449  0.4017892117942807  0.6342566279206423   T   T   T
  0.1802590415527234  0.5795325047570685  0.6630978681077480   T   T   T
  0.4205552932895955  0.8197659315939845  0.6631096944343824   T   T   T
  0.8411341755316144  0.8404543823253690  0.6519242466148825   T   T   T
  0.8197370617352178  0.4204619837567520  0.6631050192017653   T   T   T
  0.5794389357772758  0.1802516454673864  0.6631063042759777   T   T   T
  0.1587904629656691  0.1595867536463231  0.6519178043470575   T   T   T
 
  0.00000000E+00  0.00000000E+00  0.00000000E+00
  0.00000000E+00  0.00000000E+00  0.00000000E+00
  0.00000000E+00  0.00000000E+00  0.00000000E+00
  0.00000000E+00  0.00000000E+00  0.00000000E+00
  0.00000000E+00  0.00000000E+00  0.00000000E+00
  0.00000000E+00  0.00000000E+00  0.00000000E+00
  0.00000000E+00  0.00000000E+00  0.00000000E+00
  0.00000000E+00  0.00000000E+00  0.00000000E+00
  0.00000000E+00  0.00000000E+00  0.00000000E+00
  0.00000000E+00  0.00000000E+00  0.00000000E+00
  0.00000000E+00  0.00000000E+00  0.00000000E+00
  0.00000000E+00  0.00000000E+00  0.00000000E+00
  0.00000000E+00  0.00000000E+00  0.00000000E+00
  0.00000000E+00  0.00000000E+00  0.00000000E+00
  0.00000000E+00  0.00000000E+00  0.00000000E+00
  0.00000000E+00  0.00000000E+00  0.00000000E+00
  0.00000000E+00  0.00000000E+00  0.00000000E+00
  0.00000000E+00  0.00000000E+00  0.00000000E+00
  0.00000000E+00  0.00000000E+00  0.00000000E+00
  0.00000000E+00  0.00000000E+00  0.00000000E+00
  0.00000000E+00  0.00000000E+00  0.00000000E+00
  0.00000000E+00  0.00000000E+00  0.00000000E+00
  0.00000000E+00  0.00000000E+00  0.00000000E+00
  0.00000000E+00  0.00000000E+00  0.00000000E+00
  0.00000000E+00  0.00000000E+00  0.00000000E+00
  0.00000000E+00  0.00000000E+00  0.00000000E+00
  0.00000000E+00  0.00000000E+00  0.00000000E+00
  0.00000000E+00  0.00000000E+00  0.00000000E+00
  0.00000000E+00  0.00000000E+00  0.00000000E+00
  0.00000000E+00  0.00000000E+00  0.00000000E+00
  0.00000000E+00  0.00000000E+00  0.00000000E+00
  0.00000000E+00  0.00000000E+00  0.00000000E+00
  0.00000000E+00  0.00000000E+00  0.00000000E+00
  0.00000000E+00  0.00000000E+00  0.00000000E+00
  0.00000000E+00  0.00000000E+00  0.00000000E+00
  0.00000000E+00  0.00000000E+00  0.00000000E+00
  0.00000000E+00  0.00000000E+00  0.00000000E+00
  0.00000000E+00  0.00000000E+00  0.00000000E+00
  0.00000000E+00  0.00000000E+00  0.00000000E+00
  0.00000000E+00  0.00000000E+00  0.00000000E+00
  0.00000000E+00  0.00000000E+00  0.00000000E+00
  0.00000000E+00  0.00000000E+00  0.00000000E+00
  0.00000000E+00  0.00000000E+00  0.00000000E+00
  0.00000000E+00  0.00000000E+00  0.00000000E+00
  0.00000000E+00  0.00000000E+00  0.00000000E+00
  0.00000000E+00  0.00000000E+00  0.00000000E+00
  0.00000000E+00  0.00000000E+00  0.00000000E+00
  0.00000000E+00  0.00000000E+00  0.00000000E+00
  0.00000000E+00  0.00000000E+00  0.00000000E+00
  0.00000000E+00  0.00000000E+00  0.00000000E+00
  0.00000000E+00  0.00000000E+00  0.00000000E+00
  0.00000000E+00  0.00000000E+00  0.00000000E+00
  0.00000000E+00  0.00000000E+00  0.00000000E+00
  0.00000000E+00  0.00000000E+00  0.00000000E+00
  0.00000000E+00  0.00000000E+00  0.00000000E+00
  0.00000000E+00  0.00000000E+00  0.00000000E+00
  0.00000000E+00  0.00000000E+00  0.00000000E+00
  0.00000000E+00  0.00000000E+00  0.00000000E+00
  0.00000000E+00  0.00000000E+00  0.00000000E+00
  0.00000000E+00  0.00000000E+00  0.00000000E+00
