H4 Pt48 C6 F2                           
    1.000000000000000     
    11.2480069999999994    0.0000000000000000    0.0000000000000000
    -5.6240030000000001    9.7410599999999992    0.0000000000000000
     0.0000000000000000    0.0000000000000000   16.5993339999999989
   H    Pt   C    F 
     4    48     6     2
Selective dynamics
Direct
  0.5013789461736735  0.3705433418788218  0.7876637142187803   T   T   T
  0.3713815345260869  0.5003457731837671  0.7879726241588827   T   T   T
  0.7494515475839165  0.8782978388916192  0.7880036309998601   T   T   T
  0.8791384023667845  0.7483024229740352  0.7876875341569800   T   T   T
  0.0833330000000032  0.1666669999999968  0.3614600000000010   F   F   F
  0.0833330000000032  0.4166669999999968  0.3614600000000010   F   F   F
  0.0833330000000032  0.6666669999999968  0.3614600000000010   F   F   F
  0.0833330000000032  0.9166669999999968  0.3614600000000010   F   F   F
  0.3333330000000032  0.1666669999999968  0.3614600000000010   F   F   F
  0.3333330000000032  0.4166669999999968  0.3614600000000010   F   F   F
  0.3333330000000032  0.6666669999999968  0.3614600000000010   F   F   F
  0.3333330000000032  0.9166669999999968  0.3614600000000010   F   F   F
  0.5833330000000032  0.1666669999999968  0.3614600000000010   F   F   F
  0.5833330000000032  0.4166669999999968  0.3614600000000010   F   F   F
  0.5833330000000032  0.6666669999999968  0.3614600000000010   F   F   F
  0.5833330000000032  0.9166669999999968  0.3614600000000010   F   F   F
  0.8333330000000032  0.1666669999999968  0.3614600000000010   F   F   F
  0.8333330000000032  0.4166669999999968  0.3614600000000010   F   F   F
  0.8333330000000032  0.6666669999999968  0.3614600000000010   F   F   F
  0.8333330000000032  0.9166669999999968  0.3614600000000010   F   F   F
  0.2443679015312270  0.2429920751997514  0.6364038439881057   T   T   T
  0.2413602285119794  0.4965400492556924  0.6352319972714398   T   T   T
  0.2518981875549642  0.7486919588682994  0.6385184512226303   T   T   T
  0.2519573802137316  0.9978905821109763  0.6376096119837982   T   T   T
  0.4980902340707729  0.2408915187370724  0.6350543065006704   T   T   T
  0.4860714122239784  0.4865649064234248  0.6438218871077837   T   T   T
  0.5005407446386343  0.7493170988871967  0.6491300196123575   T   T   T
  0.5011505114753447  0.9979444694314168  0.6385219680948993   T   T   T
  0.7500451833791004  0.2512663363053136  0.6385511083615256   T   T   T
  0.7487730033793412  0.5010613688351455  0.6477937939338432   T   T   T
  0.7632798479383851  0.7637601363919728  0.6438551015440979   T   T   T
  0.7533253800029058  0.0084949395349128  0.6352462336294451   T   T   T
  0.9987853145396883  0.2510434445474559  0.6376440104938723   T   T   T
  0.9985692790290344  0.4997961647229445  0.6385569231759831   T   T   T
  0.0089582998169604  0.7517632479407368  0.6350748401396018   T   T   T
  0.0068576958818412  0.0054831879491459  0.6364319055586591   T   T   T
  0.1684111948710338  0.0814942077969434  0.4972971949978131   T   T   T
  0.1673104498295430  0.3328394734024158  0.4983734824122976   T   T   T
  0.1659489831761718  0.5836594230838728  0.4982863742134427   T   T   T
  0.1684857911280062  0.8321940025899650  0.4979144174940160   T   T   T
  0.4177304275558171  0.0814188169437386  0.4978983473356067   T   T   T
  0.4182973019266711  0.3349966102129258  0.5009020811142335   T   T   T
  0.4183710817200819  0.5835436276607950  0.5028370279845475   T   T   T
  0.4198383054590664  0.8300854559814681  0.5030358337349057   T   T   T
  0.6662620035945324  0.0839587556401824  0.4982902098772328   T   T   T
  0.6680778592377408  0.3364187353884702  0.5014954480265672   T   T   T
  0.6664354173859195  0.5834873623565784  0.5034268536315736   T   T   T
  0.6663888908159592  0.8315495446153918  0.5028476298982554   T   T   T
  0.9170633997282707  0.0825904402760358  0.4983851911991692   T   T   T
  0.9163040417140706  0.3335971000804747  0.4990252757094353   T   T   T
  0.9135071977315974  0.5818540639158627  0.5014996192109678   T   T   T
  0.9149337880048307  0.8316366224056608  0.5009248707822422   T   T   T
  0.7032865606727938  0.5464838202618481  0.7623108570377752   T   T   T
  0.5507658724970668  0.4761400886323202  0.7648541331539462   T   T   T
  0.4769820003710379  0.5501250881483060  0.7652572781295319   T   T   T
  0.5473550787984962  0.7025258976988411  0.7632068359281590   T   T   T
  0.6997672408035811  0.7727998592021521  0.7652833818102920   T   T   T
  0.7736739107585109  0.6990983449578465  0.7648922285098010   T   T   T
  0.7535612648388295  0.4960998933638621  0.8223337897164953   T   T   T
  0.4973744016293224  0.7523987087711888  0.8236927865974053   T   T   T
 
  0.00000000E+00  0.00000000E+00  0.00000000E+00
  0.00000000E+00  0.00000000E+00  0.00000000E+00
  0.00000000E+00  0.00000000E+00  0.00000000E+00
  0.00000000E+00  0.00000000E+00  0.00000000E+00
  0.00000000E+00  0.00000000E+00  0.00000000E+00
  0.00000000E+00  0.00000000E+00  0.00000000E+00
  0.00000000E+00  0.00000000E+00  0.00000000E+00
  0.00000000E+00  0.00000000E+00  0.00000000E+00
  0.00000000E+00  0.00000000E+00  0.00000000E+00
  0.00000000E+00  0.00000000E+00  0.00000000E+00
  0.00000000E+00  0.00000000E+00  0.00000000E+00
  0.00000000E+00  0.00000000E+00  0.00000000E+00
  0.00000000E+00  0.00000000E+00  0.00000000E+00
  0.00000000E+00  0.00000000E+00  0.00000000E+00
  0.00000000E+00  0.00000000E+00  0.00000000E+00
  0.00000000E+00  0.00000000E+00  0.00000000E+00
  0.00000000E+00  0.00000000E+00  0.00000000E+00
  0.00000000E+00  0.00000000E+00  0.00000000E+00
  0.00000000E+00  0.00000000E+00  0.00000000E+00
  0.00000000E+00  0.00000000E+00  0.00000000E+00
  0.00000000E+00  0.00000000E+00  0.00000000E+00
  0.00000000E+00  0.00000000E+00  0.00000000E+00
  0.00000000E+00  0.00000000E+00  0.00000000E+00
  0.00000000E+00  0.00000000E+00  0.00000000E+00
  0.00000000E+00  0.00000000E+00  0.00000000E+00
  0.00000000E+00  0.00000000E+00  0.00000000E+00
  0.00000000E+00  0.00000000E+00  0.00000000E+00
  0.00000000E+00  0.00000000E+00  0.00000000E+00
  0.00000000E+00  0.00000000E+00  0.00000000E+00
  0.00000000E+00  0.00000000E+00  0.00000000E+00
  0.00000000E+00  0.00000000E+00  0.00000000E+00
  0.00000000E+00  0.00000000E+00  0.00000000E+00
  0.00000000E+00  0.00000000E+00  0.00000000E+00
  0.00000000E+00  0.00000000E+00  0.00000000E+00
  0.00000000E+00  0.00000000E+00  0.00000000E+00
  0.00000000E+00  0.00000000E+00  0.00000000E+00
  0.00000000E+00  0.00000000E+00  0.00000000E+00
  0.00000000E+00  0.00000000E+00  0.00000000E+00
  0.00000000E+00  0.00000000E+00  0.00000000E+00
  0.00000000E+00  0.00000000E+00  0.00000000E+00
  0.00000000E+00  0.00000000E+00  0.00000000E+00
  0.00000000E+00  0.00000000E+00  0.00000000E+00
  0.00000000E+00  0.00000000E+00  0.00000000E+00
  0.00000000E+00  0.00000000E+00  0.00000000E+00
  0.00000000E+00  0.00000000E+00  0.00000000E+00
  0.00000000E+00  0.00000000E+00  0.00000000E+00
  0.00000000E+00  0.00000000E+00  0.00000000E+00
  0.00000000E+00  0.00000000E+00  0.00000000E+00
  0.00000000E+00  0.00000000E+00  0.00000000E+00
  0.00000000E+00  0.00000000E+00  0.00000000E+00
  0.00000000E+00  0.00000000E+00  0.00000000E+00
  0.00000000E+00  0.00000000E+00  0.00000000E+00
  0.00000000E+00  0.00000000E+00  0.00000000E+00
  0.00000000E+00  0.00000000E+00  0.00000000E+00
  0.00000000E+00  0.00000000E+00  0.00000000E+00
  0.00000000E+00  0.00000000E+00  0.00000000E+00
  0.00000000E+00  0.00000000E+00  0.00000000E+00
  0.00000000E+00  0.00000000E+00  0.00000000E+00
  0.00000000E+00  0.00000000E+00  0.00000000E+00
  0.00000000E+00  0.00000000E+00  0.00000000E+00
