Rh  C  H  F                             
    1.000000000000000     
    10.8856652999999994    0.0000000000000000    0.0000000000000000
     0.0000000000000000   10.8856652999999994    0.0000000000000000
     0.0000000000000000    0.0000000000000000   23.7729958199999984
   Rh   C    H    F 
    64     6     4     2
Selective dynamics
Direct
  0.0000000000000000  0.0000000000000000  0.3154840078544225   F   F   F
  0.7500000013779555  0.5000000009186394  0.3154840078544225   F   F   F
  0.0000000018372788  0.2500000004593161  0.3154840078544225   F   F   F
  0.0000000018372788  0.5000000009186394  0.3154840078544225   F   F   F
  0.0000000000000000  0.7500000013779555  0.3154840078544225   F   F   F
  0.2500000004593161  0.0000000000000000  0.3154840078544225   F   F   F
  0.2500000004593161  0.2500000004593161  0.3154840078544225   F   F   F
  0.7500000013779555  0.7500000013779555  0.3154840078544225   F   F   F
  0.2500000004593161  0.5000000009186394  0.3154840078544225   F   F   F
  0.2500000004593161  0.7500000013779555  0.3154840078544225   F   F   F
  0.5000000009186394  0.0000000000000000  0.3154840078544225   F   F   F
  0.5000000009186394  0.2500000004593161  0.3154840078544225   F   F   F
  0.5000000009186394  0.5000000009186394  0.3154840078544225   F   F   F
  0.5000000009186394  0.7500000013779555  0.3154840078544225   F   F   F
  0.7500000013779555  0.0000000000000000  0.3154840078544225   F   F   F
  0.7500000013779555  0.2500000004593161  0.3154840078544225   F   F   F
  0.0000161784931796  0.0000085261743833  0.4737310357515009   T   T   T
  0.9994554020595551  0.2494551470169209  0.4736635357993660   T   T   T
 -0.0000111615782753  0.5000110712750468  0.4731211373344196   T   T   T
  0.0005550782311575  0.7505758594971508  0.4736674794088832   T   T   T
  0.2494337759151099  0.9994836180276777  0.4736737252534436   T   T   T
  0.2495039301551148  0.2495164308696060  0.4736136335454993   T   T   T
  0.2505003926177439  0.4998489188201982  0.4740136193725819   T   T   T
  0.2515615815922872  0.7484474473201408  0.4740231246539124   T   T   T
  0.5000017874212708 -0.0000010961791337  0.4731324363607703   T   T   T
  0.4998524756273574  0.2505052487025642  0.4740069737180864   T   T   T
  0.4999919974895320  0.4999835471858509  0.4740694019914491   T   T   T
  0.5001295299080998  0.7495032076527990  0.4739976547574556   T   T   T
  0.7505364775035240  0.0005638674771643  0.4736752113688860   T   T   T
  0.7484316284490200  0.2515607009315971  0.4740257891697458   T   T   T
  0.7494980005911687  0.5001402600726280  0.4739937951351062   T   T   T
  0.7505060442959653  0.7505168816409747  0.4735981856345537   T   T   T
  0.1250890595270742  0.1250780585012234  0.5489956416213806   T   T   T
  0.1230264047186155  0.3747578397024758  0.5485354594875195   T   T   T
  0.1235329245844366  0.6247157584577276  0.5486942192150822   T   T   T
  0.1257846352545693  0.8742444580354376  0.5490373344938985   T   T   T
  0.3747528896574338  0.1230664863600040  0.5485560480528726   T   T   T
  0.3730154434806517  0.3730161468629880  0.5498009238233746   T   T   T
  0.3733946333379140  0.6266573362419535  0.5526591569222282   T   T   T
  0.3753036020367338  0.8764612880048288  0.5487054759672035   T   T   T
  0.6247173885474183  0.1235349575444034  0.5487042506526497   T   T   T
  0.6266420118139058  0.3733768151502890  0.5526479763046411   T   T   T
  0.6269935678864399  0.6269857626822942  0.5497937682538849   T   T   T
  0.6252294910080773  0.8769811668351838  0.5485509960419047   T   T   T
  0.8742493080618454  0.1257649013416404  0.5490593762722736   T   T   T
  0.8764615090534758  0.3753106341432754  0.5486991646316352   T   T   T
  0.8769542804881371  0.6252596425156568  0.5485460653255235   T   T   T
  0.8749412574870490  0.8749245476462902  0.5490063237066007   T   T   T
  0.1249999997703384  0.1249999997703384  0.3964301349042145   F   F   F
  0.1250000006889778  0.3750000002296616  0.3964301349042145   F   F   F
  0.1250000006889778  0.6250000006889778  0.3964301349042145   F   F   F
  0.1250000006889778  0.8750000011483010  0.3964301349042145   F   F   F
  0.3750000011483010  0.1249999997703384  0.3964301349042145   F   F   F
  0.3750000011483010  0.3750000002296616  0.3964301349042145   F   F   F
  0.3750000011483010  0.6250000006889778  0.3964301349042145   F   F   F
  0.3750000011483010  0.8750000011483010  0.3964301349042145   F   F   F
  0.6250000006889778  0.1249999997703384  0.3964301349042145   F   F   F
  0.6250000006889778  0.3750000002296616  0.3964301349042145   F   F   F
  0.6250000016076172  0.6250000006889778  0.3964301349042145   F   F   F
  0.6250000016076172  0.8750000011483010  0.3964301349042145   F   F   F
  0.8750000011483010  0.1249999997703384  0.3964301349042145   F   F   F
  0.8750000011483010  0.3750000002296616  0.3964301349042145   F   F   F
  0.8750000011483010  0.6250000006889778  0.3964301349042145   F   F   F
  0.8750000020669404  0.8750000011483010  0.3964301349042145   F   F   F
  0.4056217105411625  0.4056253526365812  0.6338483493467506   T   T   T
  0.3710883671843953  0.5357729360165689  0.6356987993857691   T   T   T
  0.4642551817853059  0.6289304193212466  0.6356866625434423   T   T   T
  0.5943701589269140  0.5943649752253354  0.6338220334886805   T   T   T
  0.6289362244559907  0.4642533523020464  0.6356787413017216   T   T   T
  0.5357685788884056  0.3710796732657931  0.6356938210692267   T   T   T
  0.2805529659440644  0.5554064647778914  0.6532908490775322   T   T   T
  0.4446070826831324  0.7194546481470701  0.6532917064101703   T   T   T
  0.7194583955666674  0.4446003651602095  0.6532908038532207   T   T   T
  0.5554130580384592  0.2805516318243544  0.6532899808471666   T   T   T
  0.3306462813220999  0.3306391535083674  0.6668673558209953   T   T   T
  0.6693721498161855  0.6693635897109858  0.6668542189821118   T   T   T
 
  0.00000000E+00  0.00000000E+00  0.00000000E+00
  0.00000000E+00  0.00000000E+00  0.00000000E+00
  0.00000000E+00  0.00000000E+00  0.00000000E+00
  0.00000000E+00  0.00000000E+00  0.00000000E+00
  0.00000000E+00  0.00000000E+00  0.00000000E+00
  0.00000000E+00  0.00000000E+00  0.00000000E+00
  0.00000000E+00  0.00000000E+00  0.00000000E+00
  0.00000000E+00  0.00000000E+00  0.00000000E+00
  0.00000000E+00  0.00000000E+00  0.00000000E+00
  0.00000000E+00  0.00000000E+00  0.00000000E+00
  0.00000000E+00  0.00000000E+00  0.00000000E+00
  0.00000000E+00  0.00000000E+00  0.00000000E+00
  0.00000000E+00  0.00000000E+00  0.00000000E+00
  0.00000000E+00  0.00000000E+00  0.00000000E+00
  0.00000000E+00  0.00000000E+00  0.00000000E+00
  0.00000000E+00  0.00000000E+00  0.00000000E+00
  0.00000000E+00  0.00000000E+00  0.00000000E+00
  0.00000000E+00  0.00000000E+00  0.00000000E+00
  0.00000000E+00  0.00000000E+00  0.00000000E+00
  0.00000000E+00  0.00000000E+00  0.00000000E+00
  0.00000000E+00  0.00000000E+00  0.00000000E+00
  0.00000000E+00  0.00000000E+00  0.00000000E+00
  0.00000000E+00  0.00000000E+00  0.00000000E+00
  0.00000000E+00  0.00000000E+00  0.00000000E+00
  0.00000000E+00  0.00000000E+00  0.00000000E+00
  0.00000000E+00  0.00000000E+00  0.00000000E+00
  0.00000000E+00  0.00000000E+00  0.00000000E+00
  0.00000000E+00  0.00000000E+00  0.00000000E+00
  0.00000000E+00  0.00000000E+00  0.00000000E+00
  0.00000000E+00  0.00000000E+00  0.00000000E+00
  0.00000000E+00  0.00000000E+00  0.00000000E+00
  0.00000000E+00  0.00000000E+00  0.00000000E+00
  0.00000000E+00  0.00000000E+00  0.00000000E+00
  0.00000000E+00  0.00000000E+00  0.00000000E+00
  0.00000000E+00  0.00000000E+00  0.00000000E+00
  0.00000000E+00  0.00000000E+00  0.00000000E+00
  0.00000000E+00  0.00000000E+00  0.00000000E+00
  0.00000000E+00  0.00000000E+00  0.00000000E+00
  0.00000000E+00  0.00000000E+00  0.00000000E+00
  0.00000000E+00  0.00000000E+00  0.00000000E+00
  0.00000000E+00  0.00000000E+00  0.00000000E+00
  0.00000000E+00  0.00000000E+00  0.00000000E+00
  0.00000000E+00  0.00000000E+00  0.00000000E+00
  0.00000000E+00  0.00000000E+00  0.00000000E+00
  0.00000000E+00  0.00000000E+00  0.00000000E+00
  0.00000000E+00  0.00000000E+00  0.00000000E+00
  0.00000000E+00  0.00000000E+00  0.00000000E+00
  0.00000000E+00  0.00000000E+00  0.00000000E+00
  0.00000000E+00  0.00000000E+00  0.00000000E+00
  0.00000000E+00  0.00000000E+00  0.00000000E+00
  0.00000000E+00  0.00000000E+00  0.00000000E+00
  0.00000000E+00  0.00000000E+00  0.00000000E+00
  0.00000000E+00  0.00000000E+00  0.00000000E+00
  0.00000000E+00  0.00000000E+00  0.00000000E+00
  0.00000000E+00  0.00000000E+00  0.00000000E+00
  0.00000000E+00  0.00000000E+00  0.00000000E+00
  0.00000000E+00  0.00000000E+00  0.00000000E+00
  0.00000000E+00  0.00000000E+00  0.00000000E+00
  0.00000000E+00  0.00000000E+00  0.00000000E+00
  0.00000000E+00  0.00000000E+00  0.00000000E+00
  0.00000000E+00  0.00000000E+00  0.00000000E+00
  0.00000000E+00  0.00000000E+00  0.00000000E+00
  0.00000000E+00  0.00000000E+00  0.00000000E+00
  0.00000000E+00  0.00000000E+00  0.00000000E+00
  0.00000000E+00  0.00000000E+00  0.00000000E+00
  0.00000000E+00  0.00000000E+00  0.00000000E+00
  0.00000000E+00  0.00000000E+00  0.00000000E+00
  0.00000000E+00  0.00000000E+00  0.00000000E+00
  0.00000000E+00  0.00000000E+00  0.00000000E+00
  0.00000000E+00  0.00000000E+00  0.00000000E+00
  0.00000000E+00  0.00000000E+00  0.00000000E+00
  0.00000000E+00  0.00000000E+00  0.00000000E+00
  0.00000000E+00  0.00000000E+00  0.00000000E+00
  0.00000000E+00  0.00000000E+00  0.00000000E+00
  0.00000000E+00  0.00000000E+00  0.00000000E+00
  0.00000000E+00  0.00000000E+00  0.00000000E+00
