Ag  C Br                                
    1.000000000000000     
    11.7702790000000004    0.0000000000000000    0.0000000000000000
     0.0000000000000000   16.6456881000000010    0.0000000000000000
     0.0000000000000000    0.0000000000000000   22.4138546100000013
   Ag   C    Br
    64     6     6
Selective dynamics
Direct
  0.0000000000000000  0.2500000003003748  0.3346144663869595   F   F   F
  0.7499999974512050  0.7500000015018884  0.3346144663869595   F   F   F
  0.0000000000000000  0.5000000012015136  0.3346144663869595   F   F   F
  0.0000000000000000  0.7500000015018884  0.3346144663869595   F   F   F
  0.0000000000000000  0.0000000000000000  0.3346144663869595   F   F   F
  0.2499999991504041  0.2500000003003748  0.3346144663869595   F   F   F
  0.2499999991504041  0.5000000012015136  0.3346144663869595   F   F   F
  0.7499999974512050  0.0000000000000000  0.3346144663869595   F   F   F
  0.2499999991504041  0.7500000015018884  0.3346144663869595   F   F   F
  0.2499999991504041  0.0000000000000000  0.3346144663869595   F   F   F
  0.4999999983008081  0.2500000003003748  0.3346144663869595   F   F   F
  0.4999999983008081  0.5000000012015136  0.3346144663869595   F   F   F
  0.4999999983008081  0.7500000015018884  0.3346144663869595   F   F   F
  0.4999999983008081  0.0000000000000000  0.3346144663869595   F   F   F
  0.7499999974512050  0.2500000003003748  0.3346144663869595   F   F   F
  0.7499999974512050  0.5000000012015136  0.3346144663869595   F   F   F
  0.0001288436701431  0.2500125713817516  0.4628354643102461   T   T   T
  0.0000224154200081  0.4999769709727256  0.4624452989383111   T   T   T
 -0.0000867643195312  0.7499527167057223  0.4628326868810711   T   T   T
  0.0000188845421835 -0.0000168184017183  0.4626258882792825   T   T   T
  0.2491574460595541  0.2497608101349010  0.4621603478859197   T   T   T
  0.2503437672954151  0.5000515608487781  0.4617162454478131   T   T   T
  0.2491048971974907  0.7501671107654263  0.4621559921905397   T   T   T
  0.2499397881684332 -0.0000737031252329  0.4626696337054857   T   T   T
  0.4999802553534803  0.2493007503391841  0.4617891529383965   T   T   T
  0.5000263984207141  0.4999917250815805  0.4628699256792354   T   T   T
  0.5000463630747257  0.7506543820766761  0.4617755091512171   T   T   T
  0.5000211316705457 -0.0000297720944156  0.4627471661209451   T   T   T
  0.7509164460809822  0.2497877858289053  0.4621670935726390   T   T   T
  0.7496925131989931  0.4999102160368408  0.4617065267597407   T   T   T
  0.7509365073936939  0.7502104012106700  0.4621492694196495   T   T   T
  0.7501089007119278  0.0000194926495287  0.4626700196218507   T   T   T
  0.1248689288719067  0.1249101550767433  0.5213787506729435   T   T   T
  0.1244628775628112  0.3756548674148192  0.5215343150334540   T   T   T
  0.1238905217720804  0.6248054202060087  0.5213790576682414   T   T   T
  0.1248693539888397  0.8749887558751501  0.5213854002973169   T   T   T
  0.3747136449872285  0.1250075850704031  0.5212461439018492   T   T   T
  0.3746710150012840  0.3740179995804491  0.5203182907529526   T   T   T
  0.3747609523020655  0.6260156155704701  0.5203682155335216   T   T   T
  0.3747345777332751  0.8748381038184546  0.5213178314017138   T   T   T
  0.6253205401283517  0.1250794610779853  0.5213138690919246   T   T   T
  0.6252370993899427  0.3739179782014652  0.5204052274562947   T   T   T
  0.6254503924087575  0.6259715152500497  0.5203264179399141   T   T   T
  0.6253518662840361  0.8749029599665946  0.5212529702544350   T   T   T
  0.8752218058204850  0.1249515993750630  0.5213887885794012   T   T   T
  0.8761347997088492  0.3751557094413039  0.5214031531121976   T   T   T
  0.8756451827138249  0.6242973050067187  0.5215405180723471   T   T   T
  0.8752174943140510  0.8750349812924952  0.5213855821804398   T   T   T
  0.1249999995752020  0.1250000004505694  0.4002562266107219   F   F   F
  0.1249999995752020  0.3750000007509442  0.4002562266107219   F   F   F
  0.1249999995752020  0.6250000016520829  0.4002562266107219   F   F   F
  0.1249999995752020  0.8750000019524578  0.4002562266107219   F   F   F
  0.3749999987256061  0.1250000004505694  0.4002562266107219   F   F   F
  0.3749999987256061  0.3750000007509442  0.4002562266107219   F   F   F
  0.3749999987256061  0.6250000016520829  0.4002562266107219   F   F   F
  0.3749999987256061  0.8750000019524578  0.4002562266107219   F   F   F
  0.6249999978760030  0.1250000004505694  0.4002562266107219   F   F   F
  0.6249999978760030  0.3750000007509442  0.4002562266107219   F   F   F
  0.6249999978760030  0.6250000016520829  0.4002562266107219   F   F   F
  0.6249999978760030  0.8750000019524578  0.4002562266107219   F   F   F
  0.8749999970264071  0.1250000004505694  0.4002562266107219   F   F   F
  0.8749999970264071  0.3750000007509442  0.4002562266107219   F   F   F
  0.8749999970264071  0.6250000016520829  0.4002562266107219   F   F   F
  0.8749999970264071  0.8750000019524578  0.4002562266107219   F   F   F
  0.6180510095861650  0.4919399885105593  0.6499111738396938   T   T   T
  0.5490765960533206  0.4238725940493817  0.6516078146500653   T   T   T
  0.4311822291907194  0.4321134366269735  0.6513749662026367   T   T   T
  0.3816113759676830  0.5080155754795601  0.6499948383531065   T   T   T
  0.4506221951933587  0.5760722293284248  0.6514982319332854   T   T   T
  0.5684208830647113  0.5678310283343883  0.6512754065460095   T   T   T
  0.7804908506887482  0.4813511137123410  0.6332506100017945   T   T   T
  0.6178746683409584  0.3175197681008782  0.6515649179047321   T   T   T
  0.3345760774665457  0.3366500415296476  0.6490687160787957   T   T   T
  0.2186050412552031  0.5187739152259242  0.6335321421529878   T   T   T
  0.3817264379373760  0.6826547761965371  0.6508757293370804   T   T   T
  0.6648145637729542  0.6632788680446419  0.6489257463651027   T   T   T
 
  0.00000000E+00  0.00000000E+00  0.00000000E+00
  0.00000000E+00  0.00000000E+00  0.00000000E+00
  0.00000000E+00  0.00000000E+00  0.00000000E+00
  0.00000000E+00  0.00000000E+00  0.00000000E+00
  0.00000000E+00  0.00000000E+00  0.00000000E+00
  0.00000000E+00  0.00000000E+00  0.00000000E+00
  0.00000000E+00  0.00000000E+00  0.00000000E+00
  0.00000000E+00  0.00000000E+00  0.00000000E+00
  0.00000000E+00  0.00000000E+00  0.00000000E+00
  0.00000000E+00  0.00000000E+00  0.00000000E+00
  0.00000000E+00  0.00000000E+00  0.00000000E+00
  0.00000000E+00  0.00000000E+00  0.00000000E+00
  0.00000000E+00  0.00000000E+00  0.00000000E+00
  0.00000000E+00  0.00000000E+00  0.00000000E+00
  0.00000000E+00  0.00000000E+00  0.00000000E+00
  0.00000000E+00  0.00000000E+00  0.00000000E+00
  0.00000000E+00  0.00000000E+00  0.00000000E+00
  0.00000000E+00  0.00000000E+00  0.00000000E+00
  0.00000000E+00  0.00000000E+00  0.00000000E+00
  0.00000000E+00  0.00000000E+00  0.00000000E+00
  0.00000000E+00  0.00000000E+00  0.00000000E+00
  0.00000000E+00  0.00000000E+00  0.00000000E+00
  0.00000000E+00  0.00000000E+00  0.00000000E+00
  0.00000000E+00  0.00000000E+00  0.00000000E+00
  0.00000000E+00  0.00000000E+00  0.00000000E+00
  0.00000000E+00  0.00000000E+00  0.00000000E+00
  0.00000000E+00  0.00000000E+00  0.00000000E+00
  0.00000000E+00  0.00000000E+00  0.00000000E+00
  0.00000000E+00  0.00000000E+00  0.00000000E+00
  0.00000000E+00  0.00000000E+00  0.00000000E+00
  0.00000000E+00  0.00000000E+00  0.00000000E+00
  0.00000000E+00  0.00000000E+00  0.00000000E+00
  0.00000000E+00  0.00000000E+00  0.00000000E+00
  0.00000000E+00  0.00000000E+00  0.00000000E+00
  0.00000000E+00  0.00000000E+00  0.00000000E+00
  0.00000000E+00  0.00000000E+00  0.00000000E+00
  0.00000000E+00  0.00000000E+00  0.00000000E+00
  0.00000000E+00  0.00000000E+00  0.00000000E+00
  0.00000000E+00  0.00000000E+00  0.00000000E+00
  0.00000000E+00  0.00000000E+00  0.00000000E+00
  0.00000000E+00  0.00000000E+00  0.00000000E+00
  0.00000000E+00  0.00000000E+00  0.00000000E+00
  0.00000000E+00  0.00000000E+00  0.00000000E+00
  0.00000000E+00  0.00000000E+00  0.00000000E+00
  0.00000000E+00  0.00000000E+00  0.00000000E+00
  0.00000000E+00  0.00000000E+00  0.00000000E+00
  0.00000000E+00  0.00000000E+00  0.00000000E+00
  0.00000000E+00  0.00000000E+00  0.00000000E+00
  0.00000000E+00  0.00000000E+00  0.00000000E+00
  0.00000000E+00  0.00000000E+00  0.00000000E+00
  0.00000000E+00  0.00000000E+00  0.00000000E+00
  0.00000000E+00  0.00000000E+00  0.00000000E+00
  0.00000000E+00  0.00000000E+00  0.00000000E+00
  0.00000000E+00  0.00000000E+00  0.00000000E+00
  0.00000000E+00  0.00000000E+00  0.00000000E+00
  0.00000000E+00  0.00000000E+00  0.00000000E+00
  0.00000000E+00  0.00000000E+00  0.00000000E+00
  0.00000000E+00  0.00000000E+00  0.00000000E+00
  0.00000000E+00  0.00000000E+00  0.00000000E+00
  0.00000000E+00  0.00000000E+00  0.00000000E+00
  0.00000000E+00  0.00000000E+00  0.00000000E+00
  0.00000000E+00  0.00000000E+00  0.00000000E+00
  0.00000000E+00  0.00000000E+00  0.00000000E+00
  0.00000000E+00  0.00000000E+00  0.00000000E+00
  0.00000000E+00  0.00000000E+00  0.00000000E+00
  0.00000000E+00  0.00000000E+00  0.00000000E+00
  0.00000000E+00  0.00000000E+00  0.00000000E+00
  0.00000000E+00  0.00000000E+00  0.00000000E+00
  0.00000000E+00  0.00000000E+00  0.00000000E+00
  0.00000000E+00  0.00000000E+00  0.00000000E+00
  0.00000000E+00  0.00000000E+00  0.00000000E+00
  0.00000000E+00  0.00000000E+00  0.00000000E+00
  0.00000000E+00  0.00000000E+00  0.00000000E+00
  0.00000000E+00  0.00000000E+00  0.00000000E+00
  0.00000000E+00  0.00000000E+00  0.00000000E+00
  0.00000000E+00  0.00000000E+00  0.00000000E+00
