Cu48 C4 N2 F4                           
    1.000000000000000     
    10.2424769999999992    0.0000000000000000    0.0000000000000000
    -5.1212390000000001    8.8702459999999999    0.0000000000000000
     0.0000000000000000    0.0000000000000000   17.1814740000000015
   Cu   C    N    F 
    48     4     2     4
Selective dynamics
Direct
  0.0833330000000032  0.1666669999999968  0.3492129999999989   F   F   F
  0.0833330000000032  0.4166669999999968  0.3492129999999989   F   F   F
  0.0833330000000032  0.6666669999999968  0.3492129999999989   F   F   F
  0.0833330000000032  0.9166669999999968  0.3492129999999989   F   F   F
  0.3333330000000032  0.1666669999999968  0.3492129999999989   F   F   F
  0.3333330000000032  0.4166669999999968  0.3492129999999989   F   F   F
  0.3333330000000032  0.6666669999999968  0.3492129999999989   F   F   F
  0.3333330000000032  0.9166669999999968  0.3492129999999989   F   F   F
  0.5833330000000032  0.1666669999999968  0.3492129999999989   F   F   F
  0.5833330000000032  0.4166669999999968  0.3492129999999989   F   F   F
  0.5833330000000032  0.6666669999999968  0.3492129999999989   F   F   F
  0.5833330000000032  0.9166669999999968  0.3492129999999989   F   F   F
  0.8333330000000032  0.1666669999999968  0.3492129999999989   F   F   F
  0.8333330000000032  0.4166669999999968  0.3492129999999989   F   F   F
  0.8333330000000032  0.6666669999999968  0.3492129999999989   F   F   F
  0.8333330000000032  0.9166669999999968  0.3492129999999989   F   F   F
  0.9999256343544829  0.9999258184282951  0.5884555650739429   T   T   T
  0.9997993987160214  0.2499361466942602  0.5884259286547078   T   T   T
  0.9999864823310887  0.4999661706609615  0.5886280608918497   T   T   T
  0.0000500687602738  0.7499525610547906  0.5885045801527156   T   T   T
  0.2498148699597067  0.9998636249721358  0.5884623907490649   T   T   T
  0.2497539002926743  0.2498274186636209  0.5873724601140040   T   T   T
  0.2500815449313194  0.4999309493293396  0.5888055619787522   T   T   T
  0.2500422783031411  0.7500201713782459  0.5886220011625340   T   T   T
  0.4999794729365519  0.0001228130007149  0.5886488239038883   T   T   T
  0.4997872054129857  0.2502109033833619  0.5888649859857082   T   T   T
  0.5001719886123013  0.5002506254807031  0.5873655468099628   T   T   T
  0.5000622015418941  0.7502011294206241  0.5884121936793179   T   T   T
  0.7499323024966245  0.0000603101015386  0.5885080432469607   T   T   T
  0.7498675409956945  0.2500135546314581  0.5886572291122931   T   T   T
  0.7501340410221289  0.5001887026730998  0.5884597783248466   T   T   T
  0.7500693872139124  0.7500733860398654  0.5884494149190473   T   T   T
  0.1664415179162972  0.0829026984155163  0.4686526191727438   T   T   T
  0.1665758389324026  0.3335825583966496  0.4687115532959751   T   T   T
  0.1666346398007974  0.5833643346854558  0.4690347011445368   T   T   T
  0.1666884293062409  0.8331645630835141  0.4689156148345859   T   T   T
  0.4166792583369698  0.0833418876464620  0.4690472778599712   T   T   T
  0.4169059062572131  0.3331069373321114  0.4685085892399385   T   T   T
  0.4164250757027048  0.5834262266041819  0.4687055931843744   T   T   T
  0.4166895913416084  0.8334888359045891  0.4689226198089074   T   T   T
  0.6666653727559080  0.0833303635907114  0.4689356510960607   T   T   T
  0.6666587486280378  0.3333259310880621  0.4690384149791811   T   T   T
  0.6671054252228785  0.5835625859489966  0.4686277039155158   T   T   T
  0.6666503571012825  0.8333211361208797  0.4688723633282663   T   T   T
  0.9166749188884395  0.0833466232814146  0.4688798384909560   T   T   T
  0.9165107041192115  0.3333161140029617  0.4689223280476824   T   T   T
  0.9168267551144424  0.5833155690904661  0.4688978414867506   T   T   T
  0.9167017589601727  0.8332729146275426  0.4688851005397652   T   T   T
  0.5245947581975443  0.4454820571247637  0.7664556228326376   T   T   T
  0.4455567598579862  0.5245295419503861  0.7664216367705095   T   T   T
  0.2254569102972113  0.3044663102300404  0.7664210005957273   T   T   T
  0.3044837041141975  0.2254292627465020  0.7664549950197284   T   T   T
  0.2967265749234187  0.4533008549893509  0.7669952191964526   T   T   T
  0.4533270260678606  0.2966454257575180  0.7670853598727589   T   T   T
  0.2304562285820211  0.0740054581908751  0.7681694030726831   T   T   T
  0.0740580369352983  0.2304865546943091  0.7680969221050660   T   T   T
  0.6760089350418497  0.5194847991167038  0.7681701013741602   T   T   T
  0.5195841462545232  0.6759584991965681  0.7680971570894783   T   T   T
 
  0.00000000E+00  0.00000000E+00  0.00000000E+00
  0.00000000E+00  0.00000000E+00  0.00000000E+00
  0.00000000E+00  0.00000000E+00  0.00000000E+00
  0.00000000E+00  0.00000000E+00  0.00000000E+00
  0.00000000E+00  0.00000000E+00  0.00000000E+00
  0.00000000E+00  0.00000000E+00  0.00000000E+00
  0.00000000E+00  0.00000000E+00  0.00000000E+00
  0.00000000E+00  0.00000000E+00  0.00000000E+00
  0.00000000E+00  0.00000000E+00  0.00000000E+00
  0.00000000E+00  0.00000000E+00  0.00000000E+00
  0.00000000E+00  0.00000000E+00  0.00000000E+00
  0.00000000E+00  0.00000000E+00  0.00000000E+00
  0.00000000E+00  0.00000000E+00  0.00000000E+00
  0.00000000E+00  0.00000000E+00  0.00000000E+00
  0.00000000E+00  0.00000000E+00  0.00000000E+00
  0.00000000E+00  0.00000000E+00  0.00000000E+00
  0.00000000E+00  0.00000000E+00  0.00000000E+00
  0.00000000E+00  0.00000000E+00  0.00000000E+00
  0.00000000E+00  0.00000000E+00  0.00000000E+00
  0.00000000E+00  0.00000000E+00  0.00000000E+00
  0.00000000E+00  0.00000000E+00  0.00000000E+00
  0.00000000E+00  0.00000000E+00  0.00000000E+00
  0.00000000E+00  0.00000000E+00  0.00000000E+00
  0.00000000E+00  0.00000000E+00  0.00000000E+00
  0.00000000E+00  0.00000000E+00  0.00000000E+00
  0.00000000E+00  0.00000000E+00  0.00000000E+00
  0.00000000E+00  0.00000000E+00  0.00000000E+00
  0.00000000E+00  0.00000000E+00  0.00000000E+00
  0.00000000E+00  0.00000000E+00  0.00000000E+00
  0.00000000E+00  0.00000000E+00  0.00000000E+00
  0.00000000E+00  0.00000000E+00  0.00000000E+00
  0.00000000E+00  0.00000000E+00  0.00000000E+00
  0.00000000E+00  0.00000000E+00  0.00000000E+00
  0.00000000E+00  0.00000000E+00  0.00000000E+00
  0.00000000E+00  0.00000000E+00  0.00000000E+00
  0.00000000E+00  0.00000000E+00  0.00000000E+00
  0.00000000E+00  0.00000000E+00  0.00000000E+00
  0.00000000E+00  0.00000000E+00  0.00000000E+00
  0.00000000E+00  0.00000000E+00  0.00000000E+00
  0.00000000E+00  0.00000000E+00  0.00000000E+00
  0.00000000E+00  0.00000000E+00  0.00000000E+00
  0.00000000E+00  0.00000000E+00  0.00000000E+00
  0.00000000E+00  0.00000000E+00  0.00000000E+00
  0.00000000E+00  0.00000000E+00  0.00000000E+00
  0.00000000E+00  0.00000000E+00  0.00000000E+00
  0.00000000E+00  0.00000000E+00  0.00000000E+00
  0.00000000E+00  0.00000000E+00  0.00000000E+00
  0.00000000E+00  0.00000000E+00  0.00000000E+00
  0.00000000E+00  0.00000000E+00  0.00000000E+00
  0.00000000E+00  0.00000000E+00  0.00000000E+00
  0.00000000E+00  0.00000000E+00  0.00000000E+00
  0.00000000E+00  0.00000000E+00  0.00000000E+00
  0.00000000E+00  0.00000000E+00  0.00000000E+00
  0.00000000E+00  0.00000000E+00  0.00000000E+00
  0.00000000E+00  0.00000000E+00  0.00000000E+00
  0.00000000E+00  0.00000000E+00  0.00000000E+00
  0.00000000E+00  0.00000000E+00  0.00000000E+00
  0.00000000E+00  0.00000000E+00  0.00000000E+00
