Pd  C  F                                
    1.000000000000000     
    11.1817229999999999    0.0000000000000000    0.0000000000000000
     0.0000000000000000   15.8133443000000007    0.0000000000000000
     0.0000000000000000    0.0000000000000000   22.1931461100000007
   Pd   C    F 
    64     6     6
Selective dynamics
Direct
  0.2499999991056825  0.0000000000000000  0.3379421720033022   F   F   F
  0.9999999964227371  0.4999999987352481  0.3379421720033022   F   F   F
  0.2499999991056825  0.2499999996838085  0.3379421720033022   F   F   F
  0.2499999991056825  0.4999999987352481  0.3379421720033022   F   F   F
  0.2499999991056825  0.7499999984190566  0.3379421720033022   F   F   F
  0.4999999982113650  0.0000000000000000  0.3379421720033022   F   F   F
  0.4999999982113650  0.2499999996838085  0.3379421720033022   F   F   F
  0.9999999964227371  0.7499999984190566  0.3379421720033022   F   F   F
  0.4999999982113650  0.4999999987352481  0.3379421720033022   F   F   F
  0.4999999982113650  0.7499999984190566  0.3379421720033022   F   F   F
  0.7499999973170475  0.0000000000000000  0.3379421720033022   F   F   F
  0.7499999973170475  0.2499999996838085  0.3379421720033022   F   F   F
  0.7499999973170475  0.4999999987352481  0.3379421720033022   F   F   F
  0.7499999973170475  0.7499999984190566  0.3379421720033022   F   F   F
  0.0000000000000000  0.0000000000000000  0.3379421720033022   F   F   F
  0.9999999964227371  0.2499999996838085  0.3379421720033022   F   F   F
  0.2499594628563575  0.9999864081294373  0.4652164952208531   T   T   T
  0.2498294204532382  0.2498689716163845  0.4652016606299716   T   T   T
  0.2497804487706062  0.5000950888554723  0.4651821994539097   T   T   T
  0.2498171281993736  0.7501180849665009  0.4652070897884806   T   T   T
  0.4999999982113650  0.0000000000000000  0.4652741335074569   T   T   T
  0.5000181056894543  0.2495538290552120  0.4651453047615255   T   T   T
  0.4999999982113650  0.4999999987352481  0.4651444505536587   T   T   T
  0.4999818907332759  0.7504461690476530  0.4651453047615255   T   T   T
  0.7500405335663726  0.0000135918705627  0.4652164952208531   T   T   T
  0.7501828682233564  0.2498819131363644  0.4652070897884806   T   T   T
  0.7502195476521236  0.4999049086150241  0.4651821994539097   T   T   T
  0.7501705759694919  0.7501310264864807  0.4652016606299716   T   T   T
  0.0000000000000000  0.0000000000000000  0.4652396767393611   T   T   T
  0.0000096002864770  0.2501245775951760  0.4652577037056076   T   T   T
  0.9999999964227371  0.4999999987352481  0.4652436140464033   T   T   T
 -0.0000096074410029  0.7498754205076889  0.4652577037056076   T   T   T
  0.1249926000477951  0.1250593906105940  0.5240187084395075   T   T   T
  0.1249831750916536  0.3751230378936291  0.5240912984110708   T   T   T
  0.1250432463791648  0.6249331594741200  0.5241898422184450   T   T   T
  0.1249486343318993  0.8749278105040192  0.5240158801852459   T   T   T
  0.3749791134324187  0.1249795511413112  0.5240782414876363   T   T   T
  0.3749840304664050  0.3751628679656112  0.5231202028289207   T   T   T
  0.3749389374018584  0.6249147553749579  0.5232429662933398   T   T   T
  0.3749554611573429  0.8750184229452811  0.5240869765514755   T   T   T
  0.6250445352653871  0.1249815745252153  0.5240869765514755   T   T   T
  0.6250610590208643  0.3750852420955316  0.5232429662933398   T   T   T
  0.6250159659563248  0.6248371295048781  0.5231202028289207   T   T   T
  0.6250208829903113  0.8750204463291850  0.5240782414876363   T   T   T
  0.8750513620908305  0.1250721869664773  0.5240158801852459   T   T   T
  0.8749567500435652  0.3750668379963694  0.5241898422184450   T   T   T
  0.8750168213310764  0.6248769595768602  0.5240912984110708   T   T   T
  0.8750073963749350  0.8749406068599020  0.5240187084395075   T   T   T
  0.1249999995528412  0.1249999995257198  0.4009217677339905   F   F   F
  0.1249999995528412  0.3749999992095283  0.4009217677339905   F   F   F
  0.1249999995528412  0.6249999982609609  0.4009217677339905   F   F   F
  0.1249999995528412  0.8749999979447765  0.4009217677339905   F   F   F
  0.3749999986585237  0.1249999995257198  0.4009217677339905   F   F   F
  0.3749999986585237  0.3749999992095283  0.4009217677339905   F   F   F
  0.3749999986585237  0.6249999982609609  0.4009217677339905   F   F   F
  0.3749999986585237  0.8749999979447765  0.4009217677339905   F   F   F
  0.6249999977642062  0.1249999995257198  0.4009217677339905   F   F   F
  0.6249999977642062  0.3749999992095283  0.4009217677339905   F   F   F
  0.6249999977642062  0.6249999982609609  0.4009217677339905   F   F   F
  0.6249999977642062  0.8749999979447765  0.4009217677339905   F   F   F
  0.8749999968698887  0.1249999995257198  0.4009217677339905   F   F   F
  0.8749999968698887  0.3749999992095283  0.4009217677339905   F   F   F
  0.8749999968698887  0.6249999982609609  0.4009217677339905   F   F   F
  0.8749999968698887  0.8749999979447765  0.4009217677339905   F   F   F
  0.3753489915063358  0.5077766662315084  0.6543952764608997   T   T   T
  0.4471222501088605  0.5801363124738281  0.6546882807351586   T   T   T
  0.5718153264143261  0.5722899461341028  0.6546391294139757   T   T   T
  0.6246509798755324  0.4922233185914338  0.6543952764608997   T   T   T
  0.5528777713547379  0.4198636976442081  0.6546882807351586   T   T   T
  0.4281846700084111  0.4277100513363863  0.6546391294139757   T   T   T
  0.2554093288683357  0.5149651829115260  0.6553879968591495   T   T   T
  0.3964332824176130  0.6574232837872102  0.6585421780224325   T   T   T
  0.6410881252620994  0.6420924963671472  0.6583462199136082   T   T   T
  0.7445906675544016  0.4850348145589632  0.6553879968591495   T   T   T
  0.6035667801845488  0.3425767339193514  0.6585421780224325   T   T   T
  0.3589118970958169  0.3579075137508890  0.6583462199136082   T   T   T
 
  0.00000000E+00  0.00000000E+00  0.00000000E+00
  0.00000000E+00  0.00000000E+00  0.00000000E+00
  0.00000000E+00  0.00000000E+00  0.00000000E+00
  0.00000000E+00  0.00000000E+00  0.00000000E+00
  0.00000000E+00  0.00000000E+00  0.00000000E+00
  0.00000000E+00  0.00000000E+00  0.00000000E+00
  0.00000000E+00  0.00000000E+00  0.00000000E+00
  0.00000000E+00  0.00000000E+00  0.00000000E+00
  0.00000000E+00  0.00000000E+00  0.00000000E+00
  0.00000000E+00  0.00000000E+00  0.00000000E+00
  0.00000000E+00  0.00000000E+00  0.00000000E+00
  0.00000000E+00  0.00000000E+00  0.00000000E+00
  0.00000000E+00  0.00000000E+00  0.00000000E+00
  0.00000000E+00  0.00000000E+00  0.00000000E+00
  0.00000000E+00  0.00000000E+00  0.00000000E+00
  0.00000000E+00  0.00000000E+00  0.00000000E+00
  0.00000000E+00  0.00000000E+00  0.00000000E+00
  0.00000000E+00  0.00000000E+00  0.00000000E+00
  0.00000000E+00  0.00000000E+00  0.00000000E+00
  0.00000000E+00  0.00000000E+00  0.00000000E+00
  0.00000000E+00  0.00000000E+00  0.00000000E+00
  0.00000000E+00  0.00000000E+00  0.00000000E+00
  0.00000000E+00  0.00000000E+00  0.00000000E+00
  0.00000000E+00  0.00000000E+00  0.00000000E+00
  0.00000000E+00  0.00000000E+00  0.00000000E+00
  0.00000000E+00  0.00000000E+00  0.00000000E+00
  0.00000000E+00  0.00000000E+00  0.00000000E+00
  0.00000000E+00  0.00000000E+00  0.00000000E+00
  0.00000000E+00  0.00000000E+00  0.00000000E+00
  0.00000000E+00  0.00000000E+00  0.00000000E+00
  0.00000000E+00  0.00000000E+00  0.00000000E+00
  0.00000000E+00  0.00000000E+00  0.00000000E+00
  0.00000000E+00  0.00000000E+00  0.00000000E+00
  0.00000000E+00  0.00000000E+00  0.00000000E+00
  0.00000000E+00  0.00000000E+00  0.00000000E+00
  0.00000000E+00  0.00000000E+00  0.00000000E+00
  0.00000000E+00  0.00000000E+00  0.00000000E+00
  0.00000000E+00  0.00000000E+00  0.00000000E+00
  0.00000000E+00  0.00000000E+00  0.00000000E+00
  0.00000000E+00  0.00000000E+00  0.00000000E+00
  0.00000000E+00  0.00000000E+00  0.00000000E+00
  0.00000000E+00  0.00000000E+00  0.00000000E+00
  0.00000000E+00  0.00000000E+00  0.00000000E+00
  0.00000000E+00  0.00000000E+00  0.00000000E+00
  0.00000000E+00  0.00000000E+00  0.00000000E+00
  0.00000000E+00  0.00000000E+00  0.00000000E+00
  0.00000000E+00  0.00000000E+00  0.00000000E+00
  0.00000000E+00  0.00000000E+00  0.00000000E+00
  0.00000000E+00  0.00000000E+00  0.00000000E+00
  0.00000000E+00  0.00000000E+00  0.00000000E+00
  0.00000000E+00  0.00000000E+00  0.00000000E+00
  0.00000000E+00  0.00000000E+00  0.00000000E+00
  0.00000000E+00  0.00000000E+00  0.00000000E+00
  0.00000000E+00  0.00000000E+00  0.00000000E+00
  0.00000000E+00  0.00000000E+00  0.00000000E+00
  0.00000000E+00  0.00000000E+00  0.00000000E+00
  0.00000000E+00  0.00000000E+00  0.00000000E+00
  0.00000000E+00  0.00000000E+00  0.00000000E+00
  0.00000000E+00  0.00000000E+00  0.00000000E+00
  0.00000000E+00  0.00000000E+00  0.00000000E+00
  0.00000000E+00  0.00000000E+00  0.00000000E+00
  0.00000000E+00  0.00000000E+00  0.00000000E+00
  0.00000000E+00  0.00000000E+00  0.00000000E+00
  0.00000000E+00  0.00000000E+00  0.00000000E+00
  0.00000000E+00  0.00000000E+00  0.00000000E+00
  0.00000000E+00  0.00000000E+00  0.00000000E+00
  0.00000000E+00  0.00000000E+00  0.00000000E+00
  0.00000000E+00  0.00000000E+00  0.00000000E+00
  0.00000000E+00  0.00000000E+00  0.00000000E+00
  0.00000000E+00  0.00000000E+00  0.00000000E+00
  0.00000000E+00  0.00000000E+00  0.00000000E+00
  0.00000000E+00  0.00000000E+00  0.00000000E+00
  0.00000000E+00  0.00000000E+00  0.00000000E+00
  0.00000000E+00  0.00000000E+00  0.00000000E+00
  0.00000000E+00  0.00000000E+00  0.00000000E+00
  0.00000000E+00  0.00000000E+00  0.00000000E+00
