H4 Ir48 C6 F2                           
    1.000000000000000     
    10.9622130000000002    0.0000000000000000    0.0000000000000000
    -5.4811069999999997    9.4935550000000006    0.0000000000000000
     0.0000000000000000    0.0000000000000000   17.4826590000000017
   H    Ir   C    F 
     4    48     6     2
Selective dynamics
Direct
  0.5037560892590065  0.6399312863048010  0.7698159305506493   T   T   T
  0.6369610003942299  0.5067040789032973  0.7697543789073862   T   T   T
  0.2435553774206127  0.1133786824104277  0.7697624610601466   T   T   T
  0.1104557091992930  0.2466668763624185  0.7698227661218766   T   T   T
  0.0833330000000032  0.1666669999999968  0.3431970000000035   F   F   F
  0.0833330000000032  0.4166669999999968  0.3431970000000035   F   F   F
  0.0833330000000032  0.6666669999999968  0.3431970000000035   F   F   F
  0.0833330000000032  0.9166669999999968  0.3431970000000035   F   F   F
  0.3333330000000032  0.1666669999999968  0.3431970000000035   F   F   F
  0.3333330000000032  0.4166669999999968  0.3431970000000035   F   F   F
  0.3333330000000032  0.6666669999999968  0.3431970000000035   F   F   F
  0.3333330000000032  0.9166669999999968  0.3431970000000035   F   F   F
  0.5833330000000032  0.1666669999999968  0.3431970000000035   F   F   F
  0.5833330000000032  0.4166669999999968  0.3431970000000035   F   F   F
  0.5833330000000032  0.6666669999999968  0.3431970000000035   F   F   F
  0.5833330000000032  0.9166669999999968  0.3431970000000035   F   F   F
  0.8333330000000032  0.1666669999999968  0.3431970000000035   F   F   F
  0.8333330000000032  0.4166669999999968  0.3431970000000035   F   F   F
  0.8333330000000032  0.6666669999999968  0.3431970000000035   F   F   F
  0.8333330000000032  0.9166669999999968  0.3431970000000035   F   F   F
  0.9996579352908910  0.9998389187695267  0.5913746515373930   T   T   T
  0.9992081629074434  0.2497015573989501  0.5912236292492778   T   T   T
  0.9998864579100299  0.5000332081830550  0.5912181130524630   T   T   T
  0.0000181511704298  0.7500404978892732  0.5913752579144216   T   T   T
  0.2499375434390387  0.9994219102332025  0.5911596193750768   T   T   T
  0.2492681216955859  0.2492084344501961  0.5919822593325321   T   T   T
  0.2494474915609217  0.5006027188605486  0.5904932391235036   T   T   T
  0.2500221756749568  0.7501694848214342  0.5912196757046289   T   T   T
  0.4999611568771911  0.9999442484050292  0.5912994478401075   T   T   T
  0.5006239215667634  0.2494280647181739  0.5906614953746683   T   T   T
  0.5008543303497817  0.5007942660186941  0.5919797772415052   T   T   T
  0.5003578058236542  0.7508555677033470  0.5912232719962631   T   T   T
  0.7500601718617617  0.0000029509118988  0.5914805077982805   T   T   T
  0.7501177483297070  0.2500994573582034  0.5913004839586051   T   T   T
  0.7506410785554110  0.5001222546685895  0.5911604439501090   T   T   T
  0.7502253204705696  0.7504052332412812  0.5913769365945711   T   T   T
  0.1666246241693088  0.0832904603234326  0.4672237961503782   T   T   T
  0.1667975677367650  0.3331253703724073  0.4672807856252064   T   T   T
  0.1665505757809171  0.5834834905364161  0.4669920240042700   T   T   T
  0.1664694064504602  0.8332766931635476  0.4670715226643836   T   T   T
  0.4165343195909017  0.0832232342649135  0.4669641962261011   T   T   T
  0.4164999439872616  0.3335355589201967  0.4677243322550879   T   T   T
  0.4169103054201884  0.5832394808431474  0.4672793571539202   T   T   T
  0.4166408267648052  0.8333255385234395  0.4671237020694647   T   T   T
  0.6667042520569026  0.0833369341632846  0.4673015111475749   T   T   T
  0.6668163464006724  0.3335040264412541  0.4669662518942843   T   T   T
  0.6667519063635297  0.5834135999438246  0.4672208508006008   T   T   T
  0.6667742023567840  0.8333647651988301  0.4671916323618461   T   T   T
  0.9166801650201251  0.0832675563531069  0.4671950027398708   T   T   T
  0.9167160482379231  0.3333984466417945  0.4671270964622494   T   T   T
  0.9167642697756051  0.5835689995412352  0.4670742486494461   T   T   T
  0.9167357429404461  0.8333103279045631  0.4670827010127923   T   T   T
  0.3014261793681072  0.4488101546048284  0.7753126595162669   T   T   T
  0.4480268813703105  0.5250122792918503  0.7726722233190202   T   T   T
  0.5219623883461608  0.4510908270746015  0.7725675171057489   T   T   T
  0.4457482073805039  0.3044427873284405  0.7751930643348857   T   T   T
  0.2991891033666434  0.2283489002725361  0.7725751582058749   T   T   T
  0.2253379056150990  0.3023001511627257  0.7726796141302046   T   T   T
  0.2295404096976270  0.5205660431085377  0.7772820179798714   T   T   T
  0.5175232345569825  0.2326584018790001  0.7771125654095741   T   T   T
 
  0.00000000E+00  0.00000000E+00  0.00000000E+00
  0.00000000E+00  0.00000000E+00  0.00000000E+00
  0.00000000E+00  0.00000000E+00  0.00000000E+00
  0.00000000E+00  0.00000000E+00  0.00000000E+00
  0.00000000E+00  0.00000000E+00  0.00000000E+00
  0.00000000E+00  0.00000000E+00  0.00000000E+00
  0.00000000E+00  0.00000000E+00  0.00000000E+00
  0.00000000E+00  0.00000000E+00  0.00000000E+00
  0.00000000E+00  0.00000000E+00  0.00000000E+00
  0.00000000E+00  0.00000000E+00  0.00000000E+00
  0.00000000E+00  0.00000000E+00  0.00000000E+00
  0.00000000E+00  0.00000000E+00  0.00000000E+00
  0.00000000E+00  0.00000000E+00  0.00000000E+00
  0.00000000E+00  0.00000000E+00  0.00000000E+00
  0.00000000E+00  0.00000000E+00  0.00000000E+00
  0.00000000E+00  0.00000000E+00  0.00000000E+00
  0.00000000E+00  0.00000000E+00  0.00000000E+00
  0.00000000E+00  0.00000000E+00  0.00000000E+00
  0.00000000E+00  0.00000000E+00  0.00000000E+00
  0.00000000E+00  0.00000000E+00  0.00000000E+00
  0.00000000E+00  0.00000000E+00  0.00000000E+00
  0.00000000E+00  0.00000000E+00  0.00000000E+00
  0.00000000E+00  0.00000000E+00  0.00000000E+00
  0.00000000E+00  0.00000000E+00  0.00000000E+00
  0.00000000E+00  0.00000000E+00  0.00000000E+00
  0.00000000E+00  0.00000000E+00  0.00000000E+00
  0.00000000E+00  0.00000000E+00  0.00000000E+00
  0.00000000E+00  0.00000000E+00  0.00000000E+00
  0.00000000E+00  0.00000000E+00  0.00000000E+00
  0.00000000E+00  0.00000000E+00  0.00000000E+00
  0.00000000E+00  0.00000000E+00  0.00000000E+00
  0.00000000E+00  0.00000000E+00  0.00000000E+00
  0.00000000E+00  0.00000000E+00  0.00000000E+00
  0.00000000E+00  0.00000000E+00  0.00000000E+00
  0.00000000E+00  0.00000000E+00  0.00000000E+00
  0.00000000E+00  0.00000000E+00  0.00000000E+00
  0.00000000E+00  0.00000000E+00  0.00000000E+00
  0.00000000E+00  0.00000000E+00  0.00000000E+00
  0.00000000E+00  0.00000000E+00  0.00000000E+00
  0.00000000E+00  0.00000000E+00  0.00000000E+00
  0.00000000E+00  0.00000000E+00  0.00000000E+00
  0.00000000E+00  0.00000000E+00  0.00000000E+00
  0.00000000E+00  0.00000000E+00  0.00000000E+00
  0.00000000E+00  0.00000000E+00  0.00000000E+00
  0.00000000E+00  0.00000000E+00  0.00000000E+00
  0.00000000E+00  0.00000000E+00  0.00000000E+00
  0.00000000E+00  0.00000000E+00  0.00000000E+00
  0.00000000E+00  0.00000000E+00  0.00000000E+00
  0.00000000E+00  0.00000000E+00  0.00000000E+00
  0.00000000E+00  0.00000000E+00  0.00000000E+00
  0.00000000E+00  0.00000000E+00  0.00000000E+00
  0.00000000E+00  0.00000000E+00  0.00000000E+00
  0.00000000E+00  0.00000000E+00  0.00000000E+00
  0.00000000E+00  0.00000000E+00  0.00000000E+00
  0.00000000E+00  0.00000000E+00  0.00000000E+00
  0.00000000E+00  0.00000000E+00  0.00000000E+00
  0.00000000E+00  0.00000000E+00  0.00000000E+00
  0.00000000E+00  0.00000000E+00  0.00000000E+00
  0.00000000E+00  0.00000000E+00  0.00000000E+00
  0.00000000E+00  0.00000000E+00  0.00000000E+00
