Rh  C  F                                
    1.000000000000000     
    10.8856652999999994    0.0000000000000000    0.0000000000000000
     0.0000000000000000   15.3946555000000007    0.0000000000000000
     0.0000000000000000    0.0000000000000000   22.0821244799999974
   Rh   C    F 
    64     6     6
Selective dynamics
Direct
  0.2500000004593161  0.2500000003247891  0.3396412336499992   F   F   F
  0.0000000018372788  0.7500000016239383  0.3396412336499992   F   F   F
  0.2500000004593161  0.5000000012991492  0.3396412336499992   F   F   F
  0.2500000004593161  0.7500000016239383  0.3396412336499992   F   F   F
  0.2500000004593161  0.0000000019487274  0.3396412336499992   F   F   F
  0.5000000009186394  0.2500000003247891  0.3396412336499992   F   F   F
  0.5000000009186394  0.5000000012991492  0.3396412336499992   F   F   F
  0.0000000018372788  0.0000000019487274  0.3396412336499992   F   F   F
  0.5000000009186394  0.7500000016239383  0.3396412336499992   F   F   F
  0.5000000009186394  0.0000000019487274  0.3396412336499992   F   F   F
  0.7500000013779555  0.2500000003247891  0.3396412336499992   F   F   F
  0.7500000013779555  0.5000000012991492  0.3396412336499992   F   F   F
  0.7500000013779555  0.7500000016239383  0.3396412336499992   F   F   F
  0.7500000013779555  0.0000000019487274  0.3396412336499992   F   F   F
  0.0000000018372788  0.2500000003247891  0.3396412336499992   F   F   F
  0.0000000018372788  0.5000000012991492  0.3396412336499992   F   F   F
  0.2497706386061180  0.2499340821386321  0.4590399495074585   T   T   T
  0.2500669956855076  0.5000479056044219  0.4591169744588726   T   T   T
  0.2498842024933588  0.7500043889714015  0.4590623430956347   T   T   T
  0.2499771270577338  0.0000011489495914  0.4590896218493616   T   T   T
  0.4998838039497783  0.2496777993849475  0.4590036261214892   T   T   T
  0.5000000009186394  0.5000000012991492  0.4590228324102109   T   T   T
  0.5001161978875003  0.7503222025637798  0.4590036261214892   T   T   T
  0.5000000009186394  0.0000000019487274  0.4591232931398549   T   T   T
  0.7501157993439128  0.2499956129773260  0.4590623430956347   T   T   T
  0.7499330061517637  0.4999520969938768  0.4591169744588726   T   T   T
  0.7502293632311536  0.7500659198100954  0.4590399495074585   T   T   T
  0.7500228747795448 -0.0000011450521366  0.4590896218493616   T   T   T
 -0.0000577625795893  0.2500723492897721  0.4591097799007534   T   T   T
  0.0000000018372788  0.5000000012991492  0.4590639523432651   T   T   T
  0.0000577662541468  0.7499276526589552  0.4591097799007534   T   T   T
  0.0000000018372788  0.0000000019487274  0.4590219237910652   T   T   T
  0.1248456484095645  0.1249539389199406  0.5151396859878153   T   T   T
  0.1247552084454072  0.3751090103294274  0.5151282708520808   T   T   T
  0.1252838010788464  0.6248825871199297  0.5152056812680706   T   T   T
  0.1248980056540785  0.8750073880534120  0.5151304825141545   T   T   T
  0.3748082697623776  0.1249961768408242  0.5151182142352640   T   T   T
  0.3742493741485318  0.3745786828412186  0.5150276345052922   T   T   T
  0.3753874457919789  0.6254229714197239  0.5150858955879722   T   T   T
  0.3747558906519737  0.8749577336380261  0.5151157267784214   T   T   T
  0.6252441111853050  0.1250422683107012  0.5151157267784214   T   T   T
  0.6246125569639394  0.3745770305290038  0.5150858955879722   T   T   T
  0.6257506286073863  0.6254213191075086  0.5150276345052922   T   T   T
  0.6251917311562619  0.8750038251079032  0.5151182142352640   T   T   T
  0.8751019961832004  0.1249926138953155  0.5151304825141545   T   T   T
  0.8747162007584325  0.3751174148287978  0.5152056812680706   T   T   T
  0.8752447943105111  0.6248909916193000  0.5151282708520808   T   T   T
  0.8751543525090749  0.8750460630287868  0.5151396859878153   T   T   T
  0.1249999997703384  0.1250000001623945  0.4012615800633341   F   F   F
  0.1249999997703384  0.3750000004871836  0.4012615800633341   F   F   F
  0.1250000006889778  0.6250000014615438  0.4012615800633341   F   F   F
  0.1250000006889778  0.8750000017863329  0.4012615800633341   F   F   F
  0.3750000002296616  0.1250000001623945  0.4012615800633341   F   F   F
  0.3750000002296616  0.3750000004871836  0.4012615800633341   F   F   F
  0.3750000011483010  0.6250000014615438  0.4012615800633341   F   F   F
  0.3750000011483010  0.8750000017863329  0.4012615800633341   F   F   F
  0.6250000006889778  0.1250000001623945  0.4012615800633341   F   F   F
  0.6250000006889778  0.3750000004871836  0.4012615800633341   F   F   F
  0.6250000006889778  0.6250000014615438  0.4012615800633341   F   F   F
  0.6250000006889778  0.8750000017863329  0.4012615800633341   F   F   F
  0.8750000011483010  0.1250000001623945  0.4012615800633341   F   F   F
  0.8750000011483010  0.3750000004871836  0.4012615800633341   F   F   F
  0.8750000020669404  0.6250000014615438  0.4012615800633341   F   F   F
  0.8750000011483010  0.8750000017863329  0.4012615800633341   F   F   F
  0.6281758617723703  0.4917498487694282  0.6466512678403119   T   T   T
  0.5539354712597884  0.4177323696088621  0.6462206300424919   T   T   T
  0.4259945066092300  0.4260553852537028  0.6461855524813862   T   T   T
  0.3718241676240829  0.5082501661708202  0.6466512678403119   T   T   T
  0.4460645048555947  0.5822676193483445  0.6462206300424919   T   T   T
  0.5740054961466881  0.5739446166950317  0.6461855524813862   T   T   T
  0.7512256920152165  0.4838897570662697  0.6482783735617083   T   T   T
  0.6059271013805354  0.3381057564998071  0.6491145776793797   T   T   T
  0.3545061166779166  0.3542538895276356  0.6486022377329054   T   T   T
  0.2487743107407016  0.5161102448824577  0.6482783735617083   T   T   T
  0.3940728333960751  0.6618942240129045  0.6491145776793797   T   T   T
  0.6454938603560988  0.6457460994295712  0.6486022377329054   T   T   T
 
  0.00000000E+00  0.00000000E+00  0.00000000E+00
  0.00000000E+00  0.00000000E+00  0.00000000E+00
  0.00000000E+00  0.00000000E+00  0.00000000E+00
  0.00000000E+00  0.00000000E+00  0.00000000E+00
  0.00000000E+00  0.00000000E+00  0.00000000E+00
  0.00000000E+00  0.00000000E+00  0.00000000E+00
  0.00000000E+00  0.00000000E+00  0.00000000E+00
  0.00000000E+00  0.00000000E+00  0.00000000E+00
  0.00000000E+00  0.00000000E+00  0.00000000E+00
  0.00000000E+00  0.00000000E+00  0.00000000E+00
  0.00000000E+00  0.00000000E+00  0.00000000E+00
  0.00000000E+00  0.00000000E+00  0.00000000E+00
  0.00000000E+00  0.00000000E+00  0.00000000E+00
  0.00000000E+00  0.00000000E+00  0.00000000E+00
  0.00000000E+00  0.00000000E+00  0.00000000E+00
  0.00000000E+00  0.00000000E+00  0.00000000E+00
  0.00000000E+00  0.00000000E+00  0.00000000E+00
  0.00000000E+00  0.00000000E+00  0.00000000E+00
  0.00000000E+00  0.00000000E+00  0.00000000E+00
  0.00000000E+00  0.00000000E+00  0.00000000E+00
  0.00000000E+00  0.00000000E+00  0.00000000E+00
  0.00000000E+00  0.00000000E+00  0.00000000E+00
  0.00000000E+00  0.00000000E+00  0.00000000E+00
  0.00000000E+00  0.00000000E+00  0.00000000E+00
  0.00000000E+00  0.00000000E+00  0.00000000E+00
  0.00000000E+00  0.00000000E+00  0.00000000E+00
  0.00000000E+00  0.00000000E+00  0.00000000E+00
  0.00000000E+00  0.00000000E+00  0.00000000E+00
  0.00000000E+00  0.00000000E+00  0.00000000E+00
  0.00000000E+00  0.00000000E+00  0.00000000E+00
  0.00000000E+00  0.00000000E+00  0.00000000E+00
  0.00000000E+00  0.00000000E+00  0.00000000E+00
  0.00000000E+00  0.00000000E+00  0.00000000E+00
  0.00000000E+00  0.00000000E+00  0.00000000E+00
  0.00000000E+00  0.00000000E+00  0.00000000E+00
  0.00000000E+00  0.00000000E+00  0.00000000E+00
  0.00000000E+00  0.00000000E+00  0.00000000E+00
  0.00000000E+00  0.00000000E+00  0.00000000E+00
  0.00000000E+00  0.00000000E+00  0.00000000E+00
  0.00000000E+00  0.00000000E+00  0.00000000E+00
  0.00000000E+00  0.00000000E+00  0.00000000E+00
  0.00000000E+00  0.00000000E+00  0.00000000E+00
  0.00000000E+00  0.00000000E+00  0.00000000E+00
  0.00000000E+00  0.00000000E+00  0.00000000E+00
  0.00000000E+00  0.00000000E+00  0.00000000E+00
  0.00000000E+00  0.00000000E+00  0.00000000E+00
  0.00000000E+00  0.00000000E+00  0.00000000E+00
  0.00000000E+00  0.00000000E+00  0.00000000E+00
  0.00000000E+00  0.00000000E+00  0.00000000E+00
  0.00000000E+00  0.00000000E+00  0.00000000E+00
  0.00000000E+00  0.00000000E+00  0.00000000E+00
  0.00000000E+00  0.00000000E+00  0.00000000E+00
  0.00000000E+00  0.00000000E+00  0.00000000E+00
  0.00000000E+00  0.00000000E+00  0.00000000E+00
  0.00000000E+00  0.00000000E+00  0.00000000E+00
  0.00000000E+00  0.00000000E+00  0.00000000E+00
  0.00000000E+00  0.00000000E+00  0.00000000E+00
  0.00000000E+00  0.00000000E+00  0.00000000E+00
  0.00000000E+00  0.00000000E+00  0.00000000E+00
  0.00000000E+00  0.00000000E+00  0.00000000E+00
  0.00000000E+00  0.00000000E+00  0.00000000E+00
  0.00000000E+00  0.00000000E+00  0.00000000E+00
  0.00000000E+00  0.00000000E+00  0.00000000E+00
  0.00000000E+00  0.00000000E+00  0.00000000E+00
  0.00000000E+00  0.00000000E+00  0.00000000E+00
  0.00000000E+00  0.00000000E+00  0.00000000E+00
  0.00000000E+00  0.00000000E+00  0.00000000E+00
  0.00000000E+00  0.00000000E+00  0.00000000E+00
  0.00000000E+00  0.00000000E+00  0.00000000E+00
  0.00000000E+00  0.00000000E+00  0.00000000E+00
  0.00000000E+00  0.00000000E+00  0.00000000E+00
  0.00000000E+00  0.00000000E+00  0.00000000E+00
  0.00000000E+00  0.00000000E+00  0.00000000E+00
  0.00000000E+00  0.00000000E+00  0.00000000E+00
  0.00000000E+00  0.00000000E+00  0.00000000E+00
  0.00000000E+00  0.00000000E+00  0.00000000E+00
