Cu48 C4 N2 F4                           
    1.000000000000000     
    10.2424774999999997    0.0000000000000000    0.0000000000000000
     0.0000000000000000   10.2424774999999997    0.0000000000000000
     0.0000000000000000    0.0000000000000000   16.5484553599999984
   Cu   C    N    F 
    48     4     2     4
Selective dynamics
Direct
  0.2499175264655307  0.9999907496518148  0.4092543657638927   T   T   T
  0.2499468939959115  0.2499451790013865  0.4092872320584888   T   T   T
  0.2496989225502517  0.4997394685812537  0.4090921361138200   T   T   T
  0.2498204534932000  0.7501820909321779  0.4090839664511563   T   T   T
  0.4999995313104009  0.0000012177249928  0.4092622603968437   T   T   T
  0.4997424372977619  0.2496984227426395  0.4090888591281256   T   T   T
  0.5000010944391349  0.4999968983665752  0.4089499652185822   T   T   T
  0.5002583010868449  0.7503034219415099  0.4090921387154793   T   T   T
  0.7500830240739162  0.0000112268342320  0.4092536353030312   T   T   T
  0.7501789595279718  0.2498211656471270  0.4090804805086066   T   T   T
  0.7503016481036440  0.5002555262767956  0.4090911119847007   T   T   T
  0.7500546933674386  0.7500544309471309  0.4092891018275537   T   T   T
  0.0000001748069565  0.0000006838977384  0.4092942753042905   T   T   T
  0.9999892983123999  0.2499167718139077  0.4092539658112813   T   T   T
  0.9999983698789023  0.4999983711065568  0.4092643257755881   T   T   T
  0.0000092761618049  0.7500842343598890  0.4092561335660605   T   T   T
  0.1249666159498375  0.1249668510704183  0.5164331492173417   T   T   T
  0.1248113686460854  0.3749271955376301  0.5163087939978581   T   T   T
  0.1251754264176270  0.6250387783422653  0.5163363545875583   T   T   T
  0.1250327855466438  0.8749658423937774  0.5164901817462422   T   T   T
  0.3749257968522244  0.1248115673152341  0.5163082720227976   T   T   T
  0.3749118637299276  0.3749129245368010  0.5163714625931064   T   T   T
  0.3751403087184002  0.6248612839853394  0.5152632940009667   T   T   T
  0.3749604583706656  0.8748238899683685  0.5163372366608243   T   T   T
  0.6250395606513734  0.1251755577158136  0.5163359557194269   T   T   T
  0.6248575748055600  0.3751426874632813  0.5152739307777381   T   T   T
  0.6250883464190409  0.6250874656412293  0.5163708371073881   T   T   T
  0.6250745555329544  0.8751876550856466  0.5163081822180686   T   T   T
  0.8749670217037959  0.1250333903927583  0.5164906750440963   T   T   T
  0.8748248837217218  0.3749618076296102  0.5163359056094947   T   T   T
  0.8751890305912440  0.6250738822948918  0.5163065838864256   T   T   T
  0.8750337982221197  0.8750322357637614  0.5164318339605245   T   T   T
  0.1250000002440785  0.1249999992677573  0.3021430031521675   F   F   F
  0.1250000002440785  0.3749999997559215  0.3021430031521675   F   F   F
  0.1250000002440785  0.6249999982914289  0.3021430031521675   F   F   F
  0.1250000002440785  0.8749999987795931  0.3021430031521675   F   F   F
  0.3749999997559215  0.1249999992677573  0.3021430031521675   F   F   F
  0.3749999997559215  0.3749999997559215  0.3021430031521675   F   F   F
  0.3749999997559215  0.6249999982914289  0.3021430031521675   F   F   F
  0.3749999997559215  0.8749999987795931  0.3021430031521675   F   F   F
  0.6249999982914289  0.1249999992677573  0.3021430031521675   F   F   F
  0.6249999982914289  0.3749999997559215  0.3021430031521675   F   F   F
  0.6249999992677573  0.6249999982914289  0.3021430031521675   F   F   F
  0.6249999992677573  0.8749999987795931  0.3021430031521675   F   F   F
  0.8749999987795931  0.1249999992677573  0.3021430031521675   F   F   F
  0.8749999978032648  0.3749999997559215  0.3021430031521675   F   F   F
  0.8749999987795931  0.6249999982914289  0.3021430031521675   F   F   F
  0.8749999987795931  0.8749999987795931  0.3021430031521675   F   F   F
  0.5294326816739385  0.3737331569612365  0.6966524437291710   T   T   T
  0.6262621117792904  0.4705581773649499  0.6966527560965261   T   T   T
  0.4705635915720450  0.6262685044710707  0.6966548990902695   T   T   T
  0.3737427911426963  0.5294523772728539  0.6966560731555376   T   T   T
  0.5956835328836334  0.5956666883173440  0.6973427656935556   T   T   T
  0.4043169651506062  0.4043368980688129  0.6973422335452710   T   T   T
  0.2467061580041019  0.5616683363966573  0.6994647525692557   T   T   T
  0.4383793617656480  0.7533189778480747  0.6994663710140046   T   T   T
  0.5616201022814593  0.2466693895628822  0.6994668521321401   T   T   T
  0.7533107380021988  0.4383354414771574  0.6994648875088387   T   T   T
 
  0.00000000E+00  0.00000000E+00  0.00000000E+00
  0.00000000E+00  0.00000000E+00  0.00000000E+00
  0.00000000E+00  0.00000000E+00  0.00000000E+00
  0.00000000E+00  0.00000000E+00  0.00000000E+00
  0.00000000E+00  0.00000000E+00  0.00000000E+00
  0.00000000E+00  0.00000000E+00  0.00000000E+00
  0.00000000E+00  0.00000000E+00  0.00000000E+00
  0.00000000E+00  0.00000000E+00  0.00000000E+00
  0.00000000E+00  0.00000000E+00  0.00000000E+00
  0.00000000E+00  0.00000000E+00  0.00000000E+00
  0.00000000E+00  0.00000000E+00  0.00000000E+00
  0.00000000E+00  0.00000000E+00  0.00000000E+00
  0.00000000E+00  0.00000000E+00  0.00000000E+00
  0.00000000E+00  0.00000000E+00  0.00000000E+00
  0.00000000E+00  0.00000000E+00  0.00000000E+00
  0.00000000E+00  0.00000000E+00  0.00000000E+00
  0.00000000E+00  0.00000000E+00  0.00000000E+00
  0.00000000E+00  0.00000000E+00  0.00000000E+00
  0.00000000E+00  0.00000000E+00  0.00000000E+00
  0.00000000E+00  0.00000000E+00  0.00000000E+00
  0.00000000E+00  0.00000000E+00  0.00000000E+00
  0.00000000E+00  0.00000000E+00  0.00000000E+00
  0.00000000E+00  0.00000000E+00  0.00000000E+00
  0.00000000E+00  0.00000000E+00  0.00000000E+00
  0.00000000E+00  0.00000000E+00  0.00000000E+00
  0.00000000E+00  0.00000000E+00  0.00000000E+00
  0.00000000E+00  0.00000000E+00  0.00000000E+00
  0.00000000E+00  0.00000000E+00  0.00000000E+00
  0.00000000E+00  0.00000000E+00  0.00000000E+00
  0.00000000E+00  0.00000000E+00  0.00000000E+00
  0.00000000E+00  0.00000000E+00  0.00000000E+00
  0.00000000E+00  0.00000000E+00  0.00000000E+00
  0.00000000E+00  0.00000000E+00  0.00000000E+00
  0.00000000E+00  0.00000000E+00  0.00000000E+00
  0.00000000E+00  0.00000000E+00  0.00000000E+00
  0.00000000E+00  0.00000000E+00  0.00000000E+00
  0.00000000E+00  0.00000000E+00  0.00000000E+00
  0.00000000E+00  0.00000000E+00  0.00000000E+00
  0.00000000E+00  0.00000000E+00  0.00000000E+00
  0.00000000E+00  0.00000000E+00  0.00000000E+00
  0.00000000E+00  0.00000000E+00  0.00000000E+00
  0.00000000E+00  0.00000000E+00  0.00000000E+00
  0.00000000E+00  0.00000000E+00  0.00000000E+00
  0.00000000E+00  0.00000000E+00  0.00000000E+00
  0.00000000E+00  0.00000000E+00  0.00000000E+00
  0.00000000E+00  0.00000000E+00  0.00000000E+00
  0.00000000E+00  0.00000000E+00  0.00000000E+00
  0.00000000E+00  0.00000000E+00  0.00000000E+00
  0.00000000E+00  0.00000000E+00  0.00000000E+00
  0.00000000E+00  0.00000000E+00  0.00000000E+00
  0.00000000E+00  0.00000000E+00  0.00000000E+00
  0.00000000E+00  0.00000000E+00  0.00000000E+00
  0.00000000E+00  0.00000000E+00  0.00000000E+00
  0.00000000E+00  0.00000000E+00  0.00000000E+00
  0.00000000E+00  0.00000000E+00  0.00000000E+00
  0.00000000E+00  0.00000000E+00  0.00000000E+00
  0.00000000E+00  0.00000000E+00  0.00000000E+00
  0.00000000E+00  0.00000000E+00  0.00000000E+00
