Rh  C  H  F                             
    1.000000000000000     
    10.8856652999999994    0.0000000000000000    0.0000000000000000
     0.0000000000000000   10.8856652999999994    0.0000000000000000
     0.0000000000000000    0.0000000000000000   23.7729958199999984
   Rh   C    H    F 
    64     6     2     4
Selective dynamics
Direct
  0.0000000000000000  0.0000000000000000  0.3154840078544225   F   F   F
  0.7500000013779555  0.5000000009186394  0.3154840078544225   F   F   F
  0.0000000018372788  0.2500000004593161  0.3154840078544225   F   F   F
  0.0000000018372788  0.5000000009186394  0.3154840078544225   F   F   F
  0.0000000000000000  0.7500000013779555  0.3154840078544225   F   F   F
  0.2500000004593161  0.0000000000000000  0.3154840078544225   F   F   F
  0.2500000004593161  0.2500000004593161  0.3154840078544225   F   F   F
  0.7500000013779555  0.7500000013779555  0.3154840078544225   F   F   F
  0.2500000004593161  0.5000000009186394  0.3154840078544225   F   F   F
  0.2500000004593161  0.7500000013779555  0.3154840078544225   F   F   F
  0.5000000009186394  0.0000000000000000  0.3154840078544225   F   F   F
  0.5000000009186394  0.2500000004593161  0.3154840078544225   F   F   F
  0.5000000009186394  0.5000000009186394  0.3154840078544225   F   F   F
  0.5000000009186394  0.7500000013779555  0.3154840078544225   F   F   F
  0.7500000013779555  0.0000000000000000  0.3154840078544225   F   F   F
  0.7500000013779555  0.2500000004593161  0.3154840078544225   F   F   F
  0.0000119421218165  0.0000230994055249  0.4736554770540869   T   T   T
  0.9989235940563808  0.2496816473513994  0.4736649791885337   T   T   T
 -0.0000204826693319  0.5000012369745923  0.4734781576388560   T   T   T
  0.0010710605515801  0.7503228601745833  0.4736658852611421   T   T   T
  0.2496778868889723  0.9989311933971726  0.4736629341707769   T   T   T
  0.2492644890464036  0.2492770251306690  0.4734418618064500   T   T   T
  0.2499796350815602  0.4999707550354660  0.4738447530741898   T   T   T
  0.2523088981586314  0.7476942468701790  0.4742608583055498   T   T   T
  0.5000091257668310 -0.0000078404358586  0.4734703138053645   T   T   T
  0.4999539458157647  0.2499669179045998  0.4738450178175537   T   T   T
  0.5000020156271100  0.5000019366239308  0.4737452983848205   T   T   T
  0.5000425848030768  0.7500230680966784  0.4738431524595832   T   T   T
  0.7503400262583325  0.0010681459555605  0.4736667458789104   T   T   T
  0.7477034774934618  0.2523118220517797  0.4742650442759537   T   T   T
  0.7500194336443307  0.5000347202508117  0.4738442436701125   T   T   T
  0.7507348131220301  0.7507119967755367  0.4734385484109263   T   T   T
  0.1249197844351018  0.1249022555635150  0.5489206913146055   T   T   T
  0.1231727014992184  0.3739810760803661  0.5484339989685849   T   T   T
  0.1244184768363756  0.6246564092436936  0.5491579151459155   T   T   T
  0.1256928557957160  0.8743099343888083  0.5490114358654453   T   T   T
  0.3739835891727875  0.1231717561184954  0.5484370914814813   T   T   T
  0.3722363428486277  0.3722307852819980  0.5487529752986291   T   T   T
  0.3762138429445910  0.6237954049429477  0.5543098909253535   T   T   T
  0.3753516879069844  0.8756041564857976  0.5491747251278767   T   T   T
  0.6246554866980025  0.1243936587164750  0.5491759238675773   T   T   T
  0.6237952223655725  0.3762134184458668  0.5543065311182704   T   T   T
  0.6277724963153311  0.6277788194318810  0.5487515727689936   T   T   T
  0.6260284631527111  0.8768128502613709  0.5484371063713789   T   T   T
  0.8743125093708235  0.1256875746291704  0.5490268384618459   T   T   T
  0.8755892293575910  0.3753479621357456  0.5491694171391728   T   T   T
  0.8768100888572015  0.6260309811442675  0.5484405136739769   T   T   T
  0.8751085255823611  0.8750893696390051  0.5489181293621967   T   T   T
  0.1249999997703384  0.1249999997703384  0.3964301349042145   F   F   F
  0.1250000006889778  0.3750000002296616  0.3964301349042145   F   F   F
  0.1250000006889778  0.6250000006889778  0.3964301349042145   F   F   F
  0.1250000006889778  0.8750000011483010  0.3964301349042145   F   F   F
  0.3750000011483010  0.1249999997703384  0.3964301349042145   F   F   F
  0.3750000011483010  0.3750000002296616  0.3964301349042145   F   F   F
  0.3750000011483010  0.6250000006889778  0.3964301349042145   F   F   F
  0.3750000011483010  0.8750000011483010  0.3964301349042145   F   F   F
  0.6250000006889778  0.1249999997703384  0.3964301349042145   F   F   F
  0.6250000006889778  0.3750000002296616  0.3964301349042145   F   F   F
  0.6250000016076172  0.6250000006889778  0.3964301349042145   F   F   F
  0.6250000016076172  0.8750000011483010  0.3964301349042145   F   F   F
  0.8750000011483010  0.1249999997703384  0.3964301349042145   F   F   F
  0.8750000011483010  0.3750000002296616  0.3964301349042145   F   F   F
  0.8750000011483010  0.6250000006889778  0.3964301349042145   F   F   F
  0.8750000020669404  0.8750000011483010  0.3964301349042145   F   F   F
  0.4038705250752462  0.4038709549406354  0.6337285269068432   T   T   T
  0.3712798943586396  0.5347484734449173  0.6350875874670189   T   T   T
  0.4652325643300769  0.6286732832494506  0.6350842838673647   T   T   T
  0.5960975665438621  0.5961108557136742  0.6337314376457237   T   T   T
  0.6286732211357234  0.4652402082786817  0.6350827394752668   T   T   T
  0.5347597517509387  0.3712832534979281  0.6350914151773684   T   T   T
  0.3437100558285943  0.3436980602258952  0.6583993733803049   T   T   T
  0.6562642864092515  0.6562766611366655  0.6583979706019217   T   T   T
  0.2632864415901867  0.5600692346546743  0.6629394748701631   T   T   T
  0.4399060487162794  0.7366950210071966  0.6629553921418375   T   T   T
  0.7367101772258883  0.4399207657979186  0.6629493915112754   T   T   T
  0.5600778005494726  0.2632993302774083  0.6629349527905031   T   T   T
 
  0.00000000E+00  0.00000000E+00  0.00000000E+00
  0.00000000E+00  0.00000000E+00  0.00000000E+00
  0.00000000E+00  0.00000000E+00  0.00000000E+00
  0.00000000E+00  0.00000000E+00  0.00000000E+00
  0.00000000E+00  0.00000000E+00  0.00000000E+00
  0.00000000E+00  0.00000000E+00  0.00000000E+00
  0.00000000E+00  0.00000000E+00  0.00000000E+00
  0.00000000E+00  0.00000000E+00  0.00000000E+00
  0.00000000E+00  0.00000000E+00  0.00000000E+00
  0.00000000E+00  0.00000000E+00  0.00000000E+00
  0.00000000E+00  0.00000000E+00  0.00000000E+00
  0.00000000E+00  0.00000000E+00  0.00000000E+00
  0.00000000E+00  0.00000000E+00  0.00000000E+00
  0.00000000E+00  0.00000000E+00  0.00000000E+00
  0.00000000E+00  0.00000000E+00  0.00000000E+00
  0.00000000E+00  0.00000000E+00  0.00000000E+00
  0.00000000E+00  0.00000000E+00  0.00000000E+00
  0.00000000E+00  0.00000000E+00  0.00000000E+00
  0.00000000E+00  0.00000000E+00  0.00000000E+00
  0.00000000E+00  0.00000000E+00  0.00000000E+00
  0.00000000E+00  0.00000000E+00  0.00000000E+00
  0.00000000E+00  0.00000000E+00  0.00000000E+00
  0.00000000E+00  0.00000000E+00  0.00000000E+00
  0.00000000E+00  0.00000000E+00  0.00000000E+00
  0.00000000E+00  0.00000000E+00  0.00000000E+00
  0.00000000E+00  0.00000000E+00  0.00000000E+00
  0.00000000E+00  0.00000000E+00  0.00000000E+00
  0.00000000E+00  0.00000000E+00  0.00000000E+00
  0.00000000E+00  0.00000000E+00  0.00000000E+00
  0.00000000E+00  0.00000000E+00  0.00000000E+00
  0.00000000E+00  0.00000000E+00  0.00000000E+00
  0.00000000E+00  0.00000000E+00  0.00000000E+00
  0.00000000E+00  0.00000000E+00  0.00000000E+00
  0.00000000E+00  0.00000000E+00  0.00000000E+00
  0.00000000E+00  0.00000000E+00  0.00000000E+00
  0.00000000E+00  0.00000000E+00  0.00000000E+00
  0.00000000E+00  0.00000000E+00  0.00000000E+00
  0.00000000E+00  0.00000000E+00  0.00000000E+00
  0.00000000E+00  0.00000000E+00  0.00000000E+00
  0.00000000E+00  0.00000000E+00  0.00000000E+00
  0.00000000E+00  0.00000000E+00  0.00000000E+00
  0.00000000E+00  0.00000000E+00  0.00000000E+00
  0.00000000E+00  0.00000000E+00  0.00000000E+00
  0.00000000E+00  0.00000000E+00  0.00000000E+00
  0.00000000E+00  0.00000000E+00  0.00000000E+00
  0.00000000E+00  0.00000000E+00  0.00000000E+00
  0.00000000E+00  0.00000000E+00  0.00000000E+00
  0.00000000E+00  0.00000000E+00  0.00000000E+00
  0.00000000E+00  0.00000000E+00  0.00000000E+00
  0.00000000E+00  0.00000000E+00  0.00000000E+00
  0.00000000E+00  0.00000000E+00  0.00000000E+00
  0.00000000E+00  0.00000000E+00  0.00000000E+00
  0.00000000E+00  0.00000000E+00  0.00000000E+00
  0.00000000E+00  0.00000000E+00  0.00000000E+00
  0.00000000E+00  0.00000000E+00  0.00000000E+00
  0.00000000E+00  0.00000000E+00  0.00000000E+00
  0.00000000E+00  0.00000000E+00  0.00000000E+00
  0.00000000E+00  0.00000000E+00  0.00000000E+00
  0.00000000E+00  0.00000000E+00  0.00000000E+00
  0.00000000E+00  0.00000000E+00  0.00000000E+00
  0.00000000E+00  0.00000000E+00  0.00000000E+00
  0.00000000E+00  0.00000000E+00  0.00000000E+00
  0.00000000E+00  0.00000000E+00  0.00000000E+00
  0.00000000E+00  0.00000000E+00  0.00000000E+00
  0.00000000E+00  0.00000000E+00  0.00000000E+00
  0.00000000E+00  0.00000000E+00  0.00000000E+00
  0.00000000E+00  0.00000000E+00  0.00000000E+00
  0.00000000E+00  0.00000000E+00  0.00000000E+00
  0.00000000E+00  0.00000000E+00  0.00000000E+00
  0.00000000E+00  0.00000000E+00  0.00000000E+00
  0.00000000E+00  0.00000000E+00  0.00000000E+00
  0.00000000E+00  0.00000000E+00  0.00000000E+00
  0.00000000E+00  0.00000000E+00  0.00000000E+00
  0.00000000E+00  0.00000000E+00  0.00000000E+00
  0.00000000E+00  0.00000000E+00  0.00000000E+00
  0.00000000E+00  0.00000000E+00  0.00000000E+00
