Ag48 H4 C6 Br2                          
    1.000000000000000     
    11.7678089999999997    0.0000000000000000    0.0000000000000000
    -5.8839040000000002   10.1912210000000005    0.0000000000000000
     0.0000000000000000    0.0000000000000000   17.8074760000000012
   Ag   H    C    Br
    48     4     6     2
Selective dynamics
Direct
  0.0833330000000032  0.1666669999999968  0.3369369999999989   F   F   F
  0.0833330000000032  0.4166669999999968  0.3369369999999989   F   F   F
  0.0833330000000032  0.6666669999999968  0.3369369999999989   F   F   F
  0.0833330000000032  0.9166669999999968  0.3369369999999989   F   F   F
  0.3333330000000032  0.1666669999999968  0.3369369999999989   F   F   F
  0.3333330000000032  0.4166669999999968  0.3369369999999989   F   F   F
  0.3333330000000032  0.6666669999999968  0.3369369999999989   F   F   F
  0.3333330000000032  0.9166669999999968  0.3369369999999989   F   F   F
  0.5833330000000032  0.1666669999999968  0.3369369999999989   F   F   F
  0.5833330000000032  0.4166669999999968  0.3369369999999989   F   F   F
  0.5833330000000032  0.6666669999999968  0.3369369999999989   F   F   F
  0.5833330000000032  0.9166669999999968  0.3369369999999989   F   F   F
  0.8333330000000032  0.1666669999999968  0.3369369999999989   F   F   F
  0.8333330000000032  0.4166669999999968  0.3369369999999989   F   F   F
  0.8333330000000032  0.6666669999999968  0.3369369999999989   F   F   F
  0.8333330000000032  0.9166669999999968  0.3369369999999989   F   F   F
  0.2485549547250585  0.2487640150649497  0.5896221039515552   T   T   T
  0.2497952893090840  0.5000206290091072  0.5878230636495232   T   T   T
  0.2500104456121406  0.7505593700899311  0.5895282234043577   T   T   T
  0.2492815872012031  0.9994190908102567  0.5895365718758541   T   T   T
  0.5000422212992461  0.2497857652669566  0.5878739045248906   T   T   T
  0.5012801364249100  0.5014996694570755  0.5895697387804120   T   T   T
  0.5004756132482839  0.7506597504555970  0.5895354995190303   T   T   T
  0.4996792587153536  0.9992823303940170  0.5895143780534937   T   T   T
  0.7504215294071273  0.2501003141688969  0.5896297723641624   T   T   T
  0.7503821434162461  0.5005431815516772  0.5894903156879465   T   T   T
  0.7502212167198081  0.7504297913921647  0.5898469881403088   T   T   T
  0.7498258468514365  0.9999738285411013  0.5900566948948551   T   T   T
  0.9992390130668412  0.2494555352507106  0.5895566500553073   T   T   T
  0.9992183483652326  0.4997593391547568  0.5893948183365580   T   T   T
  0.0000237835010353  0.7498341017219232  0.5899725831934148   T   T   T
  0.9993939897595538  0.9996016928933642  0.5898029165045457   T   T   T
  0.1665830831490638  0.0831361358663258  0.4633644189637423   T   T   T
  0.1662658752660207  0.3327526729247623  0.4632596375875409   T   T   T
  0.1663463584179041  0.5837253365162240  0.4630727059433823   T   T   T
  0.1661755635831312  0.8330743704078287  0.4632761848751983   T   T   T
  0.4161951213358606  0.0826957258288772  0.4631489032141261   T   T   T
  0.4161414342656684  0.3336858933950921  0.4635472643190539   T   T   T
  0.4171259674347354  0.5836810671039103  0.4632492538930535   T   T   T
  0.4163014708781745  0.8328436292925474  0.4632514812367461   T   T   T
  0.6665505654087767  0.0834430826299766  0.4635167023561877   T   T   T
  0.6671985665909475  0.3335908908056595  0.4631640410957019   T   T   T
  0.6669116292377097  0.5834846840324133  0.4633404874039826   T   T   T
  0.6670351863657586  0.8336208422527065  0.4633823149086496   T   T   T
  0.9162565649983065  0.0829040453472984  0.4634088006220409   T   T   T
  0.9168966226462203  0.3333794226971847  0.4632763899636885   T   T   T
  0.9168544451377869  0.5838321842544900  0.4632522855650123   T   T   T
  0.9166433360139195  0.8332545150557351  0.4634402370028141   T   T   T
  0.4988269157102039  0.6208583468377924  0.7606450275120338   T   T   T
  0.6209250487997267  0.4987332109564449  0.7607234176533950   T   T   T
  0.2533405642101769  0.1311459808045186  0.7607769864413072   T   T   T
  0.1312697343147633  0.2532349753529815  0.7607092279436856   T   T   T
  0.3082345873301549  0.4438425491433549  0.7635930814554257   T   T   T
  0.4451977361994537  0.5137397620749908  0.7616537152432628   T   T   T
  0.5138420314573366  0.4450684448528577  0.7617811810219237   T   T   T
  0.4439877313659721  0.3081517234503366  0.7636114465634520   T   T   T
  0.3070770248438706  0.2382821476514181  0.7618328943342547   T   T   T
  0.2383497974484001  0.3069590845920303  0.7616855131038136   T   T   T
  0.2147854695721136  0.5371774577659068  0.7650579646038551   T   T   T
  0.5372828588705971  0.2147690574959142  0.7652288027901690   T   T   T
 
  0.00000000E+00  0.00000000E+00  0.00000000E+00
  0.00000000E+00  0.00000000E+00  0.00000000E+00
  0.00000000E+00  0.00000000E+00  0.00000000E+00
  0.00000000E+00  0.00000000E+00  0.00000000E+00
  0.00000000E+00  0.00000000E+00  0.00000000E+00
  0.00000000E+00  0.00000000E+00  0.00000000E+00
  0.00000000E+00  0.00000000E+00  0.00000000E+00
  0.00000000E+00  0.00000000E+00  0.00000000E+00
  0.00000000E+00  0.00000000E+00  0.00000000E+00
  0.00000000E+00  0.00000000E+00  0.00000000E+00
  0.00000000E+00  0.00000000E+00  0.00000000E+00
  0.00000000E+00  0.00000000E+00  0.00000000E+00
  0.00000000E+00  0.00000000E+00  0.00000000E+00
  0.00000000E+00  0.00000000E+00  0.00000000E+00
  0.00000000E+00  0.00000000E+00  0.00000000E+00
  0.00000000E+00  0.00000000E+00  0.00000000E+00
  0.00000000E+00  0.00000000E+00  0.00000000E+00
  0.00000000E+00  0.00000000E+00  0.00000000E+00
  0.00000000E+00  0.00000000E+00  0.00000000E+00
  0.00000000E+00  0.00000000E+00  0.00000000E+00
  0.00000000E+00  0.00000000E+00  0.00000000E+00
  0.00000000E+00  0.00000000E+00  0.00000000E+00
  0.00000000E+00  0.00000000E+00  0.00000000E+00
  0.00000000E+00  0.00000000E+00  0.00000000E+00
  0.00000000E+00  0.00000000E+00  0.00000000E+00
  0.00000000E+00  0.00000000E+00  0.00000000E+00
  0.00000000E+00  0.00000000E+00  0.00000000E+00
  0.00000000E+00  0.00000000E+00  0.00000000E+00
  0.00000000E+00  0.00000000E+00  0.00000000E+00
  0.00000000E+00  0.00000000E+00  0.00000000E+00
  0.00000000E+00  0.00000000E+00  0.00000000E+00
  0.00000000E+00  0.00000000E+00  0.00000000E+00
  0.00000000E+00  0.00000000E+00  0.00000000E+00
  0.00000000E+00  0.00000000E+00  0.00000000E+00
  0.00000000E+00  0.00000000E+00  0.00000000E+00
  0.00000000E+00  0.00000000E+00  0.00000000E+00
  0.00000000E+00  0.00000000E+00  0.00000000E+00
  0.00000000E+00  0.00000000E+00  0.00000000E+00
  0.00000000E+00  0.00000000E+00  0.00000000E+00
  0.00000000E+00  0.00000000E+00  0.00000000E+00
  0.00000000E+00  0.00000000E+00  0.00000000E+00
  0.00000000E+00  0.00000000E+00  0.00000000E+00
  0.00000000E+00  0.00000000E+00  0.00000000E+00
  0.00000000E+00  0.00000000E+00  0.00000000E+00
  0.00000000E+00  0.00000000E+00  0.00000000E+00
  0.00000000E+00  0.00000000E+00  0.00000000E+00
  0.00000000E+00  0.00000000E+00  0.00000000E+00
  0.00000000E+00  0.00000000E+00  0.00000000E+00
  0.00000000E+00  0.00000000E+00  0.00000000E+00
  0.00000000E+00  0.00000000E+00  0.00000000E+00
  0.00000000E+00  0.00000000E+00  0.00000000E+00
  0.00000000E+00  0.00000000E+00  0.00000000E+00
  0.00000000E+00  0.00000000E+00  0.00000000E+00
  0.00000000E+00  0.00000000E+00  0.00000000E+00
  0.00000000E+00  0.00000000E+00  0.00000000E+00
  0.00000000E+00  0.00000000E+00  0.00000000E+00
  0.00000000E+00  0.00000000E+00  0.00000000E+00
  0.00000000E+00  0.00000000E+00  0.00000000E+00
  0.00000000E+00  0.00000000E+00  0.00000000E+00
  0.00000000E+00  0.00000000E+00  0.00000000E+00
