Rh48 C6 Br6                             
    1.000000000000000     
    10.8856652999999994    0.0000000000000000    0.0000000000000000
     0.0000000000000000   15.3946555000000007    0.0000000000000000
     0.0000000000000000    0.0000000000000000   15.4472058899999993
   Rh   C    Br
    48     6     6
Selective dynamics
Direct
  0.2489055067662633  0.2497545742894545  0.4031231853168080   T   T   T
  0.2521409426965562  0.4999374545202926  0.3998189729891592   T   T   T
  0.2504484533397147  0.7494446856485837  0.4035561627239730   T   T   T
  0.2497474230874701  0.9997662844635897  0.4016377825292707   T   T   T
  0.4987722226145621  0.2487362871819769  0.4046132598666716   T   T   T
  0.5000116409753090  0.4999912911457898  0.4025702899638830   T   T   T
  0.5012513346353913  0.7512669753916867  0.4046018269720264   T   T   T
  0.4999986275334791  0.0000091848975217  0.4057020975609618   T   T   T
  0.7495593307424429  0.2505500272908847  0.4035674899919002   T   T   T
  0.7478572100237102  0.5000676343668644  0.3998256765574837   T   T   T
  0.7510958025607408  0.7502347497280795  0.4031196740008482   T   T   T
  0.7502756054298700  0.0002382764198217  0.4016344501628595   T   T   T
  0.9990558527278139  0.2503752295827582  0.4064787640756293   T   T   T
  0.9999986912555130  0.4999973165510099  0.4058232794215755   T   T   T
  0.0009303551238631  0.7495971861656656  0.4064563296945920   T   T   T
  0.9999872819480586  0.0000149912008922  0.4061043629236423   T   T   T
  0.1256174668118106  0.1251499385571080  0.4849711640422996   T   T   T
  0.1239961912898266  0.3763201576656883  0.4830171308756519   T   T   T
  0.1305105289913371  0.6207447511756428  0.4848768076115348   T   T   T
  0.1252937220344990  0.8744895085508588  0.4846762149789257   T   T   T
  0.3739354022020436  0.1246773143570792  0.4847480730081273   T   T   T
  0.3690988821468224  0.3734199347628930  0.4859893433974065   T   T   T
  0.3803258233723881  0.6285149956992768  0.4865023459575113   T   T   T
  0.3737930475948730  0.8746037815242076  0.4849493605670645   T   T   T
  0.6262319125331288  0.1253952269210217  0.4849479152507712   T   T   T
  0.6196887962884787  0.3714824457208934  0.4864950510287898   T   T   T
  0.6309203245037338  0.6265837157590397  0.4859986886920566   T   T   T
  0.6260738301767006  0.8753199994534242  0.4847405940922300   T   T   T
  0.8747243965479967  0.1255074843830286  0.4846698177359272   T   T   T
  0.8694897875380576  0.3792594939725547  0.4848724631286885   T   T   T
  0.8760062633608570  0.6236848661599055  0.4830068414999289   T   T   T
  0.8743711056301890  0.8748574398098938  0.4849932034014941   T   T   T
  0.1249999997703384  0.1250000001623945  0.3236831330924943   F   F   F
  0.1249999997703384  0.3750000004871836  0.3236831330924943   F   F   F
  0.1250000006889778  0.6250000014615438  0.3236831330924943   F   F   F
  0.1250000006889778  0.8750000017863329  0.3236831330924943   F   F   F
  0.3750000002296616  0.1250000001623945  0.3236831330924943   F   F   F
  0.3750000002296616  0.3750000004871836  0.3236831330924943   F   F   F
  0.3750000011483010  0.6250000014615438  0.3236831330924943   F   F   F
  0.3750000011483010  0.8750000017863329  0.3236831330924943   F   F   F
  0.6250000006889778  0.1250000001623945  0.3236831330924943   F   F   F
  0.6250000006889778  0.3750000004871836  0.3236831330924943   F   F   F
  0.6250000006889778  0.6250000014615438  0.3236831330924943   F   F   F
  0.6250000006889778  0.8750000017863329  0.3236831330924943   F   F   F
  0.8750000011483010  0.1250000001623945  0.3236831330924943   F   F   F
  0.8750000011483010  0.3750000004871836  0.3236831330924943   F   F   F
  0.8750000020669404  0.6250000014615438  0.3236831330924943   F   F   F
  0.8750000011483010  0.8750000017863329  0.3236831330924943   F   F   F
  0.6264738363739610  0.4926825355551543  0.6139242905590052   T   T   T
  0.5556000489771478  0.4184335012333804  0.5974129049128436   T   T   T
  0.4248097307998293  0.4252335931175679  0.5964664441762153   T   T   T
  0.3735148578479652  0.5073090115166963  0.6139216650665631   T   T   T
  0.4443884930715640  0.5815707230600609  0.5974050628481393   T   T   T
  0.5751999854999426  0.5747567388683876  0.5964537094568314   T   T   T
  0.8109442990224593  0.4791461211705936  0.6198312988852450   T   T   T
  0.7520327527221866  0.1351109595835567  0.6205276627374587   T   T   T
  0.2506274759516174  0.1278420162931795  0.6208228767653665   T   T   T
  0.1890463106021230  0.5208574199647416  0.6198504401384355   T   T   T
  0.2479973360274244  0.8649014009559224  0.6204902540819148   T   T   T
  0.7493998559496191  0.8721827554706323  0.6208072544293088   T   T   T
 
  0.00000000E+00  0.00000000E+00  0.00000000E+00
  0.00000000E+00  0.00000000E+00  0.00000000E+00
  0.00000000E+00  0.00000000E+00  0.00000000E+00
  0.00000000E+00  0.00000000E+00  0.00000000E+00
  0.00000000E+00  0.00000000E+00  0.00000000E+00
  0.00000000E+00  0.00000000E+00  0.00000000E+00
  0.00000000E+00  0.00000000E+00  0.00000000E+00
  0.00000000E+00  0.00000000E+00  0.00000000E+00
  0.00000000E+00  0.00000000E+00  0.00000000E+00
  0.00000000E+00  0.00000000E+00  0.00000000E+00
  0.00000000E+00  0.00000000E+00  0.00000000E+00
  0.00000000E+00  0.00000000E+00  0.00000000E+00
  0.00000000E+00  0.00000000E+00  0.00000000E+00
  0.00000000E+00  0.00000000E+00  0.00000000E+00
  0.00000000E+00  0.00000000E+00  0.00000000E+00
  0.00000000E+00  0.00000000E+00  0.00000000E+00
  0.00000000E+00  0.00000000E+00  0.00000000E+00
  0.00000000E+00  0.00000000E+00  0.00000000E+00
  0.00000000E+00  0.00000000E+00  0.00000000E+00
  0.00000000E+00  0.00000000E+00  0.00000000E+00
  0.00000000E+00  0.00000000E+00  0.00000000E+00
  0.00000000E+00  0.00000000E+00  0.00000000E+00
  0.00000000E+00  0.00000000E+00  0.00000000E+00
  0.00000000E+00  0.00000000E+00  0.00000000E+00
  0.00000000E+00  0.00000000E+00  0.00000000E+00
  0.00000000E+00  0.00000000E+00  0.00000000E+00
  0.00000000E+00  0.00000000E+00  0.00000000E+00
  0.00000000E+00  0.00000000E+00  0.00000000E+00
  0.00000000E+00  0.00000000E+00  0.00000000E+00
  0.00000000E+00  0.00000000E+00  0.00000000E+00
  0.00000000E+00  0.00000000E+00  0.00000000E+00
  0.00000000E+00  0.00000000E+00  0.00000000E+00
  0.00000000E+00  0.00000000E+00  0.00000000E+00
  0.00000000E+00  0.00000000E+00  0.00000000E+00
  0.00000000E+00  0.00000000E+00  0.00000000E+00
  0.00000000E+00  0.00000000E+00  0.00000000E+00
  0.00000000E+00  0.00000000E+00  0.00000000E+00
  0.00000000E+00  0.00000000E+00  0.00000000E+00
  0.00000000E+00  0.00000000E+00  0.00000000E+00
  0.00000000E+00  0.00000000E+00  0.00000000E+00
  0.00000000E+00  0.00000000E+00  0.00000000E+00
  0.00000000E+00  0.00000000E+00  0.00000000E+00
  0.00000000E+00  0.00000000E+00  0.00000000E+00
  0.00000000E+00  0.00000000E+00  0.00000000E+00
  0.00000000E+00  0.00000000E+00  0.00000000E+00
  0.00000000E+00  0.00000000E+00  0.00000000E+00
  0.00000000E+00  0.00000000E+00  0.00000000E+00
  0.00000000E+00  0.00000000E+00  0.00000000E+00
  0.00000000E+00  0.00000000E+00  0.00000000E+00
  0.00000000E+00  0.00000000E+00  0.00000000E+00
  0.00000000E+00  0.00000000E+00  0.00000000E+00
  0.00000000E+00  0.00000000E+00  0.00000000E+00
  0.00000000E+00  0.00000000E+00  0.00000000E+00
  0.00000000E+00  0.00000000E+00  0.00000000E+00
  0.00000000E+00  0.00000000E+00  0.00000000E+00
  0.00000000E+00  0.00000000E+00  0.00000000E+00
  0.00000000E+00  0.00000000E+00  0.00000000E+00
  0.00000000E+00  0.00000000E+00  0.00000000E+00
  0.00000000E+00  0.00000000E+00  0.00000000E+00
  0.00000000E+00  0.00000000E+00  0.00000000E+00
