Au  C  F                                
    1.000000000000000     
    11.7981856999999994    0.0000000000000000    0.0000000000000000
     0.0000000000000000   11.7981856999999994    0.0000000000000000
     0.0000000000000000    0.0000000000000000   24.2569328400000011
   Au   C    F 
    64     6     6
Selective dynamics
Direct
  0.2500000004237961  0.0000000000000000  0.3091899561032889   F   F   F
  0.0000000000000000  0.5000000008475851  0.3091899561032889   F   F   F
  0.2500000004237961  0.2500000004237961  0.3091899561032889   F   F   F
  0.2500000004237961  0.5000000008475851  0.3091899561032889   F   F   F
  0.2500000004237961  0.7500000012713812  0.3091899561032889   F   F   F
  0.5000000008475851  0.0000000000000000  0.3091899561032889   F   F   F
  0.5000000008475851  0.2500000004237961  0.3091899561032889   F   F   F
  0.0000000000000000  0.7500000012713812  0.3091899561032889   F   F   F
  0.5000000008475851  0.5000000008475851  0.3091899561032889   F   F   F
  0.5000000008475851  0.7500000012713812  0.3091899561032889   F   F   F
  0.7500000012713812  0.0000000000000000  0.3091899561032889   F   F   F
  0.7500000012713812  0.2500000004237961  0.3091899561032889   F   F   F
  0.7500000012713812  0.5000000008475851  0.3091899561032889   F   F   F
  0.7500000012713812  0.7500000012713812  0.3091899561032889   F   F   F
  0.0000000000000000  0.0000000000000000  0.3091899561032889   F   F   F
  0.0000000000000000  0.2500000004237961  0.3091899561032889   F   F   F
  0.2491643526785705  0.0003760253568599  0.4805879797091738   T   T   T
  0.2493897684945251  0.2495204158901294  0.4805484044993623   T   T   T
  0.2488690728442549  0.5003144412245825  0.4804667602680239   T   T   T
  0.2491825138253896  0.7508360539958338  0.4804722532285751   T   T   T
  0.5000000008475851  0.0000000000000000  0.4810427974830307   T   T   T
  0.5003119759764142  0.2488687204117008  0.4804665607212241   T   T   T
  0.5000000008475851  0.5000000008475851  0.4803534697185983   T   T   T
  0.4996880257187560  0.7511312812834765  0.4804665607212241   T   T   T
  0.7508356490166068  0.9996239746431402  0.4805879797091738   T   T   T
  0.7508174878697877  0.2491639476993437  0.4804722532285751   T   T   T
  0.7511309288509225  0.4996855604705878  0.4804667602680239   T   T   T
  0.7506102332006525  0.7504795858050480  0.4805484044993623   T   T   T
  0.0000000000000000  0.0000000000000000  0.4810234833618195   T   T   T
  0.0001713012749491  0.2490981059911802  0.4805801836836225   T   T   T
  0.0000000000000000  0.5000000008475851  0.4810430779528431   T   T   T
  0.9998286987250510  0.7509018957039972  0.4805801836836225   T   T   T
  0.1253354165169021  0.1253579123719280  0.5667181516520879   T   T   T
  0.1252907852577622  0.3753099204980495  0.5666790771432340   T   T   T
  0.1246437420212488  0.6253602096239123  0.5666774123561905   T   T   T
  0.1247243963645818  0.8752871229221112  0.5667187181342757   T   T   T
  0.3753110852233961  0.1252939764058191  0.5666797086223243   T   T   T
  0.3750800796879646  0.3750793726676588  0.5652825823329376   T   T   T
  0.3739052205062675  0.6260952072283386  0.5652679440714951   T   T   T
  0.3746334631487496  0.8753608867631233  0.5666734987326230   T   T   T
  0.6253665385464277  0.1246391149320541  0.5666734987326230   T   T   T
  0.6260947820364947  0.3739047944668386  0.5652679440714951   T   T   T
  0.6249199228547980  0.6249206290275187  0.5652825823329376   T   T   T
  0.6246889173193666  0.8747060252893584  0.5666797086223243   T   T   T
  0.8752756061781879  0.1247128787730661  0.5667187181342757   T   T   T
  0.8753562605215208  0.3746397920712650  0.5666774123561905   T   T   T
  0.8747092172850074  0.6246900811971279  0.5666790771432340   T   T   T
  0.8746645860258676  0.8746420893232492  0.5667181516520879   T   T   T
  0.1249999997881019  0.1250000006356942  0.3951713245539921   F   F   F
  0.1250000006356942  0.3750000010594832  0.3951713245539921   F   F   F
  0.1250000006356942  0.6250000006356942  0.3951713245539921   F   F   F
  0.1250000006356942  0.8750000019070754  0.3951713245539921   F   F   F
  0.3750000010594832  0.1250000006356942  0.3951713245539921   F   F   F
  0.3750000010594832  0.3750000010594832  0.3951713245539921   F   F   F
  0.3750000010594832  0.6250000006356942  0.3951713245539921   F   F   F
  0.3750000010594832  0.8750000019070754  0.3951713245539921   F   F   F
  0.6250000006356942  0.1250000006356942  0.3951713245539921   F   F   F
  0.6250000014832793  0.3750000010594832  0.3951713245539921   F   F   F
  0.6250000014832793  0.6250000006356942  0.3951713245539921   F   F   F
  0.6250000014832793  0.8750000019070754  0.3951713245539921   F   F   F
  0.8750000019070754  0.1250000006356942  0.3951713245539921   F   F   F
  0.8750000019070754  0.3750000010594832  0.3951713245539921   F   F   F
  0.8750000019070754  0.6250000006356942  0.3951713245539921   F   F   F
  0.8750000019070754  0.8750000019070754  0.3951713245539921   F   F   F
  0.6143297917793861  0.4694079337975155  0.6980426425505768   T   T   T
  0.5305809765358636  0.3856724452200692  0.6980418910618420   T   T   T
  0.4162905824871481  0.4162885128248116  0.6982124525296026   T   T   T
  0.3856702370386072  0.5305920806114811  0.6980426425505768   T   T   T
  0.4694189988840826  0.6143275437612818  0.6980418910618420   T   T   T
  0.5837094200556144  0.5837114888703657  0.6982124525296026   T   T   T
  0.7244340891816645  0.4399112176120141  0.6989213478056899   T   T   T
  0.5600775778784584  0.2755618358794081  0.6989220305190746   T   T   T
  0.3356220743554741  0.3356308330973380  0.6999852334488651   T   T   T
  0.2755659133610976  0.5600887840831559  0.6989213478056899   T   T   T
  0.4399223585524452  0.7244381488640104  0.6989220305190746   T   T   T
  0.6643779010644723  0.6643691558840200  0.6999852334488651   T   T   T
 
  0.00000000E+00  0.00000000E+00  0.00000000E+00
  0.00000000E+00  0.00000000E+00  0.00000000E+00
  0.00000000E+00  0.00000000E+00  0.00000000E+00
  0.00000000E+00  0.00000000E+00  0.00000000E+00
  0.00000000E+00  0.00000000E+00  0.00000000E+00
  0.00000000E+00  0.00000000E+00  0.00000000E+00
  0.00000000E+00  0.00000000E+00  0.00000000E+00
  0.00000000E+00  0.00000000E+00  0.00000000E+00
  0.00000000E+00  0.00000000E+00  0.00000000E+00
  0.00000000E+00  0.00000000E+00  0.00000000E+00
  0.00000000E+00  0.00000000E+00  0.00000000E+00
  0.00000000E+00  0.00000000E+00  0.00000000E+00
  0.00000000E+00  0.00000000E+00  0.00000000E+00
  0.00000000E+00  0.00000000E+00  0.00000000E+00
  0.00000000E+00  0.00000000E+00  0.00000000E+00
  0.00000000E+00  0.00000000E+00  0.00000000E+00
  0.00000000E+00  0.00000000E+00  0.00000000E+00
  0.00000000E+00  0.00000000E+00  0.00000000E+00
  0.00000000E+00  0.00000000E+00  0.00000000E+00
  0.00000000E+00  0.00000000E+00  0.00000000E+00
  0.00000000E+00  0.00000000E+00  0.00000000E+00
  0.00000000E+00  0.00000000E+00  0.00000000E+00
  0.00000000E+00  0.00000000E+00  0.00000000E+00
  0.00000000E+00  0.00000000E+00  0.00000000E+00
  0.00000000E+00  0.00000000E+00  0.00000000E+00
  0.00000000E+00  0.00000000E+00  0.00000000E+00
  0.00000000E+00  0.00000000E+00  0.00000000E+00
  0.00000000E+00  0.00000000E+00  0.00000000E+00
  0.00000000E+00  0.00000000E+00  0.00000000E+00
  0.00000000E+00  0.00000000E+00  0.00000000E+00
  0.00000000E+00  0.00000000E+00  0.00000000E+00
  0.00000000E+00  0.00000000E+00  0.00000000E+00
  0.00000000E+00  0.00000000E+00  0.00000000E+00
  0.00000000E+00  0.00000000E+00  0.00000000E+00
  0.00000000E+00  0.00000000E+00  0.00000000E+00
  0.00000000E+00  0.00000000E+00  0.00000000E+00
  0.00000000E+00  0.00000000E+00  0.00000000E+00
  0.00000000E+00  0.00000000E+00  0.00000000E+00
  0.00000000E+00  0.00000000E+00  0.00000000E+00
  0.00000000E+00  0.00000000E+00  0.00000000E+00
  0.00000000E+00  0.00000000E+00  0.00000000E+00
  0.00000000E+00  0.00000000E+00  0.00000000E+00
  0.00000000E+00  0.00000000E+00  0.00000000E+00
  0.00000000E+00  0.00000000E+00  0.00000000E+00
  0.00000000E+00  0.00000000E+00  0.00000000E+00
  0.00000000E+00  0.00000000E+00  0.00000000E+00
  0.00000000E+00  0.00000000E+00  0.00000000E+00
  0.00000000E+00  0.00000000E+00  0.00000000E+00
  0.00000000E+00  0.00000000E+00  0.00000000E+00
  0.00000000E+00  0.00000000E+00  0.00000000E+00
  0.00000000E+00  0.00000000E+00  0.00000000E+00
  0.00000000E+00  0.00000000E+00  0.00000000E+00
  0.00000000E+00  0.00000000E+00  0.00000000E+00
  0.00000000E+00  0.00000000E+00  0.00000000E+00
  0.00000000E+00  0.00000000E+00  0.00000000E+00
  0.00000000E+00  0.00000000E+00  0.00000000E+00
  0.00000000E+00  0.00000000E+00  0.00000000E+00
  0.00000000E+00  0.00000000E+00  0.00000000E+00
  0.00000000E+00  0.00000000E+00  0.00000000E+00
  0.00000000E+00  0.00000000E+00  0.00000000E+00
  0.00000000E+00  0.00000000E+00  0.00000000E+00
  0.00000000E+00  0.00000000E+00  0.00000000E+00
  0.00000000E+00  0.00000000E+00  0.00000000E+00
  0.00000000E+00  0.00000000E+00  0.00000000E+00
  0.00000000E+00  0.00000000E+00  0.00000000E+00
  0.00000000E+00  0.00000000E+00  0.00000000E+00
  0.00000000E+00  0.00000000E+00  0.00000000E+00
  0.00000000E+00  0.00000000E+00  0.00000000E+00
  0.00000000E+00  0.00000000E+00  0.00000000E+00
  0.00000000E+00  0.00000000E+00  0.00000000E+00
  0.00000000E+00  0.00000000E+00  0.00000000E+00
  0.00000000E+00  0.00000000E+00  0.00000000E+00
  0.00000000E+00  0.00000000E+00  0.00000000E+00
  0.00000000E+00  0.00000000E+00  0.00000000E+00
  0.00000000E+00  0.00000000E+00  0.00000000E+00
  0.00000000E+00  0.00000000E+00  0.00000000E+00
