Ir  C  F                                
   1.00000000000000     
    10.9622130000000002    0.0000000000000000    0.0000000000000000
    -5.4811069999999997    9.4935550000000006    0.0000000000000000
     0.0000000000000000    0.0000000000000000   24.7129573799999989
   Ir   C    F 
    64     6     6
Selective dynamics
Direct
  0.7500000643925233  0.7500000284403470  0.3034845196661777   F   F   F
  0.0000000000000000  0.0000000000000000  0.3034845196661777   F   F   F
  0.0000000102134052  0.2500000094801180  0.3034845196661777   F   F   F
  0.0000000213390337  0.5000000189602289  0.3034845196661777   F   F   F
  0.0000000753392229  0.7500000284403470  0.3034845196661777   F   F   F
  0.2500000109466924  0.0000000000000000  0.3034845196661777   F   F   F
  0.2500000211600977  0.2500000094801180  0.3034845196661777   F   F   F
  0.2500000322857332  0.5000000189602289  0.3034845196661777   F   F   F
  0.5000000218933920  0.0000000000000000  0.3034845196661777   F   F   F
  0.5000000321067972  0.2500000094801180  0.3034845196661777   F   F   F
  0.5000000432324256  0.5000000189602289  0.3034845196661777   F   F   F
  0.5000000534458309  0.7500000284403470  0.3034845196661777   F   F   F
  0.7500000328400844  0.0000000000000000  0.3034845196661777   F   F   F
  0.7500000430534897  0.2500000094801180  0.3034845196661777   F   F   F
  0.7500000541791181  0.5000000189602289  0.3034845196661777   F   F   F
  0.2500000424991384  0.7500000284403470  0.3034845196661777   F   F   F
  0.0833330000000032  0.1666669999999968  0.3940302372665698   F   F   F
  0.0833330000000032  0.4166669999999968  0.3940302372665698   F   F   F
  0.0833330000000032  0.6666669999999968  0.3940302372665698   F   F   F
  0.0833330000000032  0.9166669999999968  0.3940302372665698   F   F   F
  0.3333330000000032  0.1666669999999968  0.3940302372665698   F   F   F
  0.3333330000000032  0.4166669999999968  0.3940302372665698   F   F   F
  0.3333330000000032  0.6666669999999968  0.3940302372665698   F   F   F
  0.3333330000000032  0.9166669999999968  0.3940302372665698   F   F   F
  0.5833330000000032  0.1666669999999968  0.3940302372665698   F   F   F
  0.5833330000000032  0.4166669999999968  0.3940302372665698   F   F   F
  0.5833330000000032  0.6666669999999968  0.3940302372665698   F   F   F
  0.5833330000000032  0.9166669999999968  0.3940302372665698   F   F   F
  0.8333330000000032  0.1666669999999968  0.3940302372665698   F   F   F
  0.8333330000000032  0.4166669999999968  0.3940302372665698   F   F   F
  0.8333330000000032  0.6666669999999968  0.3940302372665698   F   F   F
  0.8333330000000032  0.9166669999999968  0.3940302372665698   F   F   F
  0.9973971399061222  0.9969028184706175  0.5720552624657098   T   T   T
  0.9953279054866878  0.2481244530449775  0.5718091885470739   T   T   T
  0.0014109628618046  0.5000757363661231  0.5723837623584025   T   T   T
  0.0007238822743742  0.7492658945988633  0.5724365299377785   T   T   T
  0.2484213257386460  0.9947768229787630  0.5718475293468757   T   T   T
  0.2444675563558670  0.2430338701292387  0.5793049380634232   T   T   T
  0.2502353861165087  0.4999745830762297  0.5770596073148426   T   T   T
  0.2503543278780319  0.7492705523797319  0.5726345901473072   T   T   T
  0.5012833942443654  0.0010613192258275  0.5724989983852496   T   T   T
  0.5007778560529919  0.2493030880416880  0.5775694643613235   T   T   T
  0.5068709142757197  0.5053095166943019  0.5793213863945124   T   T   T
  0.5018964266547986  0.7549997693333327  0.5719582303308225   T   T   T
  0.7503319986072052  0.0000338695589443  0.5724681839172295   T   T   T
  0.7498353905514685  0.2496375229310639  0.5726287383951724   T   T   T
  0.7556791296821153  0.5019262948869266  0.5717735209816716   T   T   T
  0.7532777536877096  0.7526359098213117  0.5722357681883796   T   T   T
  0.1677570246220740  0.0854893503841907  0.4837969951240406   T   T   T
  0.1685438185268203  0.3343405447822737  0.4841840817940559   T   T   T
  0.1681490667016547  0.5820088367502466  0.4838158868866345   T   T   T
  0.1680907623180467  0.8339099463786700  0.4832395816170330   T   T   T
  0.4171268746742122  0.0854164507475378  0.4838449198758304   T   T   T
  0.4161300693760994  0.3337884792032190  0.4850039383778886   T   T   T
  0.4158006997290449  0.5817745670921713  0.4841816799911121   T   T   T
  0.4170235917224937  0.8334155772328656  0.4833896173749969   T   T   T
  0.6666150261201996  0.0835250914611648  0.4831846225187013   T   T   T
  0.6646059283796685  0.3330160922075048  0.4838646163645514   T   T   T
  0.6643707779555487  0.5820557932953199  0.4838555984736410   T   T   T
  0.6661221609283670  0.8323312578402966  0.4832278755752062   T   T   T
  0.9173811457912056  0.0837558809109446  0.4829980793603086   T   T   T
  0.9167894431448923  0.3331857877711150  0.4833012071346192   T   T   T
  0.9163904386700470  0.5823637204417949  0.4830158441323827   T   T   T
  0.9170242021332189  0.8328950717001010  0.4829569393754338   T   T   T
  0.3007984388612375  0.2237870089214213  0.6598869160285451   T   T   T
  0.2247871111829559  0.2999691273099689  0.6598144505179722   T   T   T
  0.2919324883083612  0.4580865392894714  0.6574303167155643   T   T   T
  0.4499103212924973  0.5250724886379887  0.6598742657634638   T   T   T
  0.5261359332711840  0.4491725579162077  0.6599289048306273   T   T   T
  0.4590878128634271  0.2910018596796921  0.6577847671820923   T   T   T
  0.2357182106215508  0.0945507999221500  0.6843084077535044   T   T   T
  0.0951670171289842  0.2349223057379011  0.6838548691677686   T   T   T
  0.2416731084710574  0.5077844230326028  0.6983699635619467   T   T   T
  0.5151050008454238  0.6546683598197528  0.6839363876586870   T   T   T
  0.6554635745725379  0.5145751026181132  0.6843121990550086   T   T   T
  0.5081752325992756  0.2413762892006149  0.6991105403654010   T   T   T
 
  0.00000000E+00  0.00000000E+00  0.00000000E+00
  0.00000000E+00  0.00000000E+00  0.00000000E+00
  0.00000000E+00  0.00000000E+00  0.00000000E+00
  0.00000000E+00  0.00000000E+00  0.00000000E+00
  0.00000000E+00  0.00000000E+00  0.00000000E+00
  0.00000000E+00  0.00000000E+00  0.00000000E+00
  0.00000000E+00  0.00000000E+00  0.00000000E+00
  0.00000000E+00  0.00000000E+00  0.00000000E+00
  0.00000000E+00  0.00000000E+00  0.00000000E+00
  0.00000000E+00  0.00000000E+00  0.00000000E+00
  0.00000000E+00  0.00000000E+00  0.00000000E+00
  0.00000000E+00  0.00000000E+00  0.00000000E+00
  0.00000000E+00  0.00000000E+00  0.00000000E+00
  0.00000000E+00  0.00000000E+00  0.00000000E+00
  0.00000000E+00  0.00000000E+00  0.00000000E+00
  0.00000000E+00  0.00000000E+00  0.00000000E+00
  0.00000000E+00  0.00000000E+00  0.00000000E+00
  0.00000000E+00  0.00000000E+00  0.00000000E+00
  0.00000000E+00  0.00000000E+00  0.00000000E+00
  0.00000000E+00  0.00000000E+00  0.00000000E+00
  0.00000000E+00  0.00000000E+00  0.00000000E+00
  0.00000000E+00  0.00000000E+00  0.00000000E+00
  0.00000000E+00  0.00000000E+00  0.00000000E+00
  0.00000000E+00  0.00000000E+00  0.00000000E+00
  0.00000000E+00  0.00000000E+00  0.00000000E+00
  0.00000000E+00  0.00000000E+00  0.00000000E+00
  0.00000000E+00  0.00000000E+00  0.00000000E+00
  0.00000000E+00  0.00000000E+00  0.00000000E+00
  0.00000000E+00  0.00000000E+00  0.00000000E+00
  0.00000000E+00  0.00000000E+00  0.00000000E+00
  0.00000000E+00  0.00000000E+00  0.00000000E+00
  0.00000000E+00  0.00000000E+00  0.00000000E+00
  0.00000000E+00  0.00000000E+00  0.00000000E+00
  0.00000000E+00  0.00000000E+00  0.00000000E+00
  0.00000000E+00  0.00000000E+00  0.00000000E+00
  0.00000000E+00  0.00000000E+00  0.00000000E+00
  0.00000000E+00  0.00000000E+00  0.00000000E+00
  0.00000000E+00  0.00000000E+00  0.00000000E+00
  0.00000000E+00  0.00000000E+00  0.00000000E+00
  0.00000000E+00  0.00000000E+00  0.00000000E+00
  0.00000000E+00  0.00000000E+00  0.00000000E+00
  0.00000000E+00  0.00000000E+00  0.00000000E+00
  0.00000000E+00  0.00000000E+00  0.00000000E+00
  0.00000000E+00  0.00000000E+00  0.00000000E+00
  0.00000000E+00  0.00000000E+00  0.00000000E+00
  0.00000000E+00  0.00000000E+00  0.00000000E+00
  0.00000000E+00  0.00000000E+00  0.00000000E+00
  0.00000000E+00  0.00000000E+00  0.00000000E+00
  0.00000000E+00  0.00000000E+00  0.00000000E+00
  0.00000000E+00  0.00000000E+00  0.00000000E+00
  0.00000000E+00  0.00000000E+00  0.00000000E+00
  0.00000000E+00  0.00000000E+00  0.00000000E+00
  0.00000000E+00  0.00000000E+00  0.00000000E+00
  0.00000000E+00  0.00000000E+00  0.00000000E+00
  0.00000000E+00  0.00000000E+00  0.00000000E+00
  0.00000000E+00  0.00000000E+00  0.00000000E+00
  0.00000000E+00  0.00000000E+00  0.00000000E+00
  0.00000000E+00  0.00000000E+00  0.00000000E+00
  0.00000000E+00  0.00000000E+00  0.00000000E+00
  0.00000000E+00  0.00000000E+00  0.00000000E+00
  0.00000000E+00  0.00000000E+00  0.00000000E+00
  0.00000000E+00  0.00000000E+00  0.00000000E+00
  0.00000000E+00  0.00000000E+00  0.00000000E+00
  0.00000000E+00  0.00000000E+00  0.00000000E+00
  0.00000000E+00  0.00000000E+00  0.00000000E+00
  0.00000000E+00  0.00000000E+00  0.00000000E+00
  0.00000000E+00  0.00000000E+00  0.00000000E+00
  0.00000000E+00  0.00000000E+00  0.00000000E+00
  0.00000000E+00  0.00000000E+00  0.00000000E+00
  0.00000000E+00  0.00000000E+00  0.00000000E+00
  0.00000000E+00  0.00000000E+00  0.00000000E+00
  0.00000000E+00  0.00000000E+00  0.00000000E+00
  0.00000000E+00  0.00000000E+00  0.00000000E+00
  0.00000000E+00  0.00000000E+00  0.00000000E+00
  0.00000000E+00  0.00000000E+00  0.00000000E+00
  0.00000000E+00  0.00000000E+00  0.00000000E+00
