Pt  C  N Br                             
   1.00000000000000     
    11.2480069999999994    0.0000000000000000    0.0000000000000000
    -5.6240030000000001    9.7410599999999992    0.0000000000000000
     0.0000000000000000    0.0000000000000000   24.8879693399999979
   Pt   C    N    Br
    64     4     2     4
Selective dynamics
Direct
  0.9999999587182344  0.7499999743354451  0.3013504194553178   F   F   F
  0.2499999964438118  0.0000000000000000  0.3013504194553178   F   F   F
  0.2499999825579735  0.2499999917873410  0.3013504194553178   F   F   F
  0.2499999690478916  0.4999999825481041  0.3013504194553178   F   F   F
  0.2499999551620533  0.7499999743354451  0.3013504194553178   F   F   F
  0.4999999928876306  0.0000000000000000  0.3013504194553178   F   F   F
  0.4999999790017924  0.2499999917873410  0.3013504194553178   F   F   F
  0.4999999654917033  0.4999999825481041  0.3013504194553178   F   F   F
  0.7499999893314424  0.0000000000000000  0.3013504194553178   F   F   F
  0.7499999754456042  0.2499999917873410  0.3013504194553178   F   F   F
  0.7499999619355222  0.4999999825481041  0.3013504194553178   F   F   F
  0.7499999480496840  0.7499999743354451  0.3013504194553178   F   F   F
  0.0000000000000000  0.0000000000000000  0.3013504194553178   F   F   F
  0.9999999861141617  0.2499999917873410  0.3013504194553178   F   F   F
  0.9999999583793340  0.4999999825481041  0.3013504194553178   F   F   F
  0.4999999516058651  0.7499999743354451  0.3013504194553178   F   F   F
  0.0833330000000032  0.1666669999999968  0.3936034172243978   F   F   F
  0.0833330000000032  0.4166669999999968  0.3936034172243978   F   F   F
  0.0833330000000032  0.6666669999999968  0.3936034172243978   F   F   F
  0.0833330000000032  0.9166669999999968  0.3936034172243978   F   F   F
  0.3333330000000032  0.1666669999999968  0.3936034172243978   F   F   F
  0.3333330000000032  0.4166669999999968  0.3936034172243978   F   F   F
  0.3333330000000032  0.6666669999999968  0.3936034172243978   F   F   F
  0.3333330000000032  0.9166669999999968  0.3936034172243978   F   F   F
  0.5833330000000032  0.1666669999999968  0.3936034172243978   F   F   F
  0.5833330000000032  0.4166669999999968  0.3936034172243978   F   F   F
  0.5833330000000032  0.6666669999999968  0.3936034172243978   F   F   F
  0.5833330000000032  0.9166669999999968  0.3936034172243978   F   F   F
  0.8333330000000032  0.1666669999999968  0.3936034172243978   F   F   F
  0.8333330000000032  0.4166669999999968  0.3936034172243978   F   F   F
  0.8333330000000032  0.6666669999999968  0.3936034172243978   F   F   F
  0.8333330000000032  0.9166669999999968  0.3936034172243978   F   F   F
  0.2435327771526306  0.2452491513845278  0.5771403294860562   T   T   T
  0.2410622475029704  0.4985552570908711  0.5789889317399304   T   T   T
  0.2494404145746379  0.7512081131688452  0.5792075008109815   T   T   T
  0.2498993133505317  0.0000925024381328  0.5782707161856294   T   T   T
  0.4955990908479281  0.2421668656478938  0.5787250043312042   T   T   T
  0.4884789100381355  0.4909113039644605  0.5805106650159695   T   T   T
  0.4975800848566702  0.7524241380301084  0.5822211959189637   T   T   T
  0.4987711448086991  0.0005410733562262  0.5792171063204623   T   T   T
  0.7494440020852883  0.2521242129036844  0.5787568485033683   T   T   T
  0.7488991260543594  0.5010746774253296  0.5817271506629149   T   T   T
  0.7590971015034870  0.7615212358290913  0.5805317226387917   T   T   T
  0.7514370497716435  0.0089336045476367  0.5789994972316440   T   T   T
  0.9981015827349391  0.2518955902046043  0.5781758491747532   T   T   T
  0.9978614494649313  0.5005472461554831  0.5787490980252936   T   T   T
  0.0078273103187874  0.7543974741514770  0.5787285724954587   T   T   T
  0.0047508185453815  0.0064599592392024  0.5771410205648109   T   T   T
  0.1673080765249740  0.0826758521345930  0.4838401040774393   T   T   T
  0.1660984999204668  0.3337423069025422  0.4845939067001038   T   T   T
  0.1664320972409508  0.5834079816666838  0.4852634103981905   T   T   T
  0.1667409549884372  0.8323547396323221  0.4844229545051532   T   T   T
  0.4176400128451612  0.0832403467493160  0.4844247795649967   T   T   T
  0.4174739898103036  0.3348516551921464  0.4858008738712987   T   T   T
  0.4167792117318170  0.5826421010451261  0.4867545038438806   T   T   T
  0.4188064345711028  0.8312018073711970  0.4871355380859593   T   T   T
  0.6666038715225167  0.0835649740495648  0.4852697150515867   T   T   T
  0.6665270763557934  0.3357397342477609  0.4865396345918130   T   T   T
  0.6654463316429678  0.5845503960697114  0.4869196053168505   T   T   T
  0.6673567407381148  0.8332102465383342  0.4867646492083451   T   T   T
  0.9162456145077317  0.0838866033711327  0.4845978762337697   T   T   T
  0.9156499370245970  0.3343349320273173  0.4849721403051913   T   T   T
  0.9142386714524696  0.5834604403991659  0.4865343268294098   T   T   T
  0.9151381089012158  0.8325129561393952  0.4858052419990168   T   T   T
  0.4837625152040820  0.5595110768839024  0.6613035586927323   T   T   T
  0.5581475166384866  0.4848521199814443  0.6611765167570995   T   T   T
  0.7651567185225510  0.6919145391060976  0.6611775456112328   T   T   T
  0.6905680926983139  0.7662866784312873  0.6613072821221254   T   T   T
  0.7000616031352606  0.5499962619568129  0.6610700861355923   T   T   T
  0.5487655171482437  0.7012797918937325  0.6612858727133000   T   T   T
  0.7718885213126147  0.9540866317660861  0.6886787694923275   T   T   T
  0.9523982148834390  0.7727898413037261  0.6886045444469744   T   T   T
  0.2959208972080504  0.4780791953618009  0.6886011072687434   T   T   T
  0.4771705954302207  0.2976371085228706  0.6886283684948413   T   T   T
 
  0.00000000E+00  0.00000000E+00  0.00000000E+00
  0.00000000E+00  0.00000000E+00  0.00000000E+00
  0.00000000E+00  0.00000000E+00  0.00000000E+00
  0.00000000E+00  0.00000000E+00  0.00000000E+00
  0.00000000E+00  0.00000000E+00  0.00000000E+00
  0.00000000E+00  0.00000000E+00  0.00000000E+00
  0.00000000E+00  0.00000000E+00  0.00000000E+00
  0.00000000E+00  0.00000000E+00  0.00000000E+00
  0.00000000E+00  0.00000000E+00  0.00000000E+00
  0.00000000E+00  0.00000000E+00  0.00000000E+00
  0.00000000E+00  0.00000000E+00  0.00000000E+00
  0.00000000E+00  0.00000000E+00  0.00000000E+00
  0.00000000E+00  0.00000000E+00  0.00000000E+00
  0.00000000E+00  0.00000000E+00  0.00000000E+00
  0.00000000E+00  0.00000000E+00  0.00000000E+00
  0.00000000E+00  0.00000000E+00  0.00000000E+00
  0.00000000E+00  0.00000000E+00  0.00000000E+00
  0.00000000E+00  0.00000000E+00  0.00000000E+00
  0.00000000E+00  0.00000000E+00  0.00000000E+00
  0.00000000E+00  0.00000000E+00  0.00000000E+00
  0.00000000E+00  0.00000000E+00  0.00000000E+00
  0.00000000E+00  0.00000000E+00  0.00000000E+00
  0.00000000E+00  0.00000000E+00  0.00000000E+00
  0.00000000E+00  0.00000000E+00  0.00000000E+00
  0.00000000E+00  0.00000000E+00  0.00000000E+00
  0.00000000E+00  0.00000000E+00  0.00000000E+00
  0.00000000E+00  0.00000000E+00  0.00000000E+00
  0.00000000E+00  0.00000000E+00  0.00000000E+00
  0.00000000E+00  0.00000000E+00  0.00000000E+00
  0.00000000E+00  0.00000000E+00  0.00000000E+00
  0.00000000E+00  0.00000000E+00  0.00000000E+00
  0.00000000E+00  0.00000000E+00  0.00000000E+00
  0.00000000E+00  0.00000000E+00  0.00000000E+00
  0.00000000E+00  0.00000000E+00  0.00000000E+00
  0.00000000E+00  0.00000000E+00  0.00000000E+00
  0.00000000E+00  0.00000000E+00  0.00000000E+00
  0.00000000E+00  0.00000000E+00  0.00000000E+00
  0.00000000E+00  0.00000000E+00  0.00000000E+00
  0.00000000E+00  0.00000000E+00  0.00000000E+00
  0.00000000E+00  0.00000000E+00  0.00000000E+00
  0.00000000E+00  0.00000000E+00  0.00000000E+00
  0.00000000E+00  0.00000000E+00  0.00000000E+00
  0.00000000E+00  0.00000000E+00  0.00000000E+00
  0.00000000E+00  0.00000000E+00  0.00000000E+00
  0.00000000E+00  0.00000000E+00  0.00000000E+00
  0.00000000E+00  0.00000000E+00  0.00000000E+00
  0.00000000E+00  0.00000000E+00  0.00000000E+00
  0.00000000E+00  0.00000000E+00  0.00000000E+00
  0.00000000E+00  0.00000000E+00  0.00000000E+00
  0.00000000E+00  0.00000000E+00  0.00000000E+00
  0.00000000E+00  0.00000000E+00  0.00000000E+00
  0.00000000E+00  0.00000000E+00  0.00000000E+00
  0.00000000E+00  0.00000000E+00  0.00000000E+00
  0.00000000E+00  0.00000000E+00  0.00000000E+00
  0.00000000E+00  0.00000000E+00  0.00000000E+00
  0.00000000E+00  0.00000000E+00  0.00000000E+00
  0.00000000E+00  0.00000000E+00  0.00000000E+00
  0.00000000E+00  0.00000000E+00  0.00000000E+00
  0.00000000E+00  0.00000000E+00  0.00000000E+00
  0.00000000E+00  0.00000000E+00  0.00000000E+00
  0.00000000E+00  0.00000000E+00  0.00000000E+00
  0.00000000E+00  0.00000000E+00  0.00000000E+00
  0.00000000E+00  0.00000000E+00  0.00000000E+00
  0.00000000E+00  0.00000000E+00  0.00000000E+00
  0.00000000E+00  0.00000000E+00  0.00000000E+00
  0.00000000E+00  0.00000000E+00  0.00000000E+00
  0.00000000E+00  0.00000000E+00  0.00000000E+00
  0.00000000E+00  0.00000000E+00  0.00000000E+00
  0.00000000E+00  0.00000000E+00  0.00000000E+00
  0.00000000E+00  0.00000000E+00  0.00000000E+00
  0.00000000E+00  0.00000000E+00  0.00000000E+00
  0.00000000E+00  0.00000000E+00  0.00000000E+00
  0.00000000E+00  0.00000000E+00  0.00000000E+00
  0.00000000E+00  0.00000000E+00  0.00000000E+00
