Cu48 C4 N2 F4                           
    1.000000000000000     
    10.2424774999999997    0.0000000000000000    0.0000000000000000
     0.0000000000000000   14.4850505999999992    0.0000000000000000
     0.0000000000000000    0.0000000000000000   15.4644450100000004
   Cu   C    N    F 
    48     4     2     4
Selective dynamics
Direct
  0.2500235602275040  0.2500721902078951  0.4029266070845168   T   T   T
  0.2500513344813200  0.4998873770357335  0.4030031475483682   T   T   T
  0.2499382743453467  0.7500597662245880  0.4028764462767072   T   T   T
  0.2500075142342837  0.9999921540832588  0.4029200531206527   T   T   T
  0.4999189278604561  0.2499391444081454  0.4028312850467159   T   T   T
  0.5000010878169903  0.4999940696302403  0.4031222307154607   T   T   T
  0.5000824645190676  0.7500639137428848  0.4028419990011471   T   T   T
  0.4999999690991501  0.0000027875993496  0.4029192897102760   T   T   T
  0.7500571659920041  0.2499421378734468  0.4028685127490448   T   T   T
  0.7499483793021327  0.5001066408142520  0.4030004919678163   T   T   T
  0.7499811303807675  0.7499284563579423  0.4029294305262781   T   T   T
  0.7499929468901811  0.0000110777927205  0.4029182020771600   T   T   T
  0.0000144444907022  0.2500497014024461  0.4029166673582623   T   T   T
  0.9999993706989301  0.5000000395475155  0.4029085614768277   T   T   T
  0.9999843748506692  0.7499498175060424  0.4029167358431138   T   T   T
  0.9999997278688326  0.0000003717315451  0.4028972521324334   T   T   T
  0.1250150318534082  0.1250226020250409  0.4822041736454068   T   T   T
  0.1250002295200332  0.3750131536517642  0.4823345382264534   T   T   T
  0.1250951037228063  0.6249286900993596  0.4824043794042936   T   T   T
  0.1250033196065559  0.8749961769977190  0.4821978050817606   T   T   T
  0.3749948201894284  0.1250763673454145  0.4822101942293813   T   T   T
  0.3750707976989389  0.3748838536410659  0.4829850385673495   T   T   T
  0.3749109506140655  0.6249186322129319  0.4817905725741269   T   T   T
  0.3750065809921423  0.8749575686112721  0.4822213753384474   T   T   T
  0.6249915276858076  0.1250476725034062  0.4822169294550847   T   T   T
  0.6250911598193909  0.3750755792027718  0.4817848225401278   T   T   T
  0.6249294422008731  0.6251112048508176  0.4829864796306680   T   T   T
  0.6250078335701730  0.8749288084316973  0.4822156423578292   T   T   T
  0.8749941673347124  0.1250071076227357  0.4821978211591542   T   T   T
  0.8749050196548893  0.3750684169058616  0.4824056829591541   T   T   T
  0.8749977939175153  0.6249838670692895  0.4823314705044837   T   T   T
  0.8749870947418046  0.8749797994794903  0.4822042789908778   T   T   T
  0.1250000002440785  0.1249999996548183  0.3233223046004383   F   F   F
  0.1250000002440785  0.3749999989644479  0.3233223046004383   F   F   F
  0.1250000002440785  0.6249999982740846  0.3233223046004383   F   F   F
  0.1250000002440785  0.8749999975837142  0.3233223046004383   F   F   F
  0.3749999997559215  0.1249999996548183  0.3233223046004383   F   F   F
  0.3749999997559215  0.3749999989644479  0.3233223046004383   F   F   F
  0.3749999997559215  0.6249999982740846  0.3233223046004383   F   F   F
  0.3749999997559215  0.8749999975837142  0.3233223046004383   F   F   F
  0.6249999982914289  0.1249999996548183  0.3233223046004383   F   F   F
  0.6249999992677573  0.3749999989644479  0.3233223046004383   F   F   F
  0.6249999992677573  0.6249999982740846  0.3233223046004383   F   F   F
  0.6249999992677573  0.8749999975837142  0.3233223046004383   F   F   F
  0.8749999987795931  0.1249999996548183  0.3233223046004383   F   F   F
  0.8749999978032648  0.3749999989644479  0.3233223046004383   F   F   F
  0.8749999987795931  0.6249999982740846  0.3233223046004383   F   F   F
  0.8749999987795931  0.8749999975837142  0.3233223046004383   F   F   F
  0.5502532853307898  0.4155762003452068  0.6757772094520860   T   T   T
  0.6293744161673303  0.4945081759682495  0.6760742007749485   T   T   T
  0.4497523538212320  0.5844267083981123  0.6757779569754874   T   T   T
  0.3706296786404977  0.5054931900113786  0.6760750877003758   T   T   T
  0.5782079667461559  0.5780054496370823  0.6763208187081062   T   T   T
  0.4217966172235208  0.4219966647501039  0.6763216305601603   T   T   T
  0.2401101323706030  0.5128060616477583  0.6769936006516915   T   T   T
  0.3967554707480616  0.6693273908022164  0.6775291472350418   T   T   T
  0.6032416285319684  0.3306735356165973  0.6775255299210841   T   T   T
  0.7598938259680068  0.4871980503857927  0.6769917336693041   T   T   T
 
  0.00000000E+00  0.00000000E+00  0.00000000E+00
  0.00000000E+00  0.00000000E+00  0.00000000E+00
  0.00000000E+00  0.00000000E+00  0.00000000E+00
  0.00000000E+00  0.00000000E+00  0.00000000E+00
  0.00000000E+00  0.00000000E+00  0.00000000E+00
  0.00000000E+00  0.00000000E+00  0.00000000E+00
  0.00000000E+00  0.00000000E+00  0.00000000E+00
  0.00000000E+00  0.00000000E+00  0.00000000E+00
  0.00000000E+00  0.00000000E+00  0.00000000E+00
  0.00000000E+00  0.00000000E+00  0.00000000E+00
  0.00000000E+00  0.00000000E+00  0.00000000E+00
  0.00000000E+00  0.00000000E+00  0.00000000E+00
  0.00000000E+00  0.00000000E+00  0.00000000E+00
  0.00000000E+00  0.00000000E+00  0.00000000E+00
  0.00000000E+00  0.00000000E+00  0.00000000E+00
  0.00000000E+00  0.00000000E+00  0.00000000E+00
  0.00000000E+00  0.00000000E+00  0.00000000E+00
  0.00000000E+00  0.00000000E+00  0.00000000E+00
  0.00000000E+00  0.00000000E+00  0.00000000E+00
  0.00000000E+00  0.00000000E+00  0.00000000E+00
  0.00000000E+00  0.00000000E+00  0.00000000E+00
  0.00000000E+00  0.00000000E+00  0.00000000E+00
  0.00000000E+00  0.00000000E+00  0.00000000E+00
  0.00000000E+00  0.00000000E+00  0.00000000E+00
  0.00000000E+00  0.00000000E+00  0.00000000E+00
  0.00000000E+00  0.00000000E+00  0.00000000E+00
  0.00000000E+00  0.00000000E+00  0.00000000E+00
  0.00000000E+00  0.00000000E+00  0.00000000E+00
  0.00000000E+00  0.00000000E+00  0.00000000E+00
  0.00000000E+00  0.00000000E+00  0.00000000E+00
  0.00000000E+00  0.00000000E+00  0.00000000E+00
  0.00000000E+00  0.00000000E+00  0.00000000E+00
  0.00000000E+00  0.00000000E+00  0.00000000E+00
  0.00000000E+00  0.00000000E+00  0.00000000E+00
  0.00000000E+00  0.00000000E+00  0.00000000E+00
  0.00000000E+00  0.00000000E+00  0.00000000E+00
  0.00000000E+00  0.00000000E+00  0.00000000E+00
  0.00000000E+00  0.00000000E+00  0.00000000E+00
  0.00000000E+00  0.00000000E+00  0.00000000E+00
  0.00000000E+00  0.00000000E+00  0.00000000E+00
  0.00000000E+00  0.00000000E+00  0.00000000E+00
  0.00000000E+00  0.00000000E+00  0.00000000E+00
  0.00000000E+00  0.00000000E+00  0.00000000E+00
  0.00000000E+00  0.00000000E+00  0.00000000E+00
  0.00000000E+00  0.00000000E+00  0.00000000E+00
  0.00000000E+00  0.00000000E+00  0.00000000E+00
  0.00000000E+00  0.00000000E+00  0.00000000E+00
  0.00000000E+00  0.00000000E+00  0.00000000E+00
  0.00000000E+00  0.00000000E+00  0.00000000E+00
  0.00000000E+00  0.00000000E+00  0.00000000E+00
  0.00000000E+00  0.00000000E+00  0.00000000E+00
  0.00000000E+00  0.00000000E+00  0.00000000E+00
  0.00000000E+00  0.00000000E+00  0.00000000E+00
  0.00000000E+00  0.00000000E+00  0.00000000E+00
  0.00000000E+00  0.00000000E+00  0.00000000E+00
  0.00000000E+00  0.00000000E+00  0.00000000E+00
  0.00000000E+00  0.00000000E+00  0.00000000E+00
  0.00000000E+00  0.00000000E+00  0.00000000E+00
