Rh48 C6 Cl2 H4                          
    1.000000000000000     
    10.8856652999999994    0.0000000000000000    0.0000000000000000
     0.0000000000000000   15.3946555000000007    0.0000000000000000
     0.0000000000000000    0.0000000000000000   15.4475821700000004
   Rh   C    Cl   H 
    48     6     2     4
Selective dynamics
Direct
  0.2525166445016325  0.2520680074096759  0.4035056479225574   T   T   T
  0.2496430533651122  0.5010767109075687  0.4021280815122807   T   T   T
  0.2488368659871298  0.7491221278611420  0.4045350111235351   T   T   T
  0.2500254359351075  0.9998262543344794  0.4020523126575313   T   T   T
  0.5008256188058624  0.2514793268797959  0.4032901559506570   T   T   T
  0.4999931394954515  0.4999949395324066  0.3966231125906887   T   T   T
  0.4991746615201080  0.7485286231536890  0.4032684144372709   T   T   T
  0.4999927363657548  0.0000034976228207  0.4040363982520745   T   T   T
  0.7511401642871149  0.2508801091303283  0.4045205489423012   T   T   T
  0.7503851379095110  0.4989287826259314  0.4021222507358075   T   T   T
  0.7474926811968956  0.7479346729154344  0.4034957335137079   T   T   T
  0.7499794653624861  0.0001696636145638  0.4020463264505736   T   T   T
  0.0025771202595237  0.2512103087390969  0.4044515860068145   T   T   T
  0.9999985315314106  0.5000002846495875  0.4038885087289685   T   T   T
  0.9974499868160080  0.7487928378737720  0.4044365693572871   T   T   T
  0.0000058221402099  0.9999821086779761  0.4007291199423975   T   T   T
  0.1260597737375093  0.1252671786486275  0.4818868261834481   T   T   T
  0.1329522548604629  0.3787011847760269  0.4850012503884713   T   T   T
  0.1209689427503093  0.6252083580130758  0.4819122312709609   T   T   T
  0.1237657206546103  0.8750056884610871  0.4819582928562767   T   T   T
  0.3749779309844428  0.1251926645079919  0.4818531940714976   T   T   T
  0.3855962546341374  0.3858396971803586  0.4867188282919770   T   T   T
  0.3674493712507214  0.6240308886650752  0.4850419620872870   T   T   T
  0.3746148082288983  0.8745743307343403  0.4818408342092013   T   T   T
  0.6253934548281137  0.1254272469926718  0.4818197556133939   T   T   T
  0.6325707588041993  0.3759578175029574  0.4850109111891996   T   T   T
  0.6144184567170115  0.6141920844059854  0.4866887107440974   T   T   T
  0.6250029132900252  0.8748121427465350  0.4818609091312780   T   T   T
  0.8762388666143011  0.1249838255429552  0.4819649761347691   T   T   T
  0.8790625688635458  0.3747756330357745  0.4819071341547385   T   T   T
  0.8670145188718621  0.6212872587936644  0.4850452177185929   T   T   T
  0.8739454283601731  0.8747242489610301  0.4818464427071874   T   T   T
  0.1249999997703384  0.1250000001623945  0.3236752486554337   F   F   F
  0.1249999997703384  0.3750000004871836  0.3236752486554337   F   F   F
  0.1250000006889778  0.6250000014615438  0.3236752486554337   F   F   F
  0.1250000006889778  0.8750000017863329  0.3236752486554337   F   F   F
  0.3750000002296616  0.1250000001623945  0.3236752486554337   F   F   F
  0.3750000002296616  0.3750000004871836  0.3236752486554337   F   F   F
  0.3750000011483010  0.6250000014615438  0.3236752486554337   F   F   F
  0.3750000011483010  0.8750000017863329  0.3236752486554337   F   F   F
  0.6250000006889778  0.1250000001623945  0.3236752486554337   F   F   F
  0.6250000006889778  0.3750000004871836  0.3236752486554337   F   F   F
  0.6250000006889778  0.6250000014615438  0.3236752486554337   F   F   F
  0.6250000006889778  0.8750000017863329  0.3236752486554337   F   F   F
  0.8750000011483010  0.1250000001623945  0.3236752486554337   F   F   F
  0.8750000011483010  0.3750000004871836  0.3236752486554337   F   F   F
  0.8750000020669404  0.6250000014615438  0.3236752486554337   F   F   F
  0.8750000011483010  0.8750000017863329  0.3236752486554337   F   F   F
  0.3762916878161420  0.4629548637502339  0.6002304798137672   T   T   T
  0.3938991327376513  0.5588708875847459  0.6037119506453124   T   T   T
  0.5198097798222605  0.5932352219871930  0.6125087105554030   T   T   T
  0.6239131505501518  0.5371321039489416  0.6001857601646137   T   T   T
  0.6063720477113677  0.4412070492036690  0.6036956946747765   T   T   T
  0.4804397928252371  0.4068271290725747  0.6124776154714766   T   T   T
  0.2260314999436233  0.4287422554189320  0.6400787206983480   T   T   T
  0.7743324182786750  0.5712811420249935  0.6398451441595725   T   T   T
  0.3261379513413800  0.5914070180367901  0.6451413864958866   T   T   T
  0.5298539830393523  0.6545935149638993  0.6470398517817060   T   T   T
  0.6741732987854689  0.4086313337599350  0.6450838647937616   T   T   T
  0.4704784220070195  0.3454414155615453  0.6470422456269347   T   T   T
 
  0.00000000E+00  0.00000000E+00  0.00000000E+00
  0.00000000E+00  0.00000000E+00  0.00000000E+00
  0.00000000E+00  0.00000000E+00  0.00000000E+00
  0.00000000E+00  0.00000000E+00  0.00000000E+00
  0.00000000E+00  0.00000000E+00  0.00000000E+00
  0.00000000E+00  0.00000000E+00  0.00000000E+00
  0.00000000E+00  0.00000000E+00  0.00000000E+00
  0.00000000E+00  0.00000000E+00  0.00000000E+00
  0.00000000E+00  0.00000000E+00  0.00000000E+00
  0.00000000E+00  0.00000000E+00  0.00000000E+00
  0.00000000E+00  0.00000000E+00  0.00000000E+00
  0.00000000E+00  0.00000000E+00  0.00000000E+00
  0.00000000E+00  0.00000000E+00  0.00000000E+00
  0.00000000E+00  0.00000000E+00  0.00000000E+00
  0.00000000E+00  0.00000000E+00  0.00000000E+00
  0.00000000E+00  0.00000000E+00  0.00000000E+00
  0.00000000E+00  0.00000000E+00  0.00000000E+00
  0.00000000E+00  0.00000000E+00  0.00000000E+00
  0.00000000E+00  0.00000000E+00  0.00000000E+00
  0.00000000E+00  0.00000000E+00  0.00000000E+00
  0.00000000E+00  0.00000000E+00  0.00000000E+00
  0.00000000E+00  0.00000000E+00  0.00000000E+00
  0.00000000E+00  0.00000000E+00  0.00000000E+00
  0.00000000E+00  0.00000000E+00  0.00000000E+00
  0.00000000E+00  0.00000000E+00  0.00000000E+00
  0.00000000E+00  0.00000000E+00  0.00000000E+00
  0.00000000E+00  0.00000000E+00  0.00000000E+00
  0.00000000E+00  0.00000000E+00  0.00000000E+00
  0.00000000E+00  0.00000000E+00  0.00000000E+00
  0.00000000E+00  0.00000000E+00  0.00000000E+00
  0.00000000E+00  0.00000000E+00  0.00000000E+00
  0.00000000E+00  0.00000000E+00  0.00000000E+00
  0.00000000E+00  0.00000000E+00  0.00000000E+00
  0.00000000E+00  0.00000000E+00  0.00000000E+00
  0.00000000E+00  0.00000000E+00  0.00000000E+00
  0.00000000E+00  0.00000000E+00  0.00000000E+00
  0.00000000E+00  0.00000000E+00  0.00000000E+00
  0.00000000E+00  0.00000000E+00  0.00000000E+00
  0.00000000E+00  0.00000000E+00  0.00000000E+00
  0.00000000E+00  0.00000000E+00  0.00000000E+00
  0.00000000E+00  0.00000000E+00  0.00000000E+00
  0.00000000E+00  0.00000000E+00  0.00000000E+00
  0.00000000E+00  0.00000000E+00  0.00000000E+00
  0.00000000E+00  0.00000000E+00  0.00000000E+00
  0.00000000E+00  0.00000000E+00  0.00000000E+00
  0.00000000E+00  0.00000000E+00  0.00000000E+00
  0.00000000E+00  0.00000000E+00  0.00000000E+00
  0.00000000E+00  0.00000000E+00  0.00000000E+00
  0.00000000E+00  0.00000000E+00  0.00000000E+00
  0.00000000E+00  0.00000000E+00  0.00000000E+00
  0.00000000E+00  0.00000000E+00  0.00000000E+00
  0.00000000E+00  0.00000000E+00  0.00000000E+00
  0.00000000E+00  0.00000000E+00  0.00000000E+00
  0.00000000E+00  0.00000000E+00  0.00000000E+00
  0.00000000E+00  0.00000000E+00  0.00000000E+00
  0.00000000E+00  0.00000000E+00  0.00000000E+00
  0.00000000E+00  0.00000000E+00  0.00000000E+00
  0.00000000E+00  0.00000000E+00  0.00000000E+00
  0.00000000E+00  0.00000000E+00  0.00000000E+00
  0.00000000E+00  0.00000000E+00  0.00000000E+00
