Ag48 C6 Br6                             
    1.000000000000000     
    11.7678089999999997    0.0000000000000000    0.0000000000000000
    -5.8839040000000002   10.1912210000000005    0.0000000000000000
     0.0000000000000000    0.0000000000000000   17.8055920000000008
   Ag   C    Br
    48     6     6
Selective dynamics
Direct
  0.0833330000000032  0.1666669999999968  0.3369730000000004   F   F   F
  0.0833330000000032  0.4166669999999968  0.3369730000000004   F   F   F
  0.0833330000000032  0.6666669999999968  0.3369730000000004   F   F   F
  0.0833330000000032  0.9166669999999968  0.3369730000000004   F   F   F
  0.3333330000000032  0.1666669999999968  0.3369730000000004   F   F   F
  0.3333330000000032  0.4166669999999968  0.3369730000000004   F   F   F
  0.3333330000000032  0.6666669999999968  0.3369730000000004   F   F   F
  0.3333330000000032  0.9166669999999968  0.3369730000000004   F   F   F
  0.5833330000000032  0.1666669999999968  0.3369730000000004   F   F   F
  0.5833330000000032  0.4166669999999968  0.3369730000000004   F   F   F
  0.5833330000000032  0.6666669999999968  0.3369730000000004   F   F   F
  0.5833330000000032  0.9166669999999968  0.3369730000000004   F   F   F
  0.8333330000000032  0.1666669999999968  0.3369730000000004   F   F   F
  0.8333330000000032  0.4166669999999968  0.3369730000000004   F   F   F
  0.8333330000000032  0.6666669999999968  0.3369730000000004   F   F   F
  0.8333330000000032  0.9166669999999968  0.3369730000000004   F   F   F
  0.2504880087079400  0.2504977459039566  0.5892855206205212   T   T   T
  0.2498101529767638  0.5001405977085511  0.5892872148214678   T   T   T
  0.2500355710029254  0.7501692174764685  0.5897187627905041   T   T   T
  0.2499022421111974  0.0000693297522645  0.5900737872165038   T   T   T
  0.5000535897733869  0.2498572953476597  0.5893068821397733   T   T   T
  0.4993245797410069  0.4993386015820320  0.5892317433870673   T   T   T
  0.5000060960818615  0.7497703707982168  0.5900923010996380   T   T   T
  0.4999357204818367  0.9997743876884897  0.5897438585785792   T   T   T
  0.7501644954427533  0.2500450898209152  0.5897366491307423   T   T   T
  0.7498367623953399  0.5000419777577036  0.5900521441816906   T   T   T
  0.7499408579538382  0.7499233112257713  0.5899581628672834   T   T   T
  0.7499100452762590  0.0000490279668597  0.5898741733185560   T   T   T
  0.0001791406323903  0.2499604763260947  0.5900891654006415   T   T   T
  0.9997749903372011  0.4999424081167376  0.5897131774227944   T   T   T
  0.9999849429348089  0.7499737182986834  0.5898569065151804   T   T   T
  0.9999773823620188  0.9999630047935781  0.5899744143311523   T   T   T
  0.1664438371180523  0.0829315803190127  0.4634634716804769   T   T   T
  0.1662016594652869  0.3332140181249557  0.4632675732724962   T   T   T
  0.1665127314671224  0.5835434625675191  0.4632752782934659   T   T   T
  0.1666257101454036  0.8334921777704665  0.4635515111796948   T   T   T
  0.4163788828313244  0.0829286864468770  0.4634096896402440   T   T   T
  0.4167661757651047  0.3330552277139915  0.4629119045636116   T   T   T
  0.4167313273846247  0.5838143992372480  0.4632587515336795   T   T   T
  0.4167248356598137  0.8330931675888422  0.4635679274432647   T   T   T
  0.6666759930337420  0.0833745200433640  0.4634962754223011   T   T   T
  0.6670032159972124  0.3335324797517671  0.4634039308843043   T   T   T
  0.6670559107849598  0.5835739834653566  0.4634538059731952   T   T   T
  0.6666073228935545  0.8332471267349391  0.4635972207938508   T   T   T
  0.9167095091386628  0.0833835164417351  0.4636009428161998   T   T   T
  0.9168197908330669  0.3331916391500656  0.4635697243184609   T   T   T
  0.9164416083223443  0.5833703353450375  0.4635540812495051   T   T   T
  0.9165791358646374  0.8333128254546978  0.4636192369450569   T   T   T
  0.3060144656867649  0.2370222667098005  0.7777832398540312   T   T   T
  0.2370336076796775  0.3060750196769106  0.7777713436818630   T   T   T
  0.3061623558901374  0.4441001887688429  0.7778816851674435   T   T   T
  0.4441607284384048  0.5131887593767175  0.7777797470111452   T   T   T
  0.5132096451741859  0.4441855109255215  0.7777873222181810   T   T   T
  0.4440723534757254  0.3061016287275535  0.7779120590069653   T   T   T
  0.2134944151182196  0.0517569020791697  0.7765449336028709   T   T   T
  0.0517579183724308  0.2135827238632899  0.7765774180992366   T   T   T
  0.2135254600894001  0.5367478155489351  0.7761728264014209   T   T   T
  0.5367316450406889  0.6984760528929144  0.7765975336815742   T   T   T
  0.6984773810667804  0.5366362364178130  0.7765356790048514   T   T   T
  0.5366722859036912  0.2134434980332145  0.7762413543277660   T   T   T
 
  0.00000000E+00  0.00000000E+00  0.00000000E+00
  0.00000000E+00  0.00000000E+00  0.00000000E+00
  0.00000000E+00  0.00000000E+00  0.00000000E+00
  0.00000000E+00  0.00000000E+00  0.00000000E+00
  0.00000000E+00  0.00000000E+00  0.00000000E+00
  0.00000000E+00  0.00000000E+00  0.00000000E+00
  0.00000000E+00  0.00000000E+00  0.00000000E+00
  0.00000000E+00  0.00000000E+00  0.00000000E+00
  0.00000000E+00  0.00000000E+00  0.00000000E+00
  0.00000000E+00  0.00000000E+00  0.00000000E+00
  0.00000000E+00  0.00000000E+00  0.00000000E+00
  0.00000000E+00  0.00000000E+00  0.00000000E+00
  0.00000000E+00  0.00000000E+00  0.00000000E+00
  0.00000000E+00  0.00000000E+00  0.00000000E+00
  0.00000000E+00  0.00000000E+00  0.00000000E+00
  0.00000000E+00  0.00000000E+00  0.00000000E+00
  0.00000000E+00  0.00000000E+00  0.00000000E+00
  0.00000000E+00  0.00000000E+00  0.00000000E+00
  0.00000000E+00  0.00000000E+00  0.00000000E+00
  0.00000000E+00  0.00000000E+00  0.00000000E+00
  0.00000000E+00  0.00000000E+00  0.00000000E+00
  0.00000000E+00  0.00000000E+00  0.00000000E+00
  0.00000000E+00  0.00000000E+00  0.00000000E+00
  0.00000000E+00  0.00000000E+00  0.00000000E+00
  0.00000000E+00  0.00000000E+00  0.00000000E+00
  0.00000000E+00  0.00000000E+00  0.00000000E+00
  0.00000000E+00  0.00000000E+00  0.00000000E+00
  0.00000000E+00  0.00000000E+00  0.00000000E+00
  0.00000000E+00  0.00000000E+00  0.00000000E+00
  0.00000000E+00  0.00000000E+00  0.00000000E+00
  0.00000000E+00  0.00000000E+00  0.00000000E+00
  0.00000000E+00  0.00000000E+00  0.00000000E+00
  0.00000000E+00  0.00000000E+00  0.00000000E+00
  0.00000000E+00  0.00000000E+00  0.00000000E+00
  0.00000000E+00  0.00000000E+00  0.00000000E+00
  0.00000000E+00  0.00000000E+00  0.00000000E+00
  0.00000000E+00  0.00000000E+00  0.00000000E+00
  0.00000000E+00  0.00000000E+00  0.00000000E+00
  0.00000000E+00  0.00000000E+00  0.00000000E+00
  0.00000000E+00  0.00000000E+00  0.00000000E+00
  0.00000000E+00  0.00000000E+00  0.00000000E+00
  0.00000000E+00  0.00000000E+00  0.00000000E+00
  0.00000000E+00  0.00000000E+00  0.00000000E+00
  0.00000000E+00  0.00000000E+00  0.00000000E+00
  0.00000000E+00  0.00000000E+00  0.00000000E+00
  0.00000000E+00  0.00000000E+00  0.00000000E+00
  0.00000000E+00  0.00000000E+00  0.00000000E+00
  0.00000000E+00  0.00000000E+00  0.00000000E+00
  0.00000000E+00  0.00000000E+00  0.00000000E+00
  0.00000000E+00  0.00000000E+00  0.00000000E+00
  0.00000000E+00  0.00000000E+00  0.00000000E+00
  0.00000000E+00  0.00000000E+00  0.00000000E+00
  0.00000000E+00  0.00000000E+00  0.00000000E+00
  0.00000000E+00  0.00000000E+00  0.00000000E+00
  0.00000000E+00  0.00000000E+00  0.00000000E+00
  0.00000000E+00  0.00000000E+00  0.00000000E+00
  0.00000000E+00  0.00000000E+00  0.00000000E+00
  0.00000000E+00  0.00000000E+00  0.00000000E+00
  0.00000000E+00  0.00000000E+00  0.00000000E+00
  0.00000000E+00  0.00000000E+00  0.00000000E+00
