Cu48 H4 C6 F2                           
    1.000000000000000     
    10.2424769999999992    0.0000000000000000    0.0000000000000000
    -5.1212390000000001    8.8702459999999999    0.0000000000000000
     0.0000000000000000    0.0000000000000000   17.1888280000000009
   Cu   H    C    F 
    48     4     6     2
Selective dynamics
Direct
  0.0833330000000032  0.1666669999999968  0.3490639999999985   F   F   F
  0.0833330000000032  0.4166669999999968  0.3490639999999985   F   F   F
  0.0833330000000032  0.6666669999999968  0.3490639999999985   F   F   F
  0.0833330000000032  0.9166669999999968  0.3490639999999985   F   F   F
  0.3333330000000032  0.1666669999999968  0.3490639999999985   F   F   F
  0.3333330000000032  0.4166669999999968  0.3490639999999985   F   F   F
  0.3333330000000032  0.6666669999999968  0.3490639999999985   F   F   F
  0.3333330000000032  0.9166669999999968  0.3490639999999985   F   F   F
  0.5833330000000032  0.1666669999999968  0.3490639999999985   F   F   F
  0.5833330000000032  0.4166669999999968  0.3490639999999985   F   F   F
  0.5833330000000032  0.6666669999999968  0.3490639999999985   F   F   F
  0.5833330000000032  0.9166669999999968  0.3490639999999985   F   F   F
  0.8333330000000032  0.1666669999999968  0.3490639999999985   F   F   F
  0.8333330000000032  0.4166669999999968  0.3490639999999985   F   F   F
  0.8333330000000032  0.6666669999999968  0.3490639999999985   F   F   F
  0.8333330000000032  0.9166669999999968  0.3490639999999985   F   F   F
  0.9990635417172982  0.9993986881770525  0.5882582535628771   T   T   T
  0.9989915190793255  0.2496232613656630  0.5879487850462368   T   T   T
  0.9998989784471206  0.4999511857435124  0.5882862871488257   T   T   T
  0.9999267745186486  0.7499857648212256  0.5883322275733818   T   T   T
  0.2494848779476939  0.9993980779580340  0.5879682579779910   T   T   T
  0.2483202853538486  0.2486536419935277  0.5895530813969359   T   T   T
  0.2500695189203199  0.5000177499327663  0.5872722948430038   T   T   T
  0.2501038215650837  0.7500906350351428  0.5883057207688438   T   T   T
  0.4998607620999493  0.0001993536258809  0.5883970932392231   T   T   T
  0.4999490340194583  0.2502251140235572  0.5874737135860002   T   T   T
  0.5015225341845522  0.5018407659827275  0.5895581972065571   T   T   T
  0.5004566219300486  0.7510040658008137  0.5879649503731983   T   T   T
  0.7498215234457106  0.0001650490928995  0.5884566913729330   T   T   T
  0.7498166669630635  0.2502392476245845  0.5883854663890986   T   T   T
  0.7506332394029940  0.5005734805339941  0.5879510944335848   T   T   T
  0.7505568064058536  0.7508712615766555  0.5882540702404668   T   T   T
  0.1666439239263937  0.0835388332765277  0.4689155151014788   T   T   T
  0.1666353046582856  0.3328522648630639  0.4688439884255260   T   T   T
  0.1666260507680235  0.5833660891601724  0.4686176901491521   T   T   T
  0.1664499698911612  0.8331188176235500  0.4685893503008600   T   T   T
  0.4164242277858250  0.0832816682278903  0.4686101708285193   T   T   T
  0.4163364852500990  0.3337526165095284  0.4694949311844780   T   T   T
  0.4171838886613060  0.5833803211320259  0.4688462829206443   T   T   T
  0.4165625715225545  0.8333817356477269  0.4686594627441352   T   T   T
  0.6665437394203906  0.0835204481799963  0.4687925843410952   T   T   T
  0.6667711532276428  0.3336322519961854  0.4685751370553746   T   T   T
  0.6665006337839188  0.5833637022193372  0.4688771962189051   T   T   T
  0.6668589880889115  0.8336105190868892  0.4686002483582854   T   T   T
  0.9163910376049955  0.0831708278046506  0.4686034973643558   T   T   T
  0.9166138265932702  0.3334687233518068  0.4686316488695468   T   T   T
  0.9168668086603446  0.5835373548209262  0.4685526717134039   T   T   T
  0.9166901713799405  0.8332784948116227  0.4685399089279301   T   T   T
  0.5129027235461763  0.6584016402763808  0.7546006543543911   T   T   T
  0.6556051516033818  0.5160776469956403  0.7551735473291430   T   T   T
  0.2344126782575842  0.0949230145685007  0.7552231706343804   T   T   T
  0.0920643813924968  0.2375392164531647  0.7546473060945118   T   T   T
  0.2966233276346841  0.4538899567664458  0.7596787417784299   T   T   T
  0.4536368179933135  0.5354613763841343  0.7569469825148758   T   T   T
  0.5326563910873290  0.4564368717765817  0.7573179633955078   T   T   T
  0.4510463150363648  0.2994816460790304  0.7602426682888463   T   T   T
  0.2940755631175591  0.2178760359038421  0.7573525941496797   T   T   T
  0.2150291487549296  0.2968738266306516  0.7569831135377356   T   T   T
  0.2196783490559113  0.5306489371586665  0.7631331512804636   T   T   T
  0.5277921834606971  0.2226563064614524  0.7641447292907699   T   T   T
 
  0.00000000E+00  0.00000000E+00  0.00000000E+00
  0.00000000E+00  0.00000000E+00  0.00000000E+00
  0.00000000E+00  0.00000000E+00  0.00000000E+00
  0.00000000E+00  0.00000000E+00  0.00000000E+00
  0.00000000E+00  0.00000000E+00  0.00000000E+00
  0.00000000E+00  0.00000000E+00  0.00000000E+00
  0.00000000E+00  0.00000000E+00  0.00000000E+00
  0.00000000E+00  0.00000000E+00  0.00000000E+00
  0.00000000E+00  0.00000000E+00  0.00000000E+00
  0.00000000E+00  0.00000000E+00  0.00000000E+00
  0.00000000E+00  0.00000000E+00  0.00000000E+00
  0.00000000E+00  0.00000000E+00  0.00000000E+00
  0.00000000E+00  0.00000000E+00  0.00000000E+00
  0.00000000E+00  0.00000000E+00  0.00000000E+00
  0.00000000E+00  0.00000000E+00  0.00000000E+00
  0.00000000E+00  0.00000000E+00  0.00000000E+00
  0.00000000E+00  0.00000000E+00  0.00000000E+00
  0.00000000E+00  0.00000000E+00  0.00000000E+00
  0.00000000E+00  0.00000000E+00  0.00000000E+00
  0.00000000E+00  0.00000000E+00  0.00000000E+00
  0.00000000E+00  0.00000000E+00  0.00000000E+00
  0.00000000E+00  0.00000000E+00  0.00000000E+00
  0.00000000E+00  0.00000000E+00  0.00000000E+00
  0.00000000E+00  0.00000000E+00  0.00000000E+00
  0.00000000E+00  0.00000000E+00  0.00000000E+00
  0.00000000E+00  0.00000000E+00  0.00000000E+00
  0.00000000E+00  0.00000000E+00  0.00000000E+00
  0.00000000E+00  0.00000000E+00  0.00000000E+00
  0.00000000E+00  0.00000000E+00  0.00000000E+00
  0.00000000E+00  0.00000000E+00  0.00000000E+00
  0.00000000E+00  0.00000000E+00  0.00000000E+00
  0.00000000E+00  0.00000000E+00  0.00000000E+00
  0.00000000E+00  0.00000000E+00  0.00000000E+00
  0.00000000E+00  0.00000000E+00  0.00000000E+00
  0.00000000E+00  0.00000000E+00  0.00000000E+00
  0.00000000E+00  0.00000000E+00  0.00000000E+00
  0.00000000E+00  0.00000000E+00  0.00000000E+00
  0.00000000E+00  0.00000000E+00  0.00000000E+00
  0.00000000E+00  0.00000000E+00  0.00000000E+00
  0.00000000E+00  0.00000000E+00  0.00000000E+00
  0.00000000E+00  0.00000000E+00  0.00000000E+00
  0.00000000E+00  0.00000000E+00  0.00000000E+00
  0.00000000E+00  0.00000000E+00  0.00000000E+00
  0.00000000E+00  0.00000000E+00  0.00000000E+00
  0.00000000E+00  0.00000000E+00  0.00000000E+00
  0.00000000E+00  0.00000000E+00  0.00000000E+00
  0.00000000E+00  0.00000000E+00  0.00000000E+00
  0.00000000E+00  0.00000000E+00  0.00000000E+00
  0.00000000E+00  0.00000000E+00  0.00000000E+00
  0.00000000E+00  0.00000000E+00  0.00000000E+00
  0.00000000E+00  0.00000000E+00  0.00000000E+00
  0.00000000E+00  0.00000000E+00  0.00000000E+00
  0.00000000E+00  0.00000000E+00  0.00000000E+00
  0.00000000E+00  0.00000000E+00  0.00000000E+00
  0.00000000E+00  0.00000000E+00  0.00000000E+00
  0.00000000E+00  0.00000000E+00  0.00000000E+00
  0.00000000E+00  0.00000000E+00  0.00000000E+00
  0.00000000E+00  0.00000000E+00  0.00000000E+00
  0.00000000E+00  0.00000000E+00  0.00000000E+00
  0.00000000E+00  0.00000000E+00  0.00000000E+00
