Rh48 C4 N2 F4                           
    1.000000000000000     
    10.8856652999999994    0.0000000000000000    0.0000000000000000
     0.0000000000000000   10.8856652999999994    0.0000000000000000
     0.0000000000000000    0.0000000000000000   16.5533157799999984
   Rh   C    N    F 
    48     4     2     4
Selective dynamics
Direct
  0.9999984983123653  0.9999987999313689  0.4089683182758961   T   T   T
  0.9992991189189340  0.2500056903376802  0.4091523980919618   T   T   T
  0.9999948512118522  0.4999979225780891  0.4089801129518165   T   T   T
  0.0006938675817949  0.7499937571119304  0.4091553519206386   T   T   T
  0.2500109141877402  0.9992996661584783  0.4091550575025593   T   T   T
  0.2502265686194178  0.2502247876976469  0.4094315845878853   T   T   T
  0.2501684101919608  0.4999414985388313  0.4094207646157244   T   T   T
  0.2522108832551595  0.7477977658084214  0.4106028460843234   T   T   T
  0.4999990768479776  0.0000038078468236  0.4089817707123231   T   T   T
  0.4999402507150705  0.2501556183035234  0.4094202408602570   T   T   T
  0.4999987212160519  0.5000023642305749  0.4094788654430914   T   T   T
  0.5000533716294839  0.7498353225921122  0.4094234818922473   T   T   T
  0.7499882302390475  0.0006997073888115  0.4091552247021113   T   T   T
  0.7477926010325646  0.2522014872005940  0.4106001785636550   T   T   T
  0.7498378807842343  0.5000639935597917  0.4094213172233907   T   T   T
  0.7497745604201000  0.7497740422068020  0.4094370323349139   T   T   T
  0.1246878307252999  0.1246850964527368  0.5163849067963895   T   T   T
  0.1233010421822556  0.3743542915726010  0.5165231187815280   T   T   T
  0.1239805734770982  0.6249790442812611  0.5172746665081149   T   T   T
  0.1251669923563199  0.8748322814785681  0.5165128635367964   T   T   T
  0.3743530191287547  0.1232995117724229  0.5165184960039753   T   T   T
  0.3725098606594983  0.3725096554283738  0.5177161564940107   T   T   T
  0.3763874360068300  0.6236161583517656  0.5233298037522047   T   T   T
  0.3750233668247986  0.8760171499633884  0.5172848131352907   T   T   T
  0.6249778561635964  0.1239852656493170  0.5172776897643558   T   T   T
  0.6236256858359255  0.3763869416689758  0.5233035409154496   T   T   T
  0.6274865789723947  0.6274871875292618  0.5177212147880255   T   T   T
  0.6256414584577286  0.8767028517560718  0.5165143911412642   T   T   T
  0.8748312755653913  0.1251677685957304  0.5165064918543223   T   T   T
  0.8760130534568233  0.3750199487437982  0.5172799329888988   T   T   T
  0.8766994771983931  0.6256430272006313  0.5165346173544876   T   T   T
  0.8753138257050921  0.8753149682128125  0.5163915467346030   T   T   T
  0.1249999997703384  0.1249999997703384  0.3020542872770591   F   F   F
  0.1250000006889778  0.3750000002296616  0.3020542872770591   F   F   F
  0.1250000006889778  0.6250000006889778  0.3020542872770591   F   F   F
  0.1250000006889778  0.8750000011483010  0.3020542872770591   F   F   F
  0.3750000011483010  0.1249999997703384  0.3020542872770591   F   F   F
  0.3750000011483010  0.3750000002296616  0.3020542872770591   F   F   F
  0.3750000011483010  0.6250000006889778  0.3020542872770591   F   F   F
  0.3750000011483010  0.8750000011483010  0.3020542872770591   F   F   F
  0.6250000006889778  0.1249999997703384  0.3020542872770591   F   F   F
  0.6250000006889778  0.3750000002296616  0.3020542872770591   F   F   F
  0.6250000016076172  0.6250000006889778  0.3020542872770591   F   F   F
  0.6250000016076172  0.8750000011483010  0.3020542872770591   F   F   F
  0.8750000011483010  0.1249999997703384  0.3020542872770591   F   F   F
  0.8750000011483010  0.3750000002296616  0.3020542872770591   F   F   F
  0.8750000011483010  0.6250000006889778  0.3020542872770591   F   F   F
  0.8750000020669404  0.8750000011483010  0.3020542872770591   F   F   F
  0.4703830004122693  0.6233834198923418  0.6409570463753482   T   T   T
  0.3766198105005358  0.5296911259690944  0.6409567258159257   T   T   T
  0.5296600281774175  0.3766222326091722  0.6409596370655564   T   T   T
  0.6234065688490347  0.4703487852211765  0.6409668646704034   T   T   T
  0.4064091545818727  0.4064004284763882  0.6392675087775714   T   T   T
  0.5935678341419859  0.5935696160027817  0.6392776839325336   T   T   T
  0.7319800414936637  0.4461316217641311  0.6799132636808238   T   T   T
  0.5538375564305440  0.2679934408591222  0.6799076079565651   T   T   T
  0.4461738868313958  0.7319788291583578  0.6799156312145413   T   T   T
  0.2680273715825479  0.5538510080891683  0.6799109736560069   T   T   T
 
  0.00000000E+00  0.00000000E+00  0.00000000E+00
  0.00000000E+00  0.00000000E+00  0.00000000E+00
  0.00000000E+00  0.00000000E+00  0.00000000E+00
  0.00000000E+00  0.00000000E+00  0.00000000E+00
  0.00000000E+00  0.00000000E+00  0.00000000E+00
  0.00000000E+00  0.00000000E+00  0.00000000E+00
  0.00000000E+00  0.00000000E+00  0.00000000E+00
  0.00000000E+00  0.00000000E+00  0.00000000E+00
  0.00000000E+00  0.00000000E+00  0.00000000E+00
  0.00000000E+00  0.00000000E+00  0.00000000E+00
  0.00000000E+00  0.00000000E+00  0.00000000E+00
  0.00000000E+00  0.00000000E+00  0.00000000E+00
  0.00000000E+00  0.00000000E+00  0.00000000E+00
  0.00000000E+00  0.00000000E+00  0.00000000E+00
  0.00000000E+00  0.00000000E+00  0.00000000E+00
  0.00000000E+00  0.00000000E+00  0.00000000E+00
  0.00000000E+00  0.00000000E+00  0.00000000E+00
  0.00000000E+00  0.00000000E+00  0.00000000E+00
  0.00000000E+00  0.00000000E+00  0.00000000E+00
  0.00000000E+00  0.00000000E+00  0.00000000E+00
  0.00000000E+00  0.00000000E+00  0.00000000E+00
  0.00000000E+00  0.00000000E+00  0.00000000E+00
  0.00000000E+00  0.00000000E+00  0.00000000E+00
  0.00000000E+00  0.00000000E+00  0.00000000E+00
  0.00000000E+00  0.00000000E+00  0.00000000E+00
  0.00000000E+00  0.00000000E+00  0.00000000E+00
  0.00000000E+00  0.00000000E+00  0.00000000E+00
  0.00000000E+00  0.00000000E+00  0.00000000E+00
  0.00000000E+00  0.00000000E+00  0.00000000E+00
  0.00000000E+00  0.00000000E+00  0.00000000E+00
  0.00000000E+00  0.00000000E+00  0.00000000E+00
  0.00000000E+00  0.00000000E+00  0.00000000E+00
  0.00000000E+00  0.00000000E+00  0.00000000E+00
  0.00000000E+00  0.00000000E+00  0.00000000E+00
  0.00000000E+00  0.00000000E+00  0.00000000E+00
  0.00000000E+00  0.00000000E+00  0.00000000E+00
  0.00000000E+00  0.00000000E+00  0.00000000E+00
  0.00000000E+00  0.00000000E+00  0.00000000E+00
  0.00000000E+00  0.00000000E+00  0.00000000E+00
  0.00000000E+00  0.00000000E+00  0.00000000E+00
  0.00000000E+00  0.00000000E+00  0.00000000E+00
  0.00000000E+00  0.00000000E+00  0.00000000E+00
  0.00000000E+00  0.00000000E+00  0.00000000E+00
  0.00000000E+00  0.00000000E+00  0.00000000E+00
  0.00000000E+00  0.00000000E+00  0.00000000E+00
  0.00000000E+00  0.00000000E+00  0.00000000E+00
  0.00000000E+00  0.00000000E+00  0.00000000E+00
  0.00000000E+00  0.00000000E+00  0.00000000E+00
  0.00000000E+00  0.00000000E+00  0.00000000E+00
  0.00000000E+00  0.00000000E+00  0.00000000E+00
  0.00000000E+00  0.00000000E+00  0.00000000E+00
  0.00000000E+00  0.00000000E+00  0.00000000E+00
  0.00000000E+00  0.00000000E+00  0.00000000E+00
  0.00000000E+00  0.00000000E+00  0.00000000E+00
  0.00000000E+00  0.00000000E+00  0.00000000E+00
  0.00000000E+00  0.00000000E+00  0.00000000E+00
  0.00000000E+00  0.00000000E+00  0.00000000E+00
  0.00000000E+00  0.00000000E+00  0.00000000E+00
