Pt48 C6 H2 F4                           
    1.000000000000000     
    11.2480068000000006    0.0000000000000000    0.0000000000000000
     0.0000000000000000   11.2480068000000006    0.0000000000000000
     0.0000000000000000    0.0000000000000000   16.9142600799999983
   Pt   C    H    F 
    48     6     2     4
Selective dynamics
Direct
  0.2499645474462753  0.0003280018251601  0.4112958875433748   T   T   T
  0.2503398662575549  0.2503381808188152  0.4117625872467841   T   T   T
  0.2499614701331581  0.4993374417127399  0.4112357469175194   T   T   T
  0.2498255534515437  0.7501731408624934  0.4108655190105281   T   T   T
  0.4999986495352502  0.0000063050836374  0.4112569958844645   T   T   T
  0.4993399766255422  0.2499626982271508  0.4112376351523324   T   T   T
  0.4999987517641102  0.4999946305084606  0.4117422330688711   T   T   T
  0.5006567571384082  0.7500402063591096  0.4112288224910046   T   T   T
  0.7500365621460219  0.9996820684551153  0.4112938453677089   T   T   T
  0.7501712124899171  0.2498269308432128  0.4108684773345033   T   T   T
  0.7500384486471461  0.5006536344291916  0.4112341845141714   T   T   T
  0.7496646186904172  0.7496632378260415  0.4117548237596438   T   T   T
  0.0000010685544680  0.0000036722201742  0.4114042888554224   T   T   T
  0.0003247422434214  0.2499629737301063  0.4112962854173290   T   T   T
  0.0000027716085285  0.4999975398684384  0.4112595141142350   T   T   T
  0.9996792754262245  0.7500348488927315  0.4112958444439911   T   T   T
  0.1249689089663306  0.1249683900388732  0.5273025513773746   T   T   T
  0.1248553538899060  0.3751166725399031  0.5271060675148149   T   T   T
  0.1249724315940313  0.6250261594123359  0.5268044856457408   T   T   T
  0.1250875892717076  0.8749145692835825  0.5268137562766952   T   T   T
  0.3751179850847848  0.1248561792924079  0.5271104375971660   T   T   T
  0.3747836802331008  0.3747849230413323  0.5296855515231371   T   T   T
  0.3741640494443956  0.6258383250238566  0.5257053317712703   T   T   T
  0.3749738593226652  0.8750313070619313  0.5267962472416343   T   T   T
  0.6250257587854549  0.1249719498124762  0.5268053481054054   T   T   T
  0.6258355181966309  0.3741635439409876  0.5257089911505872   T   T   T
  0.6252138663281173  0.6252191561711200  0.5296649095833530   T   T   T
  0.6248810552701514  0.8751464237553463  0.5270953791783697   T   T   T
  0.8749136493520879  0.1250873462483497  0.5268201866428441   T   T   T
  0.8750299453134147  0.3749705531326555  0.5267972655162225   T   T   T
  0.8751449058200294  0.6248816119599496  0.5271022776693002   T   T   T
  0.8750318666904562  0.8750333163124182  0.5272878232076863   T   T   T
  0.1250000008890453  0.1250000000000000  0.2956085561148569   F   F   F
  0.1250000008890453  0.3750000008890453  0.2956085561148569   F   F   F
  0.1250000008890453  0.6250000026671358  0.2956085561148569   F   F   F
  0.1250000008890453  0.8750000026671358  0.2956085561148569   F   F   F
  0.3750000017780906  0.1250000000000000  0.2956085561148569   F   F   F
  0.3750000017780906  0.3750000008890453  0.2956085561148569   F   F   F
  0.3750000017780906  0.6250000026671358  0.2956085561148569   F   F   F
  0.3750000017780906  0.8750000026671358  0.2956085561148569   F   F   F
  0.6250000026671358  0.1250000000000000  0.2956085561148569   F   F   F
  0.6250000026671358  0.3750000008890453  0.2956085561148569   F   F   F
  0.6250000026671358  0.6250000026671358  0.2956085561148569   F   F   F
  0.6250000026671358  0.8750000026671358  0.2956085561148569   F   F   F
  0.8750000035561882  0.1250000000000000  0.2956085561148569   F   F   F
  0.8750000026671358  0.3750000008890453  0.2956085561148569   F   F   F
  0.8750000035561882  0.6250000026671358  0.2956085561148569   F   F   F
  0.8750000035561882  0.8750000026671358  0.2956085561148569   F   F   F
  0.4112169845494620  0.4112241112399531  0.6998120904619327   T   T   T
  0.3803889486815066  0.5316882520059778  0.7023595756534391   T   T   T
  0.4682492317183176  0.6195653040862226  0.7023669024394792   T   T   T
  0.5887352220723514  0.5887642394984169  0.6998265746701620   T   T   T
  0.6195794068245419  0.4682584799398910  0.7023356952647930   T   T   T
  0.5316755329105192  0.3803903947572849  0.7023270597883240   T   T   T
  0.3429523325021719  0.3429306144834996  0.7050873284644794   T   T   T
  0.6570561389959693  0.6570581906642516  0.7051244654457776   T   T   T
  0.2650884092877064  0.5628681024650035  0.7093468540617991   T   T   T
  0.4370651946414057  0.7348977930680292  0.7093526409551387   T   T   T
  0.7349208213056571  0.4370701631439715  0.7092781991638475   T   T   T
  0.5629008282830839  0.2650796666702391  0.7092750086926571   T   T   T
 
  0.00000000E+00  0.00000000E+00  0.00000000E+00
  0.00000000E+00  0.00000000E+00  0.00000000E+00
  0.00000000E+00  0.00000000E+00  0.00000000E+00
  0.00000000E+00  0.00000000E+00  0.00000000E+00
  0.00000000E+00  0.00000000E+00  0.00000000E+00
  0.00000000E+00  0.00000000E+00  0.00000000E+00
  0.00000000E+00  0.00000000E+00  0.00000000E+00
  0.00000000E+00  0.00000000E+00  0.00000000E+00
  0.00000000E+00  0.00000000E+00  0.00000000E+00
  0.00000000E+00  0.00000000E+00  0.00000000E+00
  0.00000000E+00  0.00000000E+00  0.00000000E+00
  0.00000000E+00  0.00000000E+00  0.00000000E+00
  0.00000000E+00  0.00000000E+00  0.00000000E+00
  0.00000000E+00  0.00000000E+00  0.00000000E+00
  0.00000000E+00  0.00000000E+00  0.00000000E+00
  0.00000000E+00  0.00000000E+00  0.00000000E+00
  0.00000000E+00  0.00000000E+00  0.00000000E+00
  0.00000000E+00  0.00000000E+00  0.00000000E+00
  0.00000000E+00  0.00000000E+00  0.00000000E+00
  0.00000000E+00  0.00000000E+00  0.00000000E+00
  0.00000000E+00  0.00000000E+00  0.00000000E+00
  0.00000000E+00  0.00000000E+00  0.00000000E+00
  0.00000000E+00  0.00000000E+00  0.00000000E+00
  0.00000000E+00  0.00000000E+00  0.00000000E+00
  0.00000000E+00  0.00000000E+00  0.00000000E+00
  0.00000000E+00  0.00000000E+00  0.00000000E+00
  0.00000000E+00  0.00000000E+00  0.00000000E+00
  0.00000000E+00  0.00000000E+00  0.00000000E+00
  0.00000000E+00  0.00000000E+00  0.00000000E+00
  0.00000000E+00  0.00000000E+00  0.00000000E+00
  0.00000000E+00  0.00000000E+00  0.00000000E+00
  0.00000000E+00  0.00000000E+00  0.00000000E+00
  0.00000000E+00  0.00000000E+00  0.00000000E+00
  0.00000000E+00  0.00000000E+00  0.00000000E+00
  0.00000000E+00  0.00000000E+00  0.00000000E+00
  0.00000000E+00  0.00000000E+00  0.00000000E+00
  0.00000000E+00  0.00000000E+00  0.00000000E+00
  0.00000000E+00  0.00000000E+00  0.00000000E+00
  0.00000000E+00  0.00000000E+00  0.00000000E+00
  0.00000000E+00  0.00000000E+00  0.00000000E+00
  0.00000000E+00  0.00000000E+00  0.00000000E+00
  0.00000000E+00  0.00000000E+00  0.00000000E+00
  0.00000000E+00  0.00000000E+00  0.00000000E+00
  0.00000000E+00  0.00000000E+00  0.00000000E+00
  0.00000000E+00  0.00000000E+00  0.00000000E+00
  0.00000000E+00  0.00000000E+00  0.00000000E+00
  0.00000000E+00  0.00000000E+00  0.00000000E+00
  0.00000000E+00  0.00000000E+00  0.00000000E+00
  0.00000000E+00  0.00000000E+00  0.00000000E+00
  0.00000000E+00  0.00000000E+00  0.00000000E+00
  0.00000000E+00  0.00000000E+00  0.00000000E+00
  0.00000000E+00  0.00000000E+00  0.00000000E+00
  0.00000000E+00  0.00000000E+00  0.00000000E+00
  0.00000000E+00  0.00000000E+00  0.00000000E+00
  0.00000000E+00  0.00000000E+00  0.00000000E+00
  0.00000000E+00  0.00000000E+00  0.00000000E+00
  0.00000000E+00  0.00000000E+00  0.00000000E+00
  0.00000000E+00  0.00000000E+00  0.00000000E+00
  0.00000000E+00  0.00000000E+00  0.00000000E+00
  0.00000000E+00  0.00000000E+00  0.00000000E+00
