Pt  C  N  F                             
    1.000000000000000     
    11.2480068000000006    0.0000000000000000    0.0000000000000000
     0.0000000000000000   11.2480068000000006    0.0000000000000000
     0.0000000000000000    0.0000000000000000   23.9651564400000012
   Pt   C    N    F 
    64     4     2     4
Selective dynamics
Direct
  0.2500000008890453  0.0000000000000000  0.3129543518222917   F   F   F
  0.0000000000000000  0.5000000017780906  0.3129543518222917   F   F   F
  0.2500000008890453  0.2500000008890453  0.3129543518222917   F   F   F
  0.2500000008890453  0.5000000017780906  0.3129543518222917   F   F   F
  0.2500000008890453  0.7500000026671358  0.3129543518222917   F   F   F
  0.5000000017780906  0.0000000000000000  0.3129543518222917   F   F   F
  0.5000000017780906  0.2500000008890453  0.3129543518222917   F   F   F
  0.0000000000000000  0.7500000026671358  0.3129543518222917   F   F   F
  0.5000000017780906  0.5000000017780906  0.3129543518222917   F   F   F
  0.5000000017780906  0.7500000026671358  0.3129543518222917   F   F   F
  0.7500000026671358  0.0000000000000000  0.3129543518222917   F   F   F
  0.7500000026671358  0.2500000008890453  0.3129543518222917   F   F   F
  0.7500000026671358  0.5000000017780906  0.3129543518222917   F   F   F
  0.7500000026671358  0.7500000026671358  0.3129543518222917   F   F   F
  0.0000000000000000  0.0000000000000000  0.3129543518222917   F   F   F
  0.0000000000000000  0.2500000008890453  0.3129543518222917   F   F   F
  0.2499681912607727  0.9998960505815025  0.4782320623688902   T   T   T
  0.2498836833019744  0.2498857673221664  0.4782514484205063   T   T   T
  0.2498947683687621  0.4995498062676302  0.4781391543697850   T   T   T
  0.2501131026635223  0.7498873162210320  0.4781357296186502   T   T   T
  0.5000044076139469 -0.0000006414400148  0.4782833113483768   T   T   T
  0.4995502976294390  0.2498955687120762  0.4781457275380249   T   T   T
  0.5000015251249408  0.5000023169106057  0.4781817572509208   T   T   T
  0.5004563895181945  0.7501040873641580  0.4781358146179410   T   T   T
  0.7500443678740528  0.0000903153336128  0.4782322066691526   T   T   T
  0.7498787549325120  0.2501127357592967  0.4781377379402612   T   T   T
  0.7501076242674036  0.5004470614343717  0.4781461630997978   T   T   T
  0.7501153288524067  0.7501178415225507  0.4782527034366536   T   T   T
  0.0000069171463859 -0.0000027885855070  0.4782167202866062   T   T   T
  0.9999035425702555  0.2499540604162615  0.4782259078921545   T   T   T
  0.0000027778945695  0.5000003557490101  0.4782715176777729   T   T   T
  0.0000946246168051  0.7500475844622859  0.4782321307902723   T   T   T
  0.1248671651983890  0.1248727877339263  0.5599502979500884   T   T   T
  0.1246684782093814  0.3748857918942284  0.5599894717736177   T   T   T
  0.1254905112309136  0.6249294180581046  0.5599181305152556   T   T   T
  0.1251558527755838  0.8748481932549098  0.5599761387327806   T   T   T
  0.3748891848536239  0.1246574051862224  0.5599785837096108   T   T   T
  0.3745351566858332  0.3745274075530687  0.5602913890034691   T   T   T
  0.3754571183366783  0.6245556578218181  0.5595259443776068   T   T   T
  0.3750749260868265  0.8745134275887338  0.5599021958713583   T   T   T
  0.6249231985625490  0.1254890662136695  0.5598878965800703   T   T   T
  0.6245617621067631  0.3754341340024590  0.5595164127673965   T   T   T
  0.6254735463512680  0.6254616778061165  0.5602973556642198   T   T   T
  0.6251037453022965  0.8753321645638124  0.5599756270094908   T   T   T
  0.8748084057870118  0.1251765252028369  0.5599470856409942   T   T   T
  0.8745156175824287  0.3750535815032689  0.5598999023135391   T   T   T
  0.8753341422379571  0.6251060394127596  0.5599915402872974   T   T   T
  0.8751142730600476  0.8751319852646430  0.5599563264560449   T   T   T
  0.1250000008890453  0.1250000000000000  0.3959242036977884   F   F   F
  0.1250000008890453  0.3750000008890453  0.3959242036977884   F   F   F
  0.1250000008890453  0.6250000026671358  0.3959242036977884   F   F   F
  0.1250000008890453  0.8750000026671358  0.3959242036977884   F   F   F
  0.3750000017780906  0.1250000000000000  0.3959242036977884   F   F   F
  0.3750000017780906  0.3750000008890453  0.3959242036977884   F   F   F
  0.3750000017780906  0.6250000026671358  0.3959242036977884   F   F   F
  0.3750000017780906  0.8750000026671358  0.3959242036977884   F   F   F
  0.6250000026671358  0.1250000000000000  0.3959242036977884   F   F   F
  0.6250000026671358  0.3750000008890453  0.3959242036977884   F   F   F
  0.6250000026671358  0.6250000026671358  0.3959242036977884   F   F   F
  0.6250000026671358  0.8750000026671358  0.3959242036977884   F   F   F
  0.8750000035561882  0.1250000000000000  0.3959242036977884   F   F   F
  0.8750000026671358  0.3750000008890453  0.3959242036977884   F   F   F
  0.8750000035561882  0.6250000026671358  0.3959242036977884   F   F   F
  0.8750000035561882  0.8750000026671358  0.3959242036977884   F   F   F
  0.4732039834432112  0.6151062810676192  0.6892998587701392   T   T   T
  0.3849480875732367  0.5268437147457858  0.6893015278355398   T   T   T
  0.5268992437885344  0.3849505329641073  0.6892971591699961   T   T   T
  0.6150853963454803  0.4731656492561248  0.6893038795278802   T   T   T
  0.4130594846960691  0.4129943927982276  0.6892590417024719   T   T   T
  0.5870038617843000  0.5869626920842446  0.6892624788613685   T   T   T
  0.7307172699464316  0.4442862877386827  0.6915063078101278   T   T   T
  0.5557129690515539  0.2692777494002545  0.6915002440962905   T   T   T
  0.4442920755636062  0.7307632892141172  0.6915085594422059   T   T   T
  0.2692393920471240  0.5557570465546597  0.6915070189014895   T   T   T
 
  0.00000000E+00  0.00000000E+00  0.00000000E+00
  0.00000000E+00  0.00000000E+00  0.00000000E+00
  0.00000000E+00  0.00000000E+00  0.00000000E+00
  0.00000000E+00  0.00000000E+00  0.00000000E+00
  0.00000000E+00  0.00000000E+00  0.00000000E+00
  0.00000000E+00  0.00000000E+00  0.00000000E+00
  0.00000000E+00  0.00000000E+00  0.00000000E+00
  0.00000000E+00  0.00000000E+00  0.00000000E+00
  0.00000000E+00  0.00000000E+00  0.00000000E+00
  0.00000000E+00  0.00000000E+00  0.00000000E+00
  0.00000000E+00  0.00000000E+00  0.00000000E+00
  0.00000000E+00  0.00000000E+00  0.00000000E+00
  0.00000000E+00  0.00000000E+00  0.00000000E+00
  0.00000000E+00  0.00000000E+00  0.00000000E+00
  0.00000000E+00  0.00000000E+00  0.00000000E+00
  0.00000000E+00  0.00000000E+00  0.00000000E+00
  0.00000000E+00  0.00000000E+00  0.00000000E+00
  0.00000000E+00  0.00000000E+00  0.00000000E+00
  0.00000000E+00  0.00000000E+00  0.00000000E+00
  0.00000000E+00  0.00000000E+00  0.00000000E+00
  0.00000000E+00  0.00000000E+00  0.00000000E+00
  0.00000000E+00  0.00000000E+00  0.00000000E+00
  0.00000000E+00  0.00000000E+00  0.00000000E+00
  0.00000000E+00  0.00000000E+00  0.00000000E+00
  0.00000000E+00  0.00000000E+00  0.00000000E+00
  0.00000000E+00  0.00000000E+00  0.00000000E+00
  0.00000000E+00  0.00000000E+00  0.00000000E+00
  0.00000000E+00  0.00000000E+00  0.00000000E+00
  0.00000000E+00  0.00000000E+00  0.00000000E+00
  0.00000000E+00  0.00000000E+00  0.00000000E+00
  0.00000000E+00  0.00000000E+00  0.00000000E+00
  0.00000000E+00  0.00000000E+00  0.00000000E+00
  0.00000000E+00  0.00000000E+00  0.00000000E+00
  0.00000000E+00  0.00000000E+00  0.00000000E+00
  0.00000000E+00  0.00000000E+00  0.00000000E+00
  0.00000000E+00  0.00000000E+00  0.00000000E+00
  0.00000000E+00  0.00000000E+00  0.00000000E+00
  0.00000000E+00  0.00000000E+00  0.00000000E+00
  0.00000000E+00  0.00000000E+00  0.00000000E+00
  0.00000000E+00  0.00000000E+00  0.00000000E+00
  0.00000000E+00  0.00000000E+00  0.00000000E+00
  0.00000000E+00  0.00000000E+00  0.00000000E+00
  0.00000000E+00  0.00000000E+00  0.00000000E+00
  0.00000000E+00  0.00000000E+00  0.00000000E+00
  0.00000000E+00  0.00000000E+00  0.00000000E+00
  0.00000000E+00  0.00000000E+00  0.00000000E+00
  0.00000000E+00  0.00000000E+00  0.00000000E+00
  0.00000000E+00  0.00000000E+00  0.00000000E+00
  0.00000000E+00  0.00000000E+00  0.00000000E+00
  0.00000000E+00  0.00000000E+00  0.00000000E+00
  0.00000000E+00  0.00000000E+00  0.00000000E+00
  0.00000000E+00  0.00000000E+00  0.00000000E+00
  0.00000000E+00  0.00000000E+00  0.00000000E+00
  0.00000000E+00  0.00000000E+00  0.00000000E+00
  0.00000000E+00  0.00000000E+00  0.00000000E+00
  0.00000000E+00  0.00000000E+00  0.00000000E+00
  0.00000000E+00  0.00000000E+00  0.00000000E+00
  0.00000000E+00  0.00000000E+00  0.00000000E+00
  0.00000000E+00  0.00000000E+00  0.00000000E+00
  0.00000000E+00  0.00000000E+00  0.00000000E+00
  0.00000000E+00  0.00000000E+00  0.00000000E+00
  0.00000000E+00  0.00000000E+00  0.00000000E+00
  0.00000000E+00  0.00000000E+00  0.00000000E+00
  0.00000000E+00  0.00000000E+00  0.00000000E+00
  0.00000000E+00  0.00000000E+00  0.00000000E+00
  0.00000000E+00  0.00000000E+00  0.00000000E+00
  0.00000000E+00  0.00000000E+00  0.00000000E+00
  0.00000000E+00  0.00000000E+00  0.00000000E+00
  0.00000000E+00  0.00000000E+00  0.00000000E+00
  0.00000000E+00  0.00000000E+00  0.00000000E+00
  0.00000000E+00  0.00000000E+00  0.00000000E+00
  0.00000000E+00  0.00000000E+00  0.00000000E+00
  0.00000000E+00  0.00000000E+00  0.00000000E+00
  0.00000000E+00  0.00000000E+00  0.00000000E+00
