Cu  C  H Cl                             
   1.00000000000000     
    10.2424769999999992    0.0000000000000000    0.0000000000000000
    -5.1212390000000001    8.8702459999999999    0.0000000000000000
     0.0000000000000000    0.0000000000000000   24.2722108799999958
   Cu   C    H    Cl
    64     6     4     2
Selective dynamics
Direct
  0.7500000436217675  0.9999999661790682  0.3089953377992387   F   F   F
  0.0000000023248248  0.2499999909810811  0.3089953377992387   F   F   F
  0.0000000042370090  0.4999999830895305  0.3089953377992387   F   F   F
  0.0000000055855054  0.7499999740706187  0.3089953377992387   F   F   F
  0.0000000084740179  0.9999999661790682  0.3089953377992387   F   F   F
  0.2500000140407437  0.2499999909810811  0.3089953377992387   F   F   F
  0.2500000159529208  0.4999999830895305  0.3089953377992387   F   F   F
  0.2500000173014243  0.7499999740706187  0.3089953377992387   F   F   F
  0.5000000257566555  0.2499999909810811  0.3089953377992387   F   F   F
  0.5000000276688397  0.4999999830895305  0.3089953377992387   F   F   F
  0.5000000290173432  0.7499999740706187  0.3089953377992387   F   F   F
  0.5000000319058486  0.9999999661790682  0.3089953377992387   F   F   F
  0.7500000374725744  0.2499999909810811  0.3089953377992387   F   F   F
  0.7500000393847586  0.4999999830895305  0.3089953377992387   F   F   F
  0.7500000417095833  0.7499999740706187  0.3089953377992387   F   F   F
  0.2500000201899297  0.9999999661790682  0.3089953377992387   F   F   F
  0.0833330000000032  0.1666669999999968  0.3951324008931820   F   F   F
  0.0833330000000032  0.4166669999999968  0.3951324008931820   F   F   F
  0.0833330000000032  0.6666669999999968  0.3951324008931820   F   F   F
  0.0833330000000032  0.9166669999999968  0.3951324008931820   F   F   F
  0.3333330000000032  0.1666669999999968  0.3951324008931820   F   F   F
  0.3333330000000032  0.4166669999999968  0.3951324008931820   F   F   F
  0.3333330000000032  0.6666669999999968  0.3951324008931820   F   F   F
  0.3333330000000032  0.9166669999999968  0.3951324008931820   F   F   F
  0.5833330000000032  0.1666669999999968  0.3951324008931820   F   F   F
  0.5833330000000032  0.4166669999999968  0.3951324008931820   F   F   F
  0.5833330000000032  0.6666669999999968  0.3951324008931820   F   F   F
  0.5833330000000032  0.9166669999999968  0.3951324008931820   F   F   F
  0.8333330000000032  0.1666669999999968  0.3951324008931820   F   F   F
  0.8333330000000032  0.4166669999999968  0.3951324008931820   F   F   F
  0.8333330000000032  0.6666669999999968  0.3951324008931820   F   F   F
  0.8333330000000032  0.9166669999999968  0.3951324008931820   F   F   F
  0.9989910683958364  0.9994564115879619  0.5648935250982994   T   T   T
  0.9988621043186359  0.2494235084757543  0.5648480263575181   T   T   T
  0.9994478763552441  0.4998390915783111  0.5652050683039240   T   T   T
  0.9995627461876397  0.7499402137762777  0.5651919108336548   T   T   T
  0.2489795128694254  0.9995806533987249  0.5648247173758547   T   T   T
  0.2483371431988546  0.2491008461141781  0.5649065886583406   T   T   T
  0.2496761921512684  0.4999776607732792  0.5639113799689697   T   T   T
  0.2497513494384253  0.7502136733027869  0.5651678222126125   T   T   T
  0.4992899522551701  0.0000318009205157  0.5651805755983093   T   T   T
  0.4992767149403771  0.2502782367526791  0.5639184481590740   T   T   T
  0.5005172156916030  0.5012873462432984  0.5648655503104912   T   T   T
  0.5001523513290866  0.7507193741516325  0.5648144811484969   T   T   T
  0.7495538761975555  0.0000109807311380  0.5652299408638098   T   T   T
  0.7495974544104962  0.2502437985781771  0.5652108210035369   T   T   T
  0.7499799522941454  0.5005261180716618  0.5648361733562385   T   T   T
  0.7500763681515384  0.7505192576912667  0.5649385125810152   T   T   T
  0.1662549232719545  0.0831477689707963  0.4800547082014635   T   T   T
  0.1662161473431440  0.3329556745595466  0.4799809776908938   T   T   T
  0.1662757701793738  0.5834922631677186  0.4799948823431853   T   T   T
  0.1663130053111059  0.8330767521389414  0.4800850337089037   T   T   T
  0.4162245986634734  0.0829759882135477  0.4799759686499180   T   T   T
  0.4161099924437575  0.3336028962147423  0.4801430006194127   T   T   T
  0.4168332304495396  0.5835594720554724  0.4799752760073481   T   T   T
  0.4163692239903005  0.8332829099617823  0.4801192196943871   T   T   T
  0.6663703680461345  0.0833573573305097  0.4802288207249527   T   T   T
  0.6667382463373438  0.3334804917400824  0.4799894150151450   T   T   T
  0.6665888010185936  0.5834581624773785  0.4800571337555231   T   T   T
  0.6666867252569079  0.8335009198572636  0.4800348663552690   T   T   T
  0.9162351951551762  0.0830630937388096  0.4800235684989200   T   T   T
  0.9164771328795585  0.3333684468620804  0.4801121869975372   T   T   T
  0.9166655700656841  0.5834056927359693  0.4801004892985540   T   T   T
  0.9165385584906081  0.8331435295265978  0.4799642097901987   T   T   T
  0.2981400773231897  0.4538900922528556  0.6858815851498097   T   T   T
  0.4557128142836377  0.5338157111035035  0.6835777924115031   T   T   T
  0.5345204858440643  0.4549365178634684  0.6835806503242098   T   T   T
  0.4544846256295617  0.2973377182563255  0.6858294552694464   T   T   T
  0.2969064151825835  0.2174488200211472  0.6835687389603841   T   T   T
  0.2181368698438317  0.2963774764050199  0.6835856474697480   T   T   T
  0.5166229055808353  0.6566181452215887  0.6823694351636981   T   T   T
  0.6573303610459511  0.5159836899360828  0.6823800184814190   T   T   T
  0.2357568003493709  0.0945706228569590  0.6823507475024893   T   T   T
  0.0952734975763039  0.2350277384022277  0.6823917118030556   T   T   T
  0.2007574254983755  0.5511752415500619  0.6897825856641514   T   T   T
  0.5515937943781341  0.1997579218485303  0.6897974595602226   T   T   T
 
  0.00000000E+00  0.00000000E+00  0.00000000E+00
  0.00000000E+00  0.00000000E+00  0.00000000E+00
  0.00000000E+00  0.00000000E+00  0.00000000E+00
  0.00000000E+00  0.00000000E+00  0.00000000E+00
  0.00000000E+00  0.00000000E+00  0.00000000E+00
  0.00000000E+00  0.00000000E+00  0.00000000E+00
  0.00000000E+00  0.00000000E+00  0.00000000E+00
  0.00000000E+00  0.00000000E+00  0.00000000E+00
  0.00000000E+00  0.00000000E+00  0.00000000E+00
  0.00000000E+00  0.00000000E+00  0.00000000E+00
  0.00000000E+00  0.00000000E+00  0.00000000E+00
  0.00000000E+00  0.00000000E+00  0.00000000E+00
  0.00000000E+00  0.00000000E+00  0.00000000E+00
  0.00000000E+00  0.00000000E+00  0.00000000E+00
  0.00000000E+00  0.00000000E+00  0.00000000E+00
  0.00000000E+00  0.00000000E+00  0.00000000E+00
  0.00000000E+00  0.00000000E+00  0.00000000E+00
  0.00000000E+00  0.00000000E+00  0.00000000E+00
  0.00000000E+00  0.00000000E+00  0.00000000E+00
  0.00000000E+00  0.00000000E+00  0.00000000E+00
  0.00000000E+00  0.00000000E+00  0.00000000E+00
  0.00000000E+00  0.00000000E+00  0.00000000E+00
  0.00000000E+00  0.00000000E+00  0.00000000E+00
  0.00000000E+00  0.00000000E+00  0.00000000E+00
  0.00000000E+00  0.00000000E+00  0.00000000E+00
  0.00000000E+00  0.00000000E+00  0.00000000E+00
  0.00000000E+00  0.00000000E+00  0.00000000E+00
  0.00000000E+00  0.00000000E+00  0.00000000E+00
  0.00000000E+00  0.00000000E+00  0.00000000E+00
  0.00000000E+00  0.00000000E+00  0.00000000E+00
  0.00000000E+00  0.00000000E+00  0.00000000E+00
  0.00000000E+00  0.00000000E+00  0.00000000E+00
  0.00000000E+00  0.00000000E+00  0.00000000E+00
  0.00000000E+00  0.00000000E+00  0.00000000E+00
  0.00000000E+00  0.00000000E+00  0.00000000E+00
  0.00000000E+00  0.00000000E+00  0.00000000E+00
  0.00000000E+00  0.00000000E+00  0.00000000E+00
  0.00000000E+00  0.00000000E+00  0.00000000E+00
  0.00000000E+00  0.00000000E+00  0.00000000E+00
  0.00000000E+00  0.00000000E+00  0.00000000E+00
  0.00000000E+00  0.00000000E+00  0.00000000E+00
  0.00000000E+00  0.00000000E+00  0.00000000E+00
  0.00000000E+00  0.00000000E+00  0.00000000E+00
  0.00000000E+00  0.00000000E+00  0.00000000E+00
  0.00000000E+00  0.00000000E+00  0.00000000E+00
  0.00000000E+00  0.00000000E+00  0.00000000E+00
  0.00000000E+00  0.00000000E+00  0.00000000E+00
  0.00000000E+00  0.00000000E+00  0.00000000E+00
  0.00000000E+00  0.00000000E+00  0.00000000E+00
  0.00000000E+00  0.00000000E+00  0.00000000E+00
  0.00000000E+00  0.00000000E+00  0.00000000E+00
  0.00000000E+00  0.00000000E+00  0.00000000E+00
  0.00000000E+00  0.00000000E+00  0.00000000E+00
  0.00000000E+00  0.00000000E+00  0.00000000E+00
  0.00000000E+00  0.00000000E+00  0.00000000E+00
  0.00000000E+00  0.00000000E+00  0.00000000E+00
  0.00000000E+00  0.00000000E+00  0.00000000E+00
  0.00000000E+00  0.00000000E+00  0.00000000E+00
  0.00000000E+00  0.00000000E+00  0.00000000E+00
  0.00000000E+00  0.00000000E+00  0.00000000E+00
  0.00000000E+00  0.00000000E+00  0.00000000E+00
  0.00000000E+00  0.00000000E+00  0.00000000E+00
  0.00000000E+00  0.00000000E+00  0.00000000E+00
  0.00000000E+00  0.00000000E+00  0.00000000E+00
  0.00000000E+00  0.00000000E+00  0.00000000E+00
  0.00000000E+00  0.00000000E+00  0.00000000E+00
  0.00000000E+00  0.00000000E+00  0.00000000E+00
  0.00000000E+00  0.00000000E+00  0.00000000E+00
  0.00000000E+00  0.00000000E+00  0.00000000E+00
  0.00000000E+00  0.00000000E+00  0.00000000E+00
  0.00000000E+00  0.00000000E+00  0.00000000E+00
  0.00000000E+00  0.00000000E+00  0.00000000E+00
  0.00000000E+00  0.00000000E+00  0.00000000E+00
  0.00000000E+00  0.00000000E+00  0.00000000E+00
  0.00000000E+00  0.00000000E+00  0.00000000E+00
  0.00000000E+00  0.00000000E+00  0.00000000E+00
