Ir  C  H Cl                             
   1.00000000000000     
    10.9622130000000002    0.0000000000000000    0.0000000000000000
    -5.4811069999999997    9.4935550000000006    0.0000000000000000
     0.0000000000000000    0.0000000000000000   24.7129573799999989
   Ir   C    H    Cl
    64     6     2     4
Selective dynamics
Direct
  0.7500000643925233  0.7500000284403470  0.3034845196661777   F   F   F
  0.0000000000000000  0.0000000000000000  0.3034845196661777   F   F   F
  0.0000000102134052  0.2500000094801180  0.3034845196661777   F   F   F
  0.0000000213390337  0.5000000189602289  0.3034845196661777   F   F   F
  0.0000000753392229  0.7500000284403470  0.3034845196661777   F   F   F
  0.2500000109466924  0.0000000000000000  0.3034845196661777   F   F   F
  0.2500000211600977  0.2500000094801180  0.3034845196661777   F   F   F
  0.2500000322857332  0.5000000189602289  0.3034845196661777   F   F   F
  0.5000000218933920  0.0000000000000000  0.3034845196661777   F   F   F
  0.5000000321067972  0.2500000094801180  0.3034845196661777   F   F   F
  0.5000000432324256  0.5000000189602289  0.3034845196661777   F   F   F
  0.5000000534458309  0.7500000284403470  0.3034845196661777   F   F   F
  0.7500000328400844  0.0000000000000000  0.3034845196661777   F   F   F
  0.7500000430534897  0.2500000094801180  0.3034845196661777   F   F   F
  0.7500000541791181  0.5000000189602289  0.3034845196661777   F   F   F
  0.2500000424991384  0.7500000284403470  0.3034845196661777   F   F   F
  0.0833330000000032  0.1666669999999968  0.3940302372665698   F   F   F
  0.0833330000000032  0.4166669999999968  0.3940302372665698   F   F   F
  0.0833330000000032  0.6666669999999968  0.3940302372665698   F   F   F
  0.0833330000000032  0.9166669999999968  0.3940302372665698   F   F   F
  0.3333330000000032  0.1666669999999968  0.3940302372665698   F   F   F
  0.3333330000000032  0.4166669999999968  0.3940302372665698   F   F   F
  0.3333330000000032  0.6666669999999968  0.3940302372665698   F   F   F
  0.3333330000000032  0.9166669999999968  0.3940302372665698   F   F   F
  0.5833330000000032  0.1666669999999968  0.3940302372665698   F   F   F
  0.5833330000000032  0.4166669999999968  0.3940302372665698   F   F   F
  0.5833330000000032  0.6666669999999968  0.3940302372665698   F   F   F
  0.5833330000000032  0.9166669999999968  0.3940302372665698   F   F   F
  0.8333330000000032  0.1666669999999968  0.3940302372665698   F   F   F
  0.8333330000000032  0.4166669999999968  0.3940302372665698   F   F   F
  0.8333330000000032  0.6666669999999968  0.3940302372665698   F   F   F
  0.8333330000000032  0.9166669999999968  0.3940302372665698   F   F   F
  0.9970721608895351  0.9964142501311966  0.5717791668725908   T   T   T
  0.9949670223953183  0.2481477483130866  0.5724512131707598   T   T   T
  0.0016347530527852  0.5002486333959860  0.5723541011920401   T   T   T
  0.0007743760598433  0.7492382661279275  0.5721175019254404   T   T   T
  0.2481369722382402  0.9943575424110511  0.5723719343610852   T   T   T
  0.2439467443348478  0.2429139279632890  0.5788103339550559   T   T   T
  0.2508278443234969  0.4996846501939055  0.5765345374421420   T   T   T
  0.2502182966463000  0.7490911191338079  0.5725522148924999   T   T   T
  0.5015624656624621  0.0014491401180121  0.5725386442026879   T   T   T
  0.4998956285779541  0.2502853381200962  0.5768988646555633   T   T   T
  0.5074181232681755  0.5062365761226301  0.5787227060978131   T   T   T
  0.5020865307878465  0.7552758274554103  0.5725421625386966   T   T   T
  0.7500433039356090  0.0002433568609422  0.5720604418939713   T   T   T
  0.7490200114481534  0.2489533149634391  0.5726211333784968   T   T   T
  0.7561487935773989  0.5020863238879167  0.5721618639086185   T   T   T
  0.7542411357400494  0.7532518445232574  0.5718186748355776   T   T   T
  0.1677035317783873  0.0854104104147521  0.4837586207496883   T   T   T
  0.1683825017055424  0.3339292610404479  0.4842196377622945   T   T   T
  0.1683464450787264  0.5817317154356798  0.4838285047046592   T   T   T
  0.1683513563499248  0.8340353372651783  0.4831253086699621   T   T   T
  0.4167508299412694  0.0852070900545320  0.4839960327681906   T   T   T
  0.4162956708667970  0.3337425513091284  0.4847870314704322   T   T   T
  0.4161621957125633  0.5817532000745640  0.4842458072638907   T   T   T
  0.4171866062770735  0.8331965619241830  0.4835910397146270   T   T   T
  0.6664485757660328  0.0836493306481496  0.4830569401555667   T   T   T
  0.6648321259622384  0.3333799765905429  0.4839547947848617   T   T   T
  0.6648313138157877  0.5823316037304570  0.4836994369709827   T   T   T
  0.6660513968216172  0.8323277470345531  0.4831068774733717   T   T   T
  0.9173484255444587  0.0838581790079593  0.4828920819729827   T   T   T
  0.9168955402924212  0.3330693197597666  0.4835175745565009   T   T   T
  0.9164113094824620  0.5822945961662328  0.4828749022985465   T   T   T
  0.9172949546169766  0.8329786891569445  0.4825362233436737   T   T   T
  0.2940056294522300  0.4570262917822910  0.6580466505916915   T   T   T
  0.4507618851435097  0.5259543701520464  0.6597049460915324   T   T   T
  0.5270815521751229  0.4495258263811392  0.6597249120107967   T   T   T
  0.4576126848292051  0.2927752999345837  0.6582384127237630   T   T   T
  0.3008661196097857  0.2236682288041750  0.6598048413299512   T   T   T
  0.2245900010349306  0.3002076022866033  0.6597301090350827   T   T   T
  0.2503100527772905  0.5011776243022185  0.6868573593315134   T   T   T
  0.5010577102698492  0.2491203874281289  0.6873702681930254   T   T   T
  0.5294419486683464  0.6970777642076466  0.6876048910086798   T   T   T
  0.6973026757106588  0.5264303536260806  0.6883331031219633   T   T   T
  0.2232131062367232  0.0537811878597343  0.6886331921832576   T   T   T
  0.0536587366608343  0.2216823651952503  0.6876007803680833   T   T   T
 
  0.00000000E+00  0.00000000E+00  0.00000000E+00
  0.00000000E+00  0.00000000E+00  0.00000000E+00
  0.00000000E+00  0.00000000E+00  0.00000000E+00
  0.00000000E+00  0.00000000E+00  0.00000000E+00
  0.00000000E+00  0.00000000E+00  0.00000000E+00
  0.00000000E+00  0.00000000E+00  0.00000000E+00
  0.00000000E+00  0.00000000E+00  0.00000000E+00
  0.00000000E+00  0.00000000E+00  0.00000000E+00
  0.00000000E+00  0.00000000E+00  0.00000000E+00
  0.00000000E+00  0.00000000E+00  0.00000000E+00
  0.00000000E+00  0.00000000E+00  0.00000000E+00
  0.00000000E+00  0.00000000E+00  0.00000000E+00
  0.00000000E+00  0.00000000E+00  0.00000000E+00
  0.00000000E+00  0.00000000E+00  0.00000000E+00
  0.00000000E+00  0.00000000E+00  0.00000000E+00
  0.00000000E+00  0.00000000E+00  0.00000000E+00
  0.00000000E+00  0.00000000E+00  0.00000000E+00
  0.00000000E+00  0.00000000E+00  0.00000000E+00
  0.00000000E+00  0.00000000E+00  0.00000000E+00
  0.00000000E+00  0.00000000E+00  0.00000000E+00
  0.00000000E+00  0.00000000E+00  0.00000000E+00
  0.00000000E+00  0.00000000E+00  0.00000000E+00
  0.00000000E+00  0.00000000E+00  0.00000000E+00
  0.00000000E+00  0.00000000E+00  0.00000000E+00
  0.00000000E+00  0.00000000E+00  0.00000000E+00
  0.00000000E+00  0.00000000E+00  0.00000000E+00
  0.00000000E+00  0.00000000E+00  0.00000000E+00
  0.00000000E+00  0.00000000E+00  0.00000000E+00
  0.00000000E+00  0.00000000E+00  0.00000000E+00
  0.00000000E+00  0.00000000E+00  0.00000000E+00
  0.00000000E+00  0.00000000E+00  0.00000000E+00
  0.00000000E+00  0.00000000E+00  0.00000000E+00
  0.00000000E+00  0.00000000E+00  0.00000000E+00
  0.00000000E+00  0.00000000E+00  0.00000000E+00
  0.00000000E+00  0.00000000E+00  0.00000000E+00
  0.00000000E+00  0.00000000E+00  0.00000000E+00
  0.00000000E+00  0.00000000E+00  0.00000000E+00
  0.00000000E+00  0.00000000E+00  0.00000000E+00
  0.00000000E+00  0.00000000E+00  0.00000000E+00
  0.00000000E+00  0.00000000E+00  0.00000000E+00
  0.00000000E+00  0.00000000E+00  0.00000000E+00
  0.00000000E+00  0.00000000E+00  0.00000000E+00
  0.00000000E+00  0.00000000E+00  0.00000000E+00
  0.00000000E+00  0.00000000E+00  0.00000000E+00
  0.00000000E+00  0.00000000E+00  0.00000000E+00
  0.00000000E+00  0.00000000E+00  0.00000000E+00
  0.00000000E+00  0.00000000E+00  0.00000000E+00
  0.00000000E+00  0.00000000E+00  0.00000000E+00
  0.00000000E+00  0.00000000E+00  0.00000000E+00
  0.00000000E+00  0.00000000E+00  0.00000000E+00
  0.00000000E+00  0.00000000E+00  0.00000000E+00
  0.00000000E+00  0.00000000E+00  0.00000000E+00
  0.00000000E+00  0.00000000E+00  0.00000000E+00
  0.00000000E+00  0.00000000E+00  0.00000000E+00
  0.00000000E+00  0.00000000E+00  0.00000000E+00
  0.00000000E+00  0.00000000E+00  0.00000000E+00
  0.00000000E+00  0.00000000E+00  0.00000000E+00
  0.00000000E+00  0.00000000E+00  0.00000000E+00
  0.00000000E+00  0.00000000E+00  0.00000000E+00
  0.00000000E+00  0.00000000E+00  0.00000000E+00
  0.00000000E+00  0.00000000E+00  0.00000000E+00
  0.00000000E+00  0.00000000E+00  0.00000000E+00
  0.00000000E+00  0.00000000E+00  0.00000000E+00
  0.00000000E+00  0.00000000E+00  0.00000000E+00
  0.00000000E+00  0.00000000E+00  0.00000000E+00
  0.00000000E+00  0.00000000E+00  0.00000000E+00
  0.00000000E+00  0.00000000E+00  0.00000000E+00
  0.00000000E+00  0.00000000E+00  0.00000000E+00
  0.00000000E+00  0.00000000E+00  0.00000000E+00
  0.00000000E+00  0.00000000E+00  0.00000000E+00
  0.00000000E+00  0.00000000E+00  0.00000000E+00
  0.00000000E+00  0.00000000E+00  0.00000000E+00
  0.00000000E+00  0.00000000E+00  0.00000000E+00
  0.00000000E+00  0.00000000E+00  0.00000000E+00
  0.00000000E+00  0.00000000E+00  0.00000000E+00
  0.00000000E+00  0.00000000E+00  0.00000000E+00
