Cu48 C6 Br2 H4                          
    1.000000000000000     
    10.2424774999999997    0.0000000000000000    0.0000000000000000
     0.0000000000000000   14.4850505999999992    0.0000000000000000
     0.0000000000000000    0.0000000000000000   15.4677251699999996
   Cu   C    Br   H 
    48     6     2     4
Selective dynamics
Direct
  0.2497778045516554  0.2498215502045014  0.4021570142743585   T   T   T
  0.2499987780766517  0.4998856866568673  0.4027654539224343   T   T   T
  0.2500988638729638  0.7498163091645580  0.4029714861141684   T   T   T
  0.2500043691219460  0.9999477464038762  0.4026161913115516   T   T   T
  0.5002619850503507  0.2499834640711498  0.4026133816818529   T   T   T
  0.5000000137897231  0.4999784350571304  0.4022296722986596   T   T   T
  0.4997450572455833  0.7499984173839138  0.4026028493897726   T   T   T
  0.5000100457661532  0.0000313285149289  0.4026726759480255   T   T   T
  0.7499179646947169  0.2501687708188030  0.4029744829062167   T   T   T
  0.7499995485393285  0.5000640197905213  0.4027589288999778   T   T   T
  0.7502008446996271  0.7501824115201430  0.4021440052705998   T   T   T
  0.7500031788014283  0.0001053623761393  0.4026134327298863   T   T   T
  0.0000052409784104  0.2499838773875354  0.4027770104178785   T   T   T
  0.0000013071151059  0.4999705928265357  0.4029890362827544   T   T   T
  0.9999928249444139  0.7500246957636989  0.4027649380324050   T   T   T
  0.9999811659931410  0.0000204643561474  0.4024738076576426   T   T   T
  0.1250259399090012  0.1247513857388185  0.4821336949670325   T   T   T
  0.1247901344719082  0.3748937647893484  0.4825622822873825   T   T   T
  0.1250269543260245  0.6249088970587167  0.4822225612074931   T   T   T
  0.1249790984460688  0.8749521133476534  0.4822474916347161   T   T   T
  0.3750157715098723  0.1249918472810023  0.4822100211049118   T   T   T
  0.3750572956411986  0.3747572704992876  0.4816445656476205   T   T   T
  0.3750842927317279  0.6245155324365683  0.4826531702349470   T   T   T
  0.3749916658736083  0.8749108481540091  0.4821951340334323   T   T   T
  0.6249773958616203  0.1250393745659082  0.4821608619921491   T   T   T
  0.6249179093745170  0.3755336045703785  0.4826288759785342   T   T   T
  0.6249452973461516  0.6252960045509468  0.4816568644968768   T   T   T
  0.6249839137760631  0.8749619393698751  0.4822411347472126   T   T   T
  0.8750179398313165  0.1250031336862776  0.4822199882919662   T   T   T
  0.8749690621521538  0.3751302119417019  0.4821917678740348   T   T   T
  0.8752073941059280  0.6251502717563753  0.4825698336625024   T   T   T
  0.8750082618311339  0.8752173005781501  0.4821518344578877   T   T   T
  0.1250000002440785  0.1249999996548183  0.3232537393215154   F   F   F
  0.1250000002440785  0.3749999989644479  0.3232537393215154   F   F   F
  0.1250000002440785  0.6249999982740846  0.3232537393215154   F   F   F
  0.1250000002440785  0.8749999975837142  0.3232537393215154   F   F   F
  0.3749999997559215  0.1249999996548183  0.3232537393215154   F   F   F
  0.3749999997559215  0.3749999989644479  0.3232537393215154   F   F   F
  0.3749999997559215  0.6249999982740846  0.3232537393215154   F   F   F
  0.3749999997559215  0.8749999975837142  0.3232537393215154   F   F   F
  0.6249999982914289  0.1249999996548183  0.3232537393215154   F   F   F
  0.6249999992677573  0.3749999989644479  0.3232537393215154   F   F   F
  0.6249999992677573  0.6249999982740846  0.3232537393215154   F   F   F
  0.6249999992677573  0.8749999975837142  0.3232537393215154   F   F   F
  0.8749999987795931  0.1249999996548183  0.3232537393215154   F   F   F
  0.8749999978032648  0.3749999989644479  0.3232537393215154   F   F   F
  0.8749999987795931  0.6249999982740846  0.3232537393215154   F   F   F
  0.8749999987795931  0.8749999975837142  0.3232537393215154   F   F   F
  0.5828365136272424  0.5751843212272121  0.6647068187352403   T   T   T
  0.6358592400508130  0.4865818228906846  0.6633499869897150   T   T   T
  0.5521887271175814  0.4102088685159089  0.6630448405803406   T   T   T
  0.4171707664349285  0.4248139134414330  0.6646657857668643   T   T   T
  0.3641595753088112  0.5134155511126721  0.6633646026902298   T   T   T
  0.4478219105440573  0.5897867200589388  0.6630421667990234   T   T   T
  0.6975192937097177  0.6788840902212030  0.6655110742188342   T   T   T
  0.3024986166149617  0.3211221093974075  0.6654603769911063   T   T   T
  0.7412918165081024  0.4764969744411118  0.6623854722810236   T   T   T
  0.5925017072492480  0.3404776026233947  0.6633237661297287   T   T   T
  0.2587155955933156  0.5235081517143456  0.6623663324522582   T   T   T
  0.4075123026842888  0.6595270938438347  0.6633565608138738   T   T   T
 
  0.00000000E+00  0.00000000E+00  0.00000000E+00
  0.00000000E+00  0.00000000E+00  0.00000000E+00
  0.00000000E+00  0.00000000E+00  0.00000000E+00
  0.00000000E+00  0.00000000E+00  0.00000000E+00
  0.00000000E+00  0.00000000E+00  0.00000000E+00
  0.00000000E+00  0.00000000E+00  0.00000000E+00
  0.00000000E+00  0.00000000E+00  0.00000000E+00
  0.00000000E+00  0.00000000E+00  0.00000000E+00
  0.00000000E+00  0.00000000E+00  0.00000000E+00
  0.00000000E+00  0.00000000E+00  0.00000000E+00
  0.00000000E+00  0.00000000E+00  0.00000000E+00
  0.00000000E+00  0.00000000E+00  0.00000000E+00
  0.00000000E+00  0.00000000E+00  0.00000000E+00
  0.00000000E+00  0.00000000E+00  0.00000000E+00
  0.00000000E+00  0.00000000E+00  0.00000000E+00
  0.00000000E+00  0.00000000E+00  0.00000000E+00
  0.00000000E+00  0.00000000E+00  0.00000000E+00
  0.00000000E+00  0.00000000E+00  0.00000000E+00
  0.00000000E+00  0.00000000E+00  0.00000000E+00
  0.00000000E+00  0.00000000E+00  0.00000000E+00
  0.00000000E+00  0.00000000E+00  0.00000000E+00
  0.00000000E+00  0.00000000E+00  0.00000000E+00
  0.00000000E+00  0.00000000E+00  0.00000000E+00
  0.00000000E+00  0.00000000E+00  0.00000000E+00
  0.00000000E+00  0.00000000E+00  0.00000000E+00
  0.00000000E+00  0.00000000E+00  0.00000000E+00
  0.00000000E+00  0.00000000E+00  0.00000000E+00
  0.00000000E+00  0.00000000E+00  0.00000000E+00
  0.00000000E+00  0.00000000E+00  0.00000000E+00
  0.00000000E+00  0.00000000E+00  0.00000000E+00
  0.00000000E+00  0.00000000E+00  0.00000000E+00
  0.00000000E+00  0.00000000E+00  0.00000000E+00
  0.00000000E+00  0.00000000E+00  0.00000000E+00
  0.00000000E+00  0.00000000E+00  0.00000000E+00
  0.00000000E+00  0.00000000E+00  0.00000000E+00
  0.00000000E+00  0.00000000E+00  0.00000000E+00
  0.00000000E+00  0.00000000E+00  0.00000000E+00
  0.00000000E+00  0.00000000E+00  0.00000000E+00
  0.00000000E+00  0.00000000E+00  0.00000000E+00
  0.00000000E+00  0.00000000E+00  0.00000000E+00
  0.00000000E+00  0.00000000E+00  0.00000000E+00
  0.00000000E+00  0.00000000E+00  0.00000000E+00
  0.00000000E+00  0.00000000E+00  0.00000000E+00
  0.00000000E+00  0.00000000E+00  0.00000000E+00
  0.00000000E+00  0.00000000E+00  0.00000000E+00
  0.00000000E+00  0.00000000E+00  0.00000000E+00
  0.00000000E+00  0.00000000E+00  0.00000000E+00
  0.00000000E+00  0.00000000E+00  0.00000000E+00
  0.00000000E+00  0.00000000E+00  0.00000000E+00
  0.00000000E+00  0.00000000E+00  0.00000000E+00
  0.00000000E+00  0.00000000E+00  0.00000000E+00
  0.00000000E+00  0.00000000E+00  0.00000000E+00
  0.00000000E+00  0.00000000E+00  0.00000000E+00
  0.00000000E+00  0.00000000E+00  0.00000000E+00
  0.00000000E+00  0.00000000E+00  0.00000000E+00
  0.00000000E+00  0.00000000E+00  0.00000000E+00
  0.00000000E+00  0.00000000E+00  0.00000000E+00
  0.00000000E+00  0.00000000E+00  0.00000000E+00
  0.00000000E+00  0.00000000E+00  0.00000000E+00
  0.00000000E+00  0.00000000E+00  0.00000000E+00
