Rh48 C6 Br6                             
    1.000000000000000     
    10.8721879999999995    0.0000000000000000    0.0000000000000000
    -5.4360939999999998    9.4155909999999992    0.0000000000000000
     0.0000000000000000    0.0000000000000000   16.4399559999999987
   Rh   C    Br
    48     6     6
Selective dynamics
Direct
  0.0833330000000032  0.1666669999999968  0.3649640000000005   F   F   F
  0.0833330000000032  0.4166669999999968  0.3649640000000005   F   F   F
  0.0833330000000032  0.6666669999999968  0.3649640000000005   F   F   F
  0.0833330000000032  0.9166669999999968  0.3649640000000005   F   F   F
  0.3333330000000032  0.1666669999999968  0.3649640000000005   F   F   F
  0.3333330000000032  0.4166669999999968  0.3649640000000005   F   F   F
  0.3333330000000032  0.6666669999999968  0.3649640000000005   F   F   F
  0.3333330000000032  0.9166669999999968  0.3649640000000005   F   F   F
  0.5833330000000032  0.1666669999999968  0.3649640000000005   F   F   F
  0.5833330000000032  0.4166669999999968  0.3649640000000005   F   F   F
  0.5833330000000032  0.6666669999999968  0.3649640000000005   F   F   F
  0.5833330000000032  0.9166669999999968  0.3649640000000005   F   F   F
  0.8333330000000032  0.1666669999999968  0.3649640000000005   F   F   F
  0.8333330000000032  0.4166669999999968  0.3649640000000005   F   F   F
  0.8333330000000032  0.6666669999999968  0.3649640000000005   F   F   F
  0.8333330000000032  0.9166669999999968  0.3649640000000005   F   F   F
  0.9977058503539311  0.9969919146192012  0.6194974576317733   T   T   T
  0.9973325899033298  0.2469452278521800  0.6215436246141195   T   T   T
  0.9997927277733254  0.4971906336932435  0.6207772327347740   T   T   T
  0.9994779879093727  0.7504892081275685  0.6201207560852922   T   T   T
  0.2480785536772316  0.9961574152316928  0.6215698782809227   T   T   T
  0.2464421516740316  0.2458688117947361  0.6259316633373615   T   T   T
  0.2478894856107132  0.5020323371876074  0.6243460929938252   T   T   T
  0.2528007027904593  0.7501855140831424  0.6207616786203545   T   T   T
  0.5004210364640258  0.9991170709612973  0.6212308741936567   T   T   T
  0.5037428550547389  0.2462202896004939  0.6251496267414609   T   T   T
  0.5040931164118945  0.5035018576077022  0.6259199839927803   T   T   T
  0.5030227006989350  0.7526296853055925  0.6215604125542171   T   T   T
  0.7508211850686024  0.9991603059881911  0.6202143063123060   T   T   T
  0.7508524192586705  0.2495378514195750  0.6212303754679809   T   T   T
  0.7538139047662966  0.5018840515775409  0.6215708975377154   T   T   T
  0.7529947185701147  0.7522737453016362  0.6194954091084881   T   T   T
  0.1689269548561754  0.0854583108774563  0.4932617750140551   T   T   T
  0.1677648387472388  0.3332291768687341  0.4932844649393715   T   T   T
  0.1679662961536437  0.5820074850822863  0.4925061547322827   T   T   T
  0.1680684114192914  0.8333277337549347  0.4923535547610527   T   T   T
  0.4162220319691059  0.0833623182715115  0.4938957799819619   T   T   T
  0.4168397923026887  0.3331468821244457  0.4929197794674067   T   T   T
  0.4167538595033449  0.5822145536850201  0.4932877927758099   T   T   T
  0.4166033912434344  0.8326308904627666  0.4942145195994243   T   T   T
  0.6664029955983253  0.0835716444157342  0.4916607206100920   T   T   T
  0.6666096775961137  0.3337513946678570  0.4938916822692860   T   T   T
  0.6645332617052375  0.5810556892998733  0.4932575855834784   T   T   T
  0.6666687037416210  0.8329631411131544  0.4925359673901752   T   T   T
  0.9170080072315301  0.0832948985581510  0.4925345447678922   T   T   T
  0.9173539377979836  0.3333885777645023  0.4942114367768227   T   T   T
  0.9166490728043613  0.5819191637793750  0.4923426780206270   T   T   T
  0.9179727346023370  0.8320353440079771  0.4924849106689919   T   T   T
  0.3047933717357409  0.2217031743097877  0.7486602103329716   T   T   T
  0.2278357285796204  0.2964535305747731  0.7472238465238945   T   T   T
  0.3035830665433252  0.4461785462112431  0.7274808747667123   T   T   T
  0.4533489817245524  0.5220437168174143  0.7472027645377821   T   T   T
  0.5282155760379510  0.4451070009424214  0.7486448307773941   T   T   T
  0.4551012027480823  0.2947611404306940  0.7337661104380899   T   T   T
  0.2181793615821164  0.0195531068182504  0.7773553517967855   T   T   T
  0.0278593828195071  0.2154632312257974  0.7788755363661437   T   T   T
  0.0900141901918445  0.6598937188100464  0.7469796576777696   T   T   T
  0.5342557987685908  0.7219631465735716  0.7788682680747812   T   T   T
  0.7303337939025880  0.5317939276408055  0.7773279882717716   T   T   T
  0.6614483420519264  0.0883536249967207  0.7501974784957142   T   T   T
 
  0.00000000E+00  0.00000000E+00  0.00000000E+00
  0.00000000E+00  0.00000000E+00  0.00000000E+00
  0.00000000E+00  0.00000000E+00  0.00000000E+00
  0.00000000E+00  0.00000000E+00  0.00000000E+00
  0.00000000E+00  0.00000000E+00  0.00000000E+00
  0.00000000E+00  0.00000000E+00  0.00000000E+00
  0.00000000E+00  0.00000000E+00  0.00000000E+00
  0.00000000E+00  0.00000000E+00  0.00000000E+00
  0.00000000E+00  0.00000000E+00  0.00000000E+00
  0.00000000E+00  0.00000000E+00  0.00000000E+00
  0.00000000E+00  0.00000000E+00  0.00000000E+00
  0.00000000E+00  0.00000000E+00  0.00000000E+00
  0.00000000E+00  0.00000000E+00  0.00000000E+00
  0.00000000E+00  0.00000000E+00  0.00000000E+00
  0.00000000E+00  0.00000000E+00  0.00000000E+00
  0.00000000E+00  0.00000000E+00  0.00000000E+00
  0.00000000E+00  0.00000000E+00  0.00000000E+00
  0.00000000E+00  0.00000000E+00  0.00000000E+00
  0.00000000E+00  0.00000000E+00  0.00000000E+00
  0.00000000E+00  0.00000000E+00  0.00000000E+00
  0.00000000E+00  0.00000000E+00  0.00000000E+00
  0.00000000E+00  0.00000000E+00  0.00000000E+00
  0.00000000E+00  0.00000000E+00  0.00000000E+00
  0.00000000E+00  0.00000000E+00  0.00000000E+00
  0.00000000E+00  0.00000000E+00  0.00000000E+00
  0.00000000E+00  0.00000000E+00  0.00000000E+00
  0.00000000E+00  0.00000000E+00  0.00000000E+00
  0.00000000E+00  0.00000000E+00  0.00000000E+00
  0.00000000E+00  0.00000000E+00  0.00000000E+00
  0.00000000E+00  0.00000000E+00  0.00000000E+00
  0.00000000E+00  0.00000000E+00  0.00000000E+00
  0.00000000E+00  0.00000000E+00  0.00000000E+00
  0.00000000E+00  0.00000000E+00  0.00000000E+00
  0.00000000E+00  0.00000000E+00  0.00000000E+00
  0.00000000E+00  0.00000000E+00  0.00000000E+00
  0.00000000E+00  0.00000000E+00  0.00000000E+00
  0.00000000E+00  0.00000000E+00  0.00000000E+00
  0.00000000E+00  0.00000000E+00  0.00000000E+00
  0.00000000E+00  0.00000000E+00  0.00000000E+00
  0.00000000E+00  0.00000000E+00  0.00000000E+00
  0.00000000E+00  0.00000000E+00  0.00000000E+00
  0.00000000E+00  0.00000000E+00  0.00000000E+00
  0.00000000E+00  0.00000000E+00  0.00000000E+00
  0.00000000E+00  0.00000000E+00  0.00000000E+00
  0.00000000E+00  0.00000000E+00  0.00000000E+00
  0.00000000E+00  0.00000000E+00  0.00000000E+00
  0.00000000E+00  0.00000000E+00  0.00000000E+00
  0.00000000E+00  0.00000000E+00  0.00000000E+00
  0.00000000E+00  0.00000000E+00  0.00000000E+00
  0.00000000E+00  0.00000000E+00  0.00000000E+00
  0.00000000E+00  0.00000000E+00  0.00000000E+00
  0.00000000E+00  0.00000000E+00  0.00000000E+00
  0.00000000E+00  0.00000000E+00  0.00000000E+00
  0.00000000E+00  0.00000000E+00  0.00000000E+00
  0.00000000E+00  0.00000000E+00  0.00000000E+00
  0.00000000E+00  0.00000000E+00  0.00000000E+00
  0.00000000E+00  0.00000000E+00  0.00000000E+00
  0.00000000E+00  0.00000000E+00  0.00000000E+00
  0.00000000E+00  0.00000000E+00  0.00000000E+00
  0.00000000E+00  0.00000000E+00  0.00000000E+00
