H4 Au48 C6 F2                           
    1.000000000000000     
    11.7981859999999994    0.0000000000000000    0.0000000000000000
    -5.8990929999999997   10.2175279999999997    0.0000000000000000
     0.0000000000000000    0.0000000000000000   17.8239429999999999
   H    Au   C    F 
     4    48     6     2
Selective dynamics
Direct
  0.5062072663875838  0.3783925570737807  0.7847435815543520   T   T   T
  0.3811560465379884  0.5050525385798679  0.7847542551097959   T   T   T
  0.7454975080486577  0.8678133310654772  0.7847923267194261   T   T   T
  0.8705351668893755  0.7410800558169512  0.7848075055164259   T   T   T
  0.0833330000000032  0.1666669999999968  0.3366260000000025   F   F   F
  0.0833330000000032  0.4166669999999968  0.3366260000000025   F   F   F
  0.0833330000000032  0.6666669999999968  0.3366260000000025   F   F   F
  0.0833330000000032  0.9166669999999968  0.3366260000000025   F   F   F
  0.3333330000000032  0.1666669999999968  0.3366260000000025   F   F   F
  0.3333330000000032  0.4166669999999968  0.3366260000000025   F   F   F
  0.3333330000000032  0.6666669999999968  0.3366260000000025   F   F   F
  0.3333330000000032  0.9166669999999968  0.3366260000000025   F   F   F
  0.5833330000000032  0.1666669999999968  0.3366260000000025   F   F   F
  0.5833330000000032  0.4166669999999968  0.3366260000000025   F   F   F
  0.5833330000000032  0.6666669999999968  0.3366260000000025   F   F   F
  0.5833330000000032  0.9166669999999968  0.3366260000000025   F   F   F
  0.8333330000000032  0.1666669999999968  0.3366260000000025   F   F   F
  0.8333330000000032  0.4166669999999968  0.3366260000000025   F   F   F
  0.8333330000000032  0.6666669999999968  0.3366260000000025   F   F   F
  0.8333330000000032  0.9166669999999968  0.3366260000000025   F   F   F
  0.2494561120385725  0.2494370418708272  0.6080478566619476   T   T   T
  0.2492364975846968  0.4996237940127628  0.6076040800186817   T   T   T
  0.2499241472365057  0.7498770715856864  0.6075178571832822   T   T   T
  0.2501286099799316  0.9999605415659687  0.6077001355378115   T   T   T
  0.4997019359869128  0.2492437164943411  0.6076388056518525   T   T   T
  0.4984354049062460  0.4983129873289798  0.6070809721893866   T   T   T
  0.4997007327031966  0.7503520177791927  0.6055994587419562   T   T   T
  0.5002336693348184  0.0001588710252349  0.6075055897659070   T   T   T
  0.7500357946319696  0.2498738979548634  0.6075775545003879   T   T   T
  0.7505771837678239  0.4995095347689045  0.6055815088676297   T   T   T
  0.7517030853064242  0.7515835108895033  0.6071041848382563   T   T   T
  0.7504490303660916  0.0007995775526695  0.6076201738754321   T   T   T
  0.0000727619755523  0.2500053158234437  0.6078294240019702   T   T   T
  0.0002073110904561  0.5000753373410589  0.6075812194811618   T   T   T
  0.0008257725017131  0.7503985481263413  0.6076741711300286   T   T   T
  0.0006162550446476  0.0005987697480379  0.6080402119719608   T   T   T
  0.1667333373738060  0.0833260979384107  0.4720110243258731   T   T   T
  0.1666319976398754  0.3331299787935507  0.4720806297258591   T   T   T
  0.1667257476700996  0.5833799765039416  0.4719399318477215   T   T   T
  0.1668709238409107  0.8335175951671943  0.4719758329039010   T   T   T
  0.4165524674273797  0.0831808050063998  0.4719779939501834   T   T   T
  0.4165314660447592  0.3331176180763933  0.4721494721207193   T   T   T
  0.4164857700115405  0.5829994072629887  0.4720605217789142   T   T   T
  0.4165259462273738  0.8335350670647514  0.4717332663532972   T   T   T
  0.6667263555597458  0.0833537161542282  0.4719443078953205   T   T   T
  0.6663151107109897  0.3329431021024476  0.4718002620026667   T   T   T
  0.6664778428751390  0.5835787647294666  0.4724704934821204   T   T   T
  0.6670626100197410  0.8335634656427189  0.4720550316816841   T   T   T
  0.9169309366401777  0.0834406489337667  0.4720895451598679   T   T   T
  0.9167287253482215  0.3333650801951507  0.4721543954522005   T   T   T
  0.9171290823185032  0.5837806101096703  0.4718159340021799   T   T   T
  0.9169138758506037  0.8335128763627893  0.4721623919246767   T   T   T
  0.6922920667180392  0.5556906580012466  0.7892489616234926   T   T   T
  0.5561687271941409  0.4851526099701502  0.7876027355607462   T   T   T
  0.4879657646416149  0.5541955242695806  0.7875181321639033   T   T   T
  0.5594124090422739  0.6903226960387983  0.7892452452557279   T   T   T
  0.6955826901875923  0.7608803756292346  0.7875407476165464   T   T   T
  0.7637029543984468  0.6917855976863123  0.7876405747733273   T   T   T
  0.7587771578199778  0.4884199972792942  0.7899925940204113   T   T   T
  0.4932051722497448  0.7578167547492072  0.7898031573463697   T   T   T
 
  0.00000000E+00  0.00000000E+00  0.00000000E+00
  0.00000000E+00  0.00000000E+00  0.00000000E+00
  0.00000000E+00  0.00000000E+00  0.00000000E+00
  0.00000000E+00  0.00000000E+00  0.00000000E+00
  0.00000000E+00  0.00000000E+00  0.00000000E+00
  0.00000000E+00  0.00000000E+00  0.00000000E+00
  0.00000000E+00  0.00000000E+00  0.00000000E+00
  0.00000000E+00  0.00000000E+00  0.00000000E+00
  0.00000000E+00  0.00000000E+00  0.00000000E+00
  0.00000000E+00  0.00000000E+00  0.00000000E+00
  0.00000000E+00  0.00000000E+00  0.00000000E+00
  0.00000000E+00  0.00000000E+00  0.00000000E+00
  0.00000000E+00  0.00000000E+00  0.00000000E+00
  0.00000000E+00  0.00000000E+00  0.00000000E+00
  0.00000000E+00  0.00000000E+00  0.00000000E+00
  0.00000000E+00  0.00000000E+00  0.00000000E+00
  0.00000000E+00  0.00000000E+00  0.00000000E+00
  0.00000000E+00  0.00000000E+00  0.00000000E+00
  0.00000000E+00  0.00000000E+00  0.00000000E+00
  0.00000000E+00  0.00000000E+00  0.00000000E+00
  0.00000000E+00  0.00000000E+00  0.00000000E+00
  0.00000000E+00  0.00000000E+00  0.00000000E+00
  0.00000000E+00  0.00000000E+00  0.00000000E+00
  0.00000000E+00  0.00000000E+00  0.00000000E+00
  0.00000000E+00  0.00000000E+00  0.00000000E+00
  0.00000000E+00  0.00000000E+00  0.00000000E+00
  0.00000000E+00  0.00000000E+00  0.00000000E+00
  0.00000000E+00  0.00000000E+00  0.00000000E+00
  0.00000000E+00  0.00000000E+00  0.00000000E+00
  0.00000000E+00  0.00000000E+00  0.00000000E+00
  0.00000000E+00  0.00000000E+00  0.00000000E+00
  0.00000000E+00  0.00000000E+00  0.00000000E+00
  0.00000000E+00  0.00000000E+00  0.00000000E+00
  0.00000000E+00  0.00000000E+00  0.00000000E+00
  0.00000000E+00  0.00000000E+00  0.00000000E+00
  0.00000000E+00  0.00000000E+00  0.00000000E+00
  0.00000000E+00  0.00000000E+00  0.00000000E+00
  0.00000000E+00  0.00000000E+00  0.00000000E+00
  0.00000000E+00  0.00000000E+00  0.00000000E+00
  0.00000000E+00  0.00000000E+00  0.00000000E+00
  0.00000000E+00  0.00000000E+00  0.00000000E+00
  0.00000000E+00  0.00000000E+00  0.00000000E+00
  0.00000000E+00  0.00000000E+00  0.00000000E+00
  0.00000000E+00  0.00000000E+00  0.00000000E+00
  0.00000000E+00  0.00000000E+00  0.00000000E+00
  0.00000000E+00  0.00000000E+00  0.00000000E+00
  0.00000000E+00  0.00000000E+00  0.00000000E+00
  0.00000000E+00  0.00000000E+00  0.00000000E+00
  0.00000000E+00  0.00000000E+00  0.00000000E+00
  0.00000000E+00  0.00000000E+00  0.00000000E+00
  0.00000000E+00  0.00000000E+00  0.00000000E+00
  0.00000000E+00  0.00000000E+00  0.00000000E+00
  0.00000000E+00  0.00000000E+00  0.00000000E+00
  0.00000000E+00  0.00000000E+00  0.00000000E+00
  0.00000000E+00  0.00000000E+00  0.00000000E+00
  0.00000000E+00  0.00000000E+00  0.00000000E+00
  0.00000000E+00  0.00000000E+00  0.00000000E+00
  0.00000000E+00  0.00000000E+00  0.00000000E+00
  0.00000000E+00  0.00000000E+00  0.00000000E+00
  0.00000000E+00  0.00000000E+00  0.00000000E+00
