Cu48 C6 H2 Br4                          
    1.000000000000000     
    10.2424774999999997    0.0000000000000000    0.0000000000000000
     0.0000000000000000   10.2424774999999997    0.0000000000000000
     0.0000000000000000    0.0000000000000000   16.5541665999999985
   Cu   C    H    Br
    48     6     2     4
Selective dynamics
Direct
  0.2499309803450345  0.9999529296277956  0.4092748946243816   T   T   T
  0.2500577810330071  0.2500536387358707  0.4091824494018326   T   T   T
  0.2494801068951631  0.4996534517504685  0.4090497881923767   T   T   T
  0.2498301039621182  0.7501711704586214  0.4091860134690748   T   T   T
  0.5000016815960251  0.0000040672188391  0.4094833475946160   T   T   T
  0.4996637515456470  0.2494781879912011  0.4090478339374712   T   T   T
  0.5000071631144110  0.4999910475010623  0.4087411717699894   T   T   T
  0.5003458174841953  0.7505235265778794  0.4090487138368530   T   T   T
  0.7500692384493064  0.0000541567335901  0.4092724364165932   T   T   T
  0.7501649942720263  0.2498311693470967  0.4091856802011122   T   T   T
  0.7505176977345158  0.5003361667417039  0.4090513460291945   T   T   T
  0.7499452812899392  0.7499437966039721  0.4091830235259906   T   T   T
  0.9999988273548226  0.0000030157453068  0.4091648897610014   T   T   T
  0.9999478066922762  0.2499276006973901  0.4092741599924423   T   T   T
  0.9999993612687987  0.4999983225149052  0.4094860297927170   T   T   T
  0.0000496900205533  0.7500706605888539  0.4092750545478907   T   T   T
  0.1250984211884472  0.1250965844387366  0.5167528771356018   T   T   T
  0.1252085847727926  0.3744042248066748  0.5164656121514071   T   T   T
  0.1249509766595551  0.6250704622594441  0.5167971231731698   T   T   T
  0.1246037265678908  0.8754004357411844  0.5163679894410222   T   T   T
  0.3744100651782034  0.1252107906068005  0.5164714561858759   T   T   T
  0.3748342712540023  0.3748241991556327  0.5167217548254399   T   T   T
  0.3755130915613236  0.6244896334292989  0.5143662075435742   T   T   T
  0.3749285221332386  0.8750506836313576  0.5167992955446223   T   T   T
  0.6250663413131008  0.1249535555922705  0.5168043406223291   T   T   T
  0.6244952750203439  0.3755028153008197  0.5143928218449361   T   T   T
  0.6251753963712758  0.6251643735556485  0.5167234075359062   T   T   T
  0.6255920650602746  0.8747913068328756  0.5164683079181103   T   T   T
  0.8753943982991501  0.1246082939368449  0.5163717056103323   T   T   T
  0.8750481180112146  0.3749329908589161  0.5168037335800690   T   T   T
  0.8747904959936719  0.6255871375752022  0.5164708112288210   T   T   T
  0.8749058665429885  0.8749017176298253  0.5167574036809341   T   T   T
  0.1250000002440785  0.1249999992677573  0.3020387628574426   F   F   F
  0.1250000002440785  0.3749999997559215  0.3020387628574426   F   F   F
  0.1250000002440785  0.6249999982914289  0.3020387628574426   F   F   F
  0.1250000002440785  0.8749999987795931  0.3020387628574426   F   F   F
  0.3749999997559215  0.1249999992677573  0.3020387628574426   F   F   F
  0.3749999997559215  0.3749999997559215  0.3020387628574426   F   F   F
  0.3749999997559215  0.6249999982914289  0.3020387628574426   F   F   F
  0.3749999997559215  0.8749999987795931  0.3020387628574426   F   F   F
  0.6249999982914289  0.1249999992677573  0.3020387628574426   F   F   F
  0.6249999982914289  0.3749999997559215  0.3020387628574426   F   F   F
  0.6249999992677573  0.6249999982914289  0.3020387628574426   F   F   F
  0.6249999992677573  0.8749999987795931  0.3020387628574426   F   F   F
  0.8749999987795931  0.1249999992677573  0.3020387628574426   F   F   F
  0.8749999978032648  0.3749999997559215  0.3020387628574426   F   F   F
  0.8749999987795931  0.6249999982914289  0.3020387628574426   F   F   F
  0.8749999987795931  0.8749999987795931  0.3020387628574426   F   F   F
  0.5965103863596468  0.5964998746837651  0.6960253500533895   T   T   T
  0.6322371465424297  0.4645158134554137  0.6976297380940082   T   T   T
  0.5354828022884277  0.3678322292593563  0.6976514618401524   T   T   T
  0.4034827050777849  0.4035064576760874  0.6960238629510656   T   T   T
  0.3677529269683717  0.5354855195380779  0.6975127213985033   T   T   T
  0.4645018107885690  0.6321677556191148  0.6975308267294338   T   T   T
  0.6717243294674802  0.6717172686494806  0.6967328121104757   T   T   T
  0.3282918423195156  0.3282811808362425  0.6967404726153035   T   T   T
  0.8125668255337288  0.4233587547226065  0.6979622963632295   T   T   T
  0.5766658835416081  0.1873784156887623  0.6980538750313485   T   T   T
  0.1874535984502756  0.5766282707890298  0.6976668308411291   T   T   T
  0.4233467586079342  0.8126095037245520  0.6977980091224083   T   T   T
 
  0.00000000E+00  0.00000000E+00  0.00000000E+00
  0.00000000E+00  0.00000000E+00  0.00000000E+00
  0.00000000E+00  0.00000000E+00  0.00000000E+00
  0.00000000E+00  0.00000000E+00  0.00000000E+00
  0.00000000E+00  0.00000000E+00  0.00000000E+00
  0.00000000E+00  0.00000000E+00  0.00000000E+00
  0.00000000E+00  0.00000000E+00  0.00000000E+00
  0.00000000E+00  0.00000000E+00  0.00000000E+00
  0.00000000E+00  0.00000000E+00  0.00000000E+00
  0.00000000E+00  0.00000000E+00  0.00000000E+00
  0.00000000E+00  0.00000000E+00  0.00000000E+00
  0.00000000E+00  0.00000000E+00  0.00000000E+00
  0.00000000E+00  0.00000000E+00  0.00000000E+00
  0.00000000E+00  0.00000000E+00  0.00000000E+00
  0.00000000E+00  0.00000000E+00  0.00000000E+00
  0.00000000E+00  0.00000000E+00  0.00000000E+00
  0.00000000E+00  0.00000000E+00  0.00000000E+00
  0.00000000E+00  0.00000000E+00  0.00000000E+00
  0.00000000E+00  0.00000000E+00  0.00000000E+00
  0.00000000E+00  0.00000000E+00  0.00000000E+00
  0.00000000E+00  0.00000000E+00  0.00000000E+00
  0.00000000E+00  0.00000000E+00  0.00000000E+00
  0.00000000E+00  0.00000000E+00  0.00000000E+00
  0.00000000E+00  0.00000000E+00  0.00000000E+00
  0.00000000E+00  0.00000000E+00  0.00000000E+00
  0.00000000E+00  0.00000000E+00  0.00000000E+00
  0.00000000E+00  0.00000000E+00  0.00000000E+00
  0.00000000E+00  0.00000000E+00  0.00000000E+00
  0.00000000E+00  0.00000000E+00  0.00000000E+00
  0.00000000E+00  0.00000000E+00  0.00000000E+00
  0.00000000E+00  0.00000000E+00  0.00000000E+00
  0.00000000E+00  0.00000000E+00  0.00000000E+00
  0.00000000E+00  0.00000000E+00  0.00000000E+00
  0.00000000E+00  0.00000000E+00  0.00000000E+00
  0.00000000E+00  0.00000000E+00  0.00000000E+00
  0.00000000E+00  0.00000000E+00  0.00000000E+00
  0.00000000E+00  0.00000000E+00  0.00000000E+00
  0.00000000E+00  0.00000000E+00  0.00000000E+00
  0.00000000E+00  0.00000000E+00  0.00000000E+00
  0.00000000E+00  0.00000000E+00  0.00000000E+00
  0.00000000E+00  0.00000000E+00  0.00000000E+00
  0.00000000E+00  0.00000000E+00  0.00000000E+00
  0.00000000E+00  0.00000000E+00  0.00000000E+00
  0.00000000E+00  0.00000000E+00  0.00000000E+00
  0.00000000E+00  0.00000000E+00  0.00000000E+00
  0.00000000E+00  0.00000000E+00  0.00000000E+00
  0.00000000E+00  0.00000000E+00  0.00000000E+00
  0.00000000E+00  0.00000000E+00  0.00000000E+00
  0.00000000E+00  0.00000000E+00  0.00000000E+00
  0.00000000E+00  0.00000000E+00  0.00000000E+00
  0.00000000E+00  0.00000000E+00  0.00000000E+00
  0.00000000E+00  0.00000000E+00  0.00000000E+00
  0.00000000E+00  0.00000000E+00  0.00000000E+00
  0.00000000E+00  0.00000000E+00  0.00000000E+00
  0.00000000E+00  0.00000000E+00  0.00000000E+00
  0.00000000E+00  0.00000000E+00  0.00000000E+00
  0.00000000E+00  0.00000000E+00  0.00000000E+00
  0.00000000E+00  0.00000000E+00  0.00000000E+00
  0.00000000E+00  0.00000000E+00  0.00000000E+00
  0.00000000E+00  0.00000000E+00  0.00000000E+00
