Pt  C  H Cl                             
   1.00000000000000     
    11.2480069999999994    0.0000000000000000    0.0000000000000000
    -5.6240030000000001    9.7410599999999992    0.0000000000000000
     0.0000000000000000    0.0000000000000000   24.8879693399999979
   Pt   C    H    Cl
    64     6     4     2
Selective dynamics
Direct
  0.9999999587182344  0.7499999743354451  0.3013504194553178   F   F   F
  0.2499999964438118  0.0000000000000000  0.3013504194553178   F   F   F
  0.2499999825579735  0.2499999917873410  0.3013504194553178   F   F   F
  0.2499999690478916  0.4999999825481041  0.3013504194553178   F   F   F
  0.2499999551620533  0.7499999743354451  0.3013504194553178   F   F   F
  0.4999999928876306  0.0000000000000000  0.3013504194553178   F   F   F
  0.4999999790017924  0.2499999917873410  0.3013504194553178   F   F   F
  0.4999999654917033  0.4999999825481041  0.3013504194553178   F   F   F
  0.7499999893314424  0.0000000000000000  0.3013504194553178   F   F   F
  0.7499999754456042  0.2499999917873410  0.3013504194553178   F   F   F
  0.7499999619355222  0.4999999825481041  0.3013504194553178   F   F   F
  0.7499999480496840  0.7499999743354451  0.3013504194553178   F   F   F
  0.0000000000000000  0.0000000000000000  0.3013504194553178   F   F   F
  0.9999999861141617  0.2499999917873410  0.3013504194553178   F   F   F
  0.9999999583793340  0.4999999825481041  0.3013504194553178   F   F   F
  0.4999999516058651  0.7499999743354451  0.3013504194553178   F   F   F
  0.0833330000000032  0.1666669999999968  0.3936034172243978   F   F   F
  0.0833330000000032  0.4166669999999968  0.3936034172243978   F   F   F
  0.0833330000000032  0.6666669999999968  0.3936034172243978   F   F   F
  0.0833330000000032  0.9166669999999968  0.3936034172243978   F   F   F
  0.3333330000000032  0.1666669999999968  0.3936034172243978   F   F   F
  0.3333330000000032  0.4166669999999968  0.3936034172243978   F   F   F
  0.3333330000000032  0.6666669999999968  0.3936034172243978   F   F   F
  0.3333330000000032  0.9166669999999968  0.3936034172243978   F   F   F
  0.5833330000000032  0.1666669999999968  0.3936034172243978   F   F   F
  0.5833330000000032  0.4166669999999968  0.3936034172243978   F   F   F
  0.5833330000000032  0.6666669999999968  0.3936034172243978   F   F   F
  0.5833330000000032  0.9166669999999968  0.3936034172243978   F   F   F
  0.8333330000000032  0.1666669999999968  0.3936034172243978   F   F   F
  0.8333330000000032  0.4166669999999968  0.3936034172243978   F   F   F
  0.8333330000000032  0.6666669999999968  0.3936034172243978   F   F   F
  0.8333330000000032  0.9166669999999968  0.3936034172243978   F   F   F
  0.2453702302458319  0.2454636295181218  0.5779659346627570   T   T   T
  0.2433240437448421  0.4982532650376273  0.5772904069771392   T   T   T
  0.2504153718834312  0.7499425508128482  0.5788555873009142   T   T   T
  0.2507670968133075  0.9992522756215956  0.5785349205537522   T   T   T
  0.4976216476623108  0.2434099014282040  0.5772777242925361   T   T   T
  0.4896085757945627  0.4909562300590770  0.5821501813571265   T   T   T
  0.4997642726282343  0.7502416426382131  0.5854177765740747   T   T   T
  0.5000609809688532  0.9995922527582121  0.5788561598619462   T   T   T
  0.7497165882844337  0.2511737677092829  0.5788516682895948   T   T   T
  0.7487580175040282  0.5012388888366598  0.5848480576760201   T   T   T
  0.7590474533123692  0.7603951784235501  0.5821415933413229   T   T   T
  0.7517402359006380  0.0066829045850527  0.5772894903670014   T   T   T
  0.9991700708827775  0.2508214644057014  0.5786181115743643   T   T   T
  0.9988158375513114  0.5002826523032150  0.5788476146513823   T   T   T
  0.0065977901368241  0.7523922193623623  0.5772733957400741   T   T   T
  0.0045393311464817  0.0046473382785197  0.5779695505004191   T   T   T
  0.1676752545558876  0.0823237360273024  0.4844099209357695   T   T   T
  0.1662453617979776  0.3328344505403641  0.4848472912364795   T   T   T
  0.1659553631055820  0.5836558473433227  0.4847967919923980   T   T   T
  0.1677671474392188  0.8325920038867223  0.4844361533841562   T   T   T
  0.4174160732036741  0.0822438760235873  0.4844352640614600   T   T   T
  0.4175741797558108  0.3354502784051933  0.4860203827722221   T   T   T
  0.4179982982599459  0.5829565449585458  0.4872790456994898   T   T   T
  0.4198014762207553  0.8302056333254353  0.4873813320395565   T   T   T
  0.6663403056396263  0.0840420076262761  0.4847972096668346   T   T   T
  0.6675126059172011  0.3366279837428684  0.4867793863327585   T   T   T
  0.6659245143913960  0.5840703189387360  0.4877490345405753   T   T   T
  0.6670408290288348  0.8320055841909176  0.4872761939339180   T   T   T
  0.9171557141298738  0.0837468461371642  0.4848480962618051   T   T   T
  0.9161729812248631  0.3338203316623444  0.4853188917917796   T   T   T
  0.9133652152161545  0.5824825762946136  0.4867797974602147   T   T   T
  0.9145536260011154  0.8324333347372396  0.4860192285863880   T   T   T
  0.7034944667588504  0.5465067143172250  0.6624149882730979   T   T   T
  0.5509425177695211  0.4775303780066150  0.6635933369538375   T   T   T
  0.4773073422812264  0.5513400448978569  0.6637389868558184   T   T   T
  0.5461743625240856  0.7038463432155612  0.6626474194932936   T   T   T
  0.6986706667717471  0.7726938847058803  0.6637292984510720   T   T   T
  0.7724940745485013  0.6990771625034979  0.6635886745090701   T   T   T
  0.4977798486512613  0.3719703919795156  0.6784108168662463   T   T   T
  0.3717777752449827  0.4981526160473538  0.6785672004496456   T   T   T
  0.7518705068724408  0.8782393447229146  0.6785560951719869   T   T   T
  0.8780400584503223  0.7522416330034777  0.6783995754290600   T   T   T
  0.7683652640778689  0.4816300321391488  0.7128340423322352   T   T   T
  0.4815000381376845  0.7686788291354623  0.7132270377078703   T   T   T
 
  0.00000000E+00  0.00000000E+00  0.00000000E+00
  0.00000000E+00  0.00000000E+00  0.00000000E+00
  0.00000000E+00  0.00000000E+00  0.00000000E+00
  0.00000000E+00  0.00000000E+00  0.00000000E+00
  0.00000000E+00  0.00000000E+00  0.00000000E+00
  0.00000000E+00  0.00000000E+00  0.00000000E+00
  0.00000000E+00  0.00000000E+00  0.00000000E+00
  0.00000000E+00  0.00000000E+00  0.00000000E+00
  0.00000000E+00  0.00000000E+00  0.00000000E+00
  0.00000000E+00  0.00000000E+00  0.00000000E+00
  0.00000000E+00  0.00000000E+00  0.00000000E+00
  0.00000000E+00  0.00000000E+00  0.00000000E+00
  0.00000000E+00  0.00000000E+00  0.00000000E+00
  0.00000000E+00  0.00000000E+00  0.00000000E+00
  0.00000000E+00  0.00000000E+00  0.00000000E+00
  0.00000000E+00  0.00000000E+00  0.00000000E+00
  0.00000000E+00  0.00000000E+00  0.00000000E+00
  0.00000000E+00  0.00000000E+00  0.00000000E+00
  0.00000000E+00  0.00000000E+00  0.00000000E+00
  0.00000000E+00  0.00000000E+00  0.00000000E+00
  0.00000000E+00  0.00000000E+00  0.00000000E+00
  0.00000000E+00  0.00000000E+00  0.00000000E+00
  0.00000000E+00  0.00000000E+00  0.00000000E+00
  0.00000000E+00  0.00000000E+00  0.00000000E+00
  0.00000000E+00  0.00000000E+00  0.00000000E+00
  0.00000000E+00  0.00000000E+00  0.00000000E+00
  0.00000000E+00  0.00000000E+00  0.00000000E+00
  0.00000000E+00  0.00000000E+00  0.00000000E+00
  0.00000000E+00  0.00000000E+00  0.00000000E+00
  0.00000000E+00  0.00000000E+00  0.00000000E+00
  0.00000000E+00  0.00000000E+00  0.00000000E+00
  0.00000000E+00  0.00000000E+00  0.00000000E+00
  0.00000000E+00  0.00000000E+00  0.00000000E+00
  0.00000000E+00  0.00000000E+00  0.00000000E+00
  0.00000000E+00  0.00000000E+00  0.00000000E+00
  0.00000000E+00  0.00000000E+00  0.00000000E+00
  0.00000000E+00  0.00000000E+00  0.00000000E+00
  0.00000000E+00  0.00000000E+00  0.00000000E+00
  0.00000000E+00  0.00000000E+00  0.00000000E+00
  0.00000000E+00  0.00000000E+00  0.00000000E+00
  0.00000000E+00  0.00000000E+00  0.00000000E+00
  0.00000000E+00  0.00000000E+00  0.00000000E+00
  0.00000000E+00  0.00000000E+00  0.00000000E+00
  0.00000000E+00  0.00000000E+00  0.00000000E+00
  0.00000000E+00  0.00000000E+00  0.00000000E+00
  0.00000000E+00  0.00000000E+00  0.00000000E+00
  0.00000000E+00  0.00000000E+00  0.00000000E+00
  0.00000000E+00  0.00000000E+00  0.00000000E+00
  0.00000000E+00  0.00000000E+00  0.00000000E+00
  0.00000000E+00  0.00000000E+00  0.00000000E+00
  0.00000000E+00  0.00000000E+00  0.00000000E+00
  0.00000000E+00  0.00000000E+00  0.00000000E+00
  0.00000000E+00  0.00000000E+00  0.00000000E+00
  0.00000000E+00  0.00000000E+00  0.00000000E+00
  0.00000000E+00  0.00000000E+00  0.00000000E+00
  0.00000000E+00  0.00000000E+00  0.00000000E+00
  0.00000000E+00  0.00000000E+00  0.00000000E+00
  0.00000000E+00  0.00000000E+00  0.00000000E+00
  0.00000000E+00  0.00000000E+00  0.00000000E+00
  0.00000000E+00  0.00000000E+00  0.00000000E+00
  0.00000000E+00  0.00000000E+00  0.00000000E+00
  0.00000000E+00  0.00000000E+00  0.00000000E+00
  0.00000000E+00  0.00000000E+00  0.00000000E+00
  0.00000000E+00  0.00000000E+00  0.00000000E+00
  0.00000000E+00  0.00000000E+00  0.00000000E+00
  0.00000000E+00  0.00000000E+00  0.00000000E+00
  0.00000000E+00  0.00000000E+00  0.00000000E+00
  0.00000000E+00  0.00000000E+00  0.00000000E+00
  0.00000000E+00  0.00000000E+00  0.00000000E+00
  0.00000000E+00  0.00000000E+00  0.00000000E+00
  0.00000000E+00  0.00000000E+00  0.00000000E+00
  0.00000000E+00  0.00000000E+00  0.00000000E+00
  0.00000000E+00  0.00000000E+00  0.00000000E+00
  0.00000000E+00  0.00000000E+00  0.00000000E+00
  0.00000000E+00  0.00000000E+00  0.00000000E+00
  0.00000000E+00  0.00000000E+00  0.00000000E+00
