Pd48 C6 H2 F4                           
    1.000000000000000     
    11.1817229999999999    0.0000000000000000    0.0000000000000000
     0.0000000000000000   15.8133443000000007    0.0000000000000000
     0.0000000000000000    0.0000000000000000   15.6562625600000001
   Pd   C    H    F 
    48     6     2     4
Selective dynamics
Direct
  0.2495813658887513  0.0000411940451031  0.4033816877624261   T   T   T
  0.2508894794462719  0.2521608012461272  0.4042716618220581   T   T   T
  0.2454205764229442  0.5001115726652188  0.3974365245227531   T   T   T
  0.2542072834299347  0.7463124862773682  0.4058008276777016   T   T   T
  0.5000011481242765  0.9999865678159310  0.4041551366583747   T   T   T
  0.5000135516792739  0.2533852620384138  0.4056973171842699   T   T   T
  0.4999886899624570  0.5000012493234252  0.3855973686633405   T   T   T
  0.4999875908104414  0.7466287943034899  0.4057302535660199   T   T   T
  0.7504402407650161  0.9999095880276272  0.4033916599319625   T   T   T
  0.7457887918086712  0.2537167350595837  0.4057974532824602   T   T   T
  0.7545952580183624  0.4998698050986832  0.3974467318512325   T   T   T
  0.7491543088094872  0.7478741041067920  0.4042791321533130   T   T   T
  0.0000029893518843  0.9999633135694168  0.4032063341683028   T   T   T
  0.9985827496070883  0.2519176541234458  0.4040776363707366   T   T   T
  0.0000053921949714  0.4999809583099122  0.4040680675784287   T   T   T
  0.0014124389617223  0.7481407590424496  0.4041043984378945   T   T   T
  0.1240943448799641  0.1268246295095921  0.4874630295420985   T   T   T
  0.1244183781916206  0.3757493937282916  0.4891350931803231   T   T   T
  0.1305898828756185  0.6236207365564113  0.4891368103104412   T   T   T
  0.1271165821849820  0.8729586887768264  0.4871621458529063   T   T   T
  0.3747014303094858  0.1262228751862580  0.4876234608299299   T   T   T
  0.3720295158801932  0.3867726710973329  0.4890317230958487   T   T   T
  0.3834771930350271  0.6039325748345590  0.4964215647903174   T   T   T
  0.3764931567904455  0.8741344755733209  0.4881040638893097   T   T   T
  0.6235297036499645  0.1258597744541845  0.4880361392207888   T   T   T
  0.6165140265641895  0.3960700726671362  0.4964344543664865   T   T   T
  0.6279844717538126  0.6132255541739369  0.4889887994777169   T   T   T
  0.6252827647608967  0.8737666729441926  0.4876686781975721   T   T   T
  0.8729485188795394  0.1270542828806569  0.4871095687629605   T   T   T
  0.8693769115753796  0.3763564923743346  0.4891754605993910   T   T   T
  0.8756169082377951  0.6242398737361725  0.4890524732424524   T   T   T
  0.8759179438817313  0.8732039243318397  0.4875173415658054   T   T   T
  0.1249999995528412  0.1249999995257198  0.3193610212423508   F   F   F
  0.1249999995528412  0.3749999992095283  0.3193610212423508   F   F   F
  0.1249999995528412  0.6249999982609609  0.3193610212423508   F   F   F
  0.1249999995528412  0.8749999979447765  0.3193610212423508   F   F   F
  0.3749999986585237  0.1249999995257198  0.3193610212423508   F   F   F
  0.3749999986585237  0.3749999992095283  0.3193610212423508   F   F   F
  0.3749999986585237  0.6249999982609609  0.3193610212423508   F   F   F
  0.3749999986585237  0.8749999979447765  0.3193610212423508   F   F   F
  0.6249999977642062  0.1249999995257198  0.3193610212423508   F   F   F
  0.6249999977642062  0.3749999992095283  0.3193610212423508   F   F   F
  0.6249999977642062  0.6249999982609609  0.3193610212423508   F   F   F
  0.6249999977642062  0.8749999979447765  0.3193610212423508   F   F   F
  0.8749999968698887  0.1249999995257198  0.3193610212423508   F   F   F
  0.8749999968698887  0.3749999992095283  0.3193610212423508   F   F   F
  0.8749999968698887  0.6249999982609609  0.3193610212423508   F   F   F
  0.8749999968698887  0.8749999979447765  0.3193610212423508   F   F   F
  0.5991283150362676  0.5618506245793853  0.6095906352518412   T   T   T
  0.6224719495107180  0.4700736001105597  0.6121935517505932   T   T   T
  0.5250338793513549  0.4106456930314124  0.6177630461800447   T   T   T
  0.4008862404290028  0.4381729609609550  0.6096097036351651   T   T   T
  0.3775280764184643  0.5299051812000926  0.6121969160982346   T   T   T
  0.4749252776655766  0.5893747149782911  0.6177332357100269   T   T   T
  0.6609842305515059  0.5977061212880557  0.6503287727904308   T   T   T
  0.3390226568978747  0.4023244792316447  0.6503604606488267   T   T   T
  0.7260339617857596  0.4501616394851453  0.6555286400425047   T   T   T
  0.5423031670382485  0.3395876116974037  0.6665446142705989   T   T   T
  0.2739631142565742  0.5498818971373467  0.6555484373422047   T   T   T
  0.4576996645740650  0.6604590292438601  0.6665247374852257   T   T   T
 
  0.00000000E+00  0.00000000E+00  0.00000000E+00
  0.00000000E+00  0.00000000E+00  0.00000000E+00
  0.00000000E+00  0.00000000E+00  0.00000000E+00
  0.00000000E+00  0.00000000E+00  0.00000000E+00
  0.00000000E+00  0.00000000E+00  0.00000000E+00
  0.00000000E+00  0.00000000E+00  0.00000000E+00
  0.00000000E+00  0.00000000E+00  0.00000000E+00
  0.00000000E+00  0.00000000E+00  0.00000000E+00
  0.00000000E+00  0.00000000E+00  0.00000000E+00
  0.00000000E+00  0.00000000E+00  0.00000000E+00
  0.00000000E+00  0.00000000E+00  0.00000000E+00
  0.00000000E+00  0.00000000E+00  0.00000000E+00
  0.00000000E+00  0.00000000E+00  0.00000000E+00
  0.00000000E+00  0.00000000E+00  0.00000000E+00
  0.00000000E+00  0.00000000E+00  0.00000000E+00
  0.00000000E+00  0.00000000E+00  0.00000000E+00
  0.00000000E+00  0.00000000E+00  0.00000000E+00
  0.00000000E+00  0.00000000E+00  0.00000000E+00
  0.00000000E+00  0.00000000E+00  0.00000000E+00
  0.00000000E+00  0.00000000E+00  0.00000000E+00
  0.00000000E+00  0.00000000E+00  0.00000000E+00
  0.00000000E+00  0.00000000E+00  0.00000000E+00
  0.00000000E+00  0.00000000E+00  0.00000000E+00
  0.00000000E+00  0.00000000E+00  0.00000000E+00
  0.00000000E+00  0.00000000E+00  0.00000000E+00
  0.00000000E+00  0.00000000E+00  0.00000000E+00
  0.00000000E+00  0.00000000E+00  0.00000000E+00
  0.00000000E+00  0.00000000E+00  0.00000000E+00
  0.00000000E+00  0.00000000E+00  0.00000000E+00
  0.00000000E+00  0.00000000E+00  0.00000000E+00
  0.00000000E+00  0.00000000E+00  0.00000000E+00
  0.00000000E+00  0.00000000E+00  0.00000000E+00
  0.00000000E+00  0.00000000E+00  0.00000000E+00
  0.00000000E+00  0.00000000E+00  0.00000000E+00
  0.00000000E+00  0.00000000E+00  0.00000000E+00
  0.00000000E+00  0.00000000E+00  0.00000000E+00
  0.00000000E+00  0.00000000E+00  0.00000000E+00
  0.00000000E+00  0.00000000E+00  0.00000000E+00
  0.00000000E+00  0.00000000E+00  0.00000000E+00
  0.00000000E+00  0.00000000E+00  0.00000000E+00
  0.00000000E+00  0.00000000E+00  0.00000000E+00
  0.00000000E+00  0.00000000E+00  0.00000000E+00
  0.00000000E+00  0.00000000E+00  0.00000000E+00
  0.00000000E+00  0.00000000E+00  0.00000000E+00
  0.00000000E+00  0.00000000E+00  0.00000000E+00
  0.00000000E+00  0.00000000E+00  0.00000000E+00
  0.00000000E+00  0.00000000E+00  0.00000000E+00
  0.00000000E+00  0.00000000E+00  0.00000000E+00
  0.00000000E+00  0.00000000E+00  0.00000000E+00
  0.00000000E+00  0.00000000E+00  0.00000000E+00
  0.00000000E+00  0.00000000E+00  0.00000000E+00
  0.00000000E+00  0.00000000E+00  0.00000000E+00
  0.00000000E+00  0.00000000E+00  0.00000000E+00
  0.00000000E+00  0.00000000E+00  0.00000000E+00
  0.00000000E+00  0.00000000E+00  0.00000000E+00
  0.00000000E+00  0.00000000E+00  0.00000000E+00
  0.00000000E+00  0.00000000E+00  0.00000000E+00
  0.00000000E+00  0.00000000E+00  0.00000000E+00
  0.00000000E+00  0.00000000E+00  0.00000000E+00
  0.00000000E+00  0.00000000E+00  0.00000000E+00
