Ag48 C4 N2 F4                           
    1.000000000000000     
    11.7702790000000004    0.0000000000000000    0.0000000000000000
     0.0000000000000000   11.7702790000000004    0.0000000000000000
     0.0000000000000000    0.0000000000000000   16.7990261099999998
   Ag   C    N    F 
    48     4     2     4
Selective dynamics
Direct
  0.0000255227861672  0.2498964397463084  0.4104299266540039   T   T   T
  0.0000003269018052  0.4999994840290967  0.4104139030313689   T   T   T
  0.9999748932221024  0.7501039996053223  0.4104298516282796   T   T   T
  0.0000000797737556  0.0000000891564156  0.4104165498068895   T   T   T
  0.2498588626449276  0.2498603413144238  0.4104430426476071   T   T   T
  0.2494616968808430  0.4996665853468869  0.4101335900365015   T   T   T
  0.2495633877609507  0.7504342454052448  0.4101601432939503   T   T   T
  0.2498944615713583  0.0000258880681869  0.4104296534292260   T   T   T
  0.4996681499362410  0.2494643106695591  0.4101337812743679   T   T   T
  0.5000002775814565  0.4999985604725126  0.4099636402484279   T   T   T
  0.5003324933673596  0.7505361282363197  0.4101347188670204   T   T   T
  0.5000000752253726  0.0000009996323485  0.4104131579565831   T   T   T
  0.7504345247507587  0.2495668852509851  0.4101609259568590   T   T   T
  0.7505374516108034  0.5003307656428717  0.4101353180305765   T   T   T
  0.7501419829698506  0.7501401833640458  0.4104440543124497   T   T   T
  0.7501055022977638  0.9999751558565180  0.4104294612133543   T   T   T
  0.1248995229132888  0.1248997498004130  0.5232527187966056   T   T   T
  0.1248325909194747  0.3749445337398001  0.5231506099404015   T   T   T
  0.1249354515192849  0.6250624762394921  0.5230616953060547   T   T   T
  0.1249179886749374  0.8750825075287310  0.5232838586564554   T   T   T
  0.3749444866068785  0.1248319956477459  0.5231503682256928   T   T   T
  0.3748287953520304  0.3748293382037033  0.5227539282574440   T   T   T
  0.3749230364931151  0.6250756394150727  0.5213256115113936   T   T   T
  0.3749378890401829  0.8750637490757924  0.5230649689532214   T   T   T
  0.6250628668876246  0.1249355583982705  0.5230616101046195   T   T   T
  0.6250734890586500  0.3749267064652173  0.5213311286052331   T   T   T
  0.6251713895353532  0.6251715937723077  0.5227533904334010   T   T   T
  0.6250549798992253  0.8751670256141892  0.5231515273022325   T   T   T
  0.8750826446583275  0.1249174765193501  0.5232840442274878   T   T   T
  0.8750644155863725  0.3749372891741132  0.5230615433763219   T   T   T
  0.8751674137637409  0.6250554904193208  0.5231507844812171   T   T   T
  0.8751001251264867  0.8751004188671843  0.5232523717014459   T   T   T
  0.1249999995752020  0.1249999995752020  0.2976363014891490   F   F   F
  0.1249999995752020  0.3749999987256061  0.2976363014891490   F   F   F
  0.1249999995752020  0.6249999978760030  0.2976363014891490   F   F   F
  0.1249999995752020  0.8749999970264071  0.2976363014891490   F   F   F
  0.3749999987256061  0.1249999995752020  0.2976363014891490   F   F   F
  0.3749999987256061  0.3749999987256061  0.2976363014891490   F   F   F
  0.3749999987256061  0.6249999978760030  0.2976363014891490   F   F   F
  0.3749999987256061  0.8749999970264071  0.2976363014891490   F   F   F
  0.6249999978760030  0.1249999995752020  0.2976363014891490   F   F   F
  0.6249999978760030  0.3749999987256061  0.2976363014891490   F   F   F
  0.6249999978760030  0.6249999978760030  0.2976363014891490   F   F   F
  0.6249999978760030  0.8749999970264071  0.2976363014891490   F   F   F
  0.8749999970264071  0.1249999995752020  0.2976363014891490   F   F   F
  0.8749999970264071  0.3749999987256061  0.2976363014891490   F   F   F
  0.8749999970264071  0.6249999978760030  0.2976363014891490   F   F   F
  0.8749999970264071  0.8749999970264071  0.2976363014891490   F   F   F
  0.5255713274047267  0.3901447334617671  0.7019853949653196   T   T   T
  0.6098535856823020  0.4744115713643069  0.7019842558544198   T   T   T
  0.4744252524322263  0.6098548366673313  0.7019865677243899   T   T   T
  0.3901516671863945  0.5256006218262783  0.7019870641230526   T   T   T
  0.5833219049448317  0.5833114723082744  0.7026416396895954   T   T   T
  0.4166776337656373  0.4166961587708968  0.7026407350208430   T   T   T
  0.2794965778668228  0.5537040171782195  0.7039199909445202   T   T   T
  0.4463335292936250  0.7205200451697422  0.7039168433791261   T   T   T
  0.5536676814680845  0.2794665411737398  0.7039213738767245   T   T   T
  0.7205197886449497  0.4462978559790116  0.7039156459425371   T   T   T
 
  0.00000000E+00  0.00000000E+00  0.00000000E+00
  0.00000000E+00  0.00000000E+00  0.00000000E+00
  0.00000000E+00  0.00000000E+00  0.00000000E+00
  0.00000000E+00  0.00000000E+00  0.00000000E+00
  0.00000000E+00  0.00000000E+00  0.00000000E+00
  0.00000000E+00  0.00000000E+00  0.00000000E+00
  0.00000000E+00  0.00000000E+00  0.00000000E+00
  0.00000000E+00  0.00000000E+00  0.00000000E+00
  0.00000000E+00  0.00000000E+00  0.00000000E+00
  0.00000000E+00  0.00000000E+00  0.00000000E+00
  0.00000000E+00  0.00000000E+00  0.00000000E+00
  0.00000000E+00  0.00000000E+00  0.00000000E+00
  0.00000000E+00  0.00000000E+00  0.00000000E+00
  0.00000000E+00  0.00000000E+00  0.00000000E+00
  0.00000000E+00  0.00000000E+00  0.00000000E+00
  0.00000000E+00  0.00000000E+00  0.00000000E+00
  0.00000000E+00  0.00000000E+00  0.00000000E+00
  0.00000000E+00  0.00000000E+00  0.00000000E+00
  0.00000000E+00  0.00000000E+00  0.00000000E+00
  0.00000000E+00  0.00000000E+00  0.00000000E+00
  0.00000000E+00  0.00000000E+00  0.00000000E+00
  0.00000000E+00  0.00000000E+00  0.00000000E+00
  0.00000000E+00  0.00000000E+00  0.00000000E+00
  0.00000000E+00  0.00000000E+00  0.00000000E+00
  0.00000000E+00  0.00000000E+00  0.00000000E+00
  0.00000000E+00  0.00000000E+00  0.00000000E+00
  0.00000000E+00  0.00000000E+00  0.00000000E+00
  0.00000000E+00  0.00000000E+00  0.00000000E+00
  0.00000000E+00  0.00000000E+00  0.00000000E+00
  0.00000000E+00  0.00000000E+00  0.00000000E+00
  0.00000000E+00  0.00000000E+00  0.00000000E+00
  0.00000000E+00  0.00000000E+00  0.00000000E+00
  0.00000000E+00  0.00000000E+00  0.00000000E+00
  0.00000000E+00  0.00000000E+00  0.00000000E+00
  0.00000000E+00  0.00000000E+00  0.00000000E+00
  0.00000000E+00  0.00000000E+00  0.00000000E+00
  0.00000000E+00  0.00000000E+00  0.00000000E+00
  0.00000000E+00  0.00000000E+00  0.00000000E+00
  0.00000000E+00  0.00000000E+00  0.00000000E+00
  0.00000000E+00  0.00000000E+00  0.00000000E+00
  0.00000000E+00  0.00000000E+00  0.00000000E+00
  0.00000000E+00  0.00000000E+00  0.00000000E+00
  0.00000000E+00  0.00000000E+00  0.00000000E+00
  0.00000000E+00  0.00000000E+00  0.00000000E+00
  0.00000000E+00  0.00000000E+00  0.00000000E+00
  0.00000000E+00  0.00000000E+00  0.00000000E+00
  0.00000000E+00  0.00000000E+00  0.00000000E+00
  0.00000000E+00  0.00000000E+00  0.00000000E+00
  0.00000000E+00  0.00000000E+00  0.00000000E+00
  0.00000000E+00  0.00000000E+00  0.00000000E+00
  0.00000000E+00  0.00000000E+00  0.00000000E+00
  0.00000000E+00  0.00000000E+00  0.00000000E+00
  0.00000000E+00  0.00000000E+00  0.00000000E+00
  0.00000000E+00  0.00000000E+00  0.00000000E+00
  0.00000000E+00  0.00000000E+00  0.00000000E+00
  0.00000000E+00  0.00000000E+00  0.00000000E+00
  0.00000000E+00  0.00000000E+00  0.00000000E+00
  0.00000000E+00  0.00000000E+00  0.00000000E+00
