H2 Pt48 C6 Br4                          
    1.000000000000000     
    11.2480069999999994    0.0000000000000000    0.0000000000000000
    -5.6240030000000001    9.7410599999999992    0.0000000000000000
     0.0000000000000000    0.0000000000000000   17.5976940000000006
   H    Pt   C    Br
     2    48     6     4
Selective dynamics
Direct
  0.7527632433024394  0.4971902493479590  0.7869861925721580   T   T   T
  0.4973403779260579  0.7523802285611723  0.7866372573922504   T   T   T
  0.0833330000000032  0.1666669999999968  0.3409539999999964   F   F   F
  0.0833330000000032  0.4166669999999968  0.3409539999999964   F   F   F
  0.0833330000000032  0.6666669999999968  0.3409539999999964   F   F   F
  0.0833330000000032  0.9166669999999968  0.3409539999999964   F   F   F
  0.3333330000000032  0.1666669999999968  0.3409539999999964   F   F   F
  0.3333330000000032  0.4166669999999968  0.3409539999999964   F   F   F
  0.3333330000000032  0.6666669999999968  0.3409539999999964   F   F   F
  0.3333330000000032  0.9166669999999968  0.3409539999999964   F   F   F
  0.5833330000000032  0.1666669999999968  0.3409539999999964   F   F   F
  0.5833330000000032  0.4166669999999968  0.3409539999999964   F   F   F
  0.5833330000000032  0.6666669999999968  0.3409539999999964   F   F   F
  0.5833330000000032  0.9166669999999968  0.3409539999999964   F   F   F
  0.8333330000000032  0.1666669999999968  0.3409539999999964   F   F   F
  0.8333330000000032  0.4166669999999968  0.3409539999999964   F   F   F
  0.8333330000000032  0.6666669999999968  0.3409539999999964   F   F   F
  0.8333330000000032  0.9166669999999968  0.3409539999999964   F   F   F
  0.2489401308328070  0.2499942650661495  0.6008973064395846   T   T   T
  0.2491295600070487  0.5005729488078074  0.6041321310208190   T   T   T
  0.2496735010474325  0.7508063027576810  0.6029637586897749   T   T   T
  0.2496417999965033  0.0004036719826388  0.6023333270597817   T   T   T
  0.4997629788973512  0.2498932226799297  0.6041847342276156   T   T   T
  0.4997056326239715  0.5009178761517248  0.5985869743409111   T   T   T
  0.4989813615680916  0.7510232704174840  0.6009065954409820   T   T   T
  0.4992126377030672  0.0003518548467341  0.6029752717101928   T   T   T
  0.7498030755816814  0.2507054461672880  0.6028752280669494   T   T   T
  0.7498000731954946  0.5002160916787801  0.6011021501606635   T   T   T
  0.7490835448526951  0.7502973160204292  0.5985782749035948   T   T   T
  0.7494611484614140  0.0008976185480165  0.6041677177857920   T   T   T
  0.9992567414375344  0.2507967111202092  0.6019804689655501   T   T   T
  0.9993377301250490  0.5002365485034375  0.6028663481919097   T   T   T
  0.0001410409176046  0.7502699516254339  0.6042181033789760   T   T   T
  0.0000624341775719  0.0011178420695614  0.6009110186222912   T   T   T
  0.1665666371293497  0.0834612667985795  0.4709095609919061   T   T   T
  0.1663560415646259  0.3338442911018547  0.4713576820757979   T   T   T
  0.1665585296047212  0.5830734761086163  0.4724015471130727   T   T   T
  0.1666146855928474  0.8334241759425609  0.4719368877134755   T   T   T
  0.4165905195170510  0.0833911530353220  0.4719248541076624   T   T   T
  0.4164002632361488  0.3321687888451947  0.4710562135061025   T   T   T
  0.4154734921326977  0.5837038150550100  0.4707204819455484   T   T   T
  0.4157456114294291  0.8342643827488914  0.4715137644763630   T   T   T
  0.6669513474424420  0.0834588963045633  0.4724072258591079   T   T   T
  0.6656843331260092  0.3324238995165487  0.4717119847074045   T   T   T
  0.6668345617951204  0.5831613432464451  0.4698823020289566   T   T   T
  0.6663073151945298  0.8345472872367523  0.4707179203938949   T   T   T
  0.9161670699115447  0.0836621513804090  0.4713654065953889   T   T   T
  0.9159897555169678  0.3340276987688142  0.4716449510798810   T   T   T
  0.9175891426051805  0.5843409079124768  0.4717253661940219   T   T   T
  0.9178510125317985  0.8336249092445271  0.4710617465217339   T   T   T
  0.6967137919068946  0.5532315962929815  0.7885631024395607   T   T   T
  0.5531333441739932  0.4808344636789101  0.7883186545696645   T   T   T
  0.4810104350917399  0.5528986270790170  0.7882596355540272   T   T   T
  0.5533124119916337  0.6964152222729183  0.7883860779037164   T   T   T
  0.6968646772744123  0.7687565032424644  0.7881798528751816   T   T   T
  0.7690581611942733  0.6967713049468713  0.7882294190641161   T   T   T
  0.4631570052366669  0.2866778888843911  0.7827057312682300   T   T   T
  0.2869222534370834  0.4629343564537649  0.7830645110820598   T   T   T
  0.7867567979312966  0.9629506986531098  0.7828709519823107   T   T   T
  0.9631149250504762  0.7867820706637403  0.7824989351321037   T   T   T
 
  0.00000000E+00  0.00000000E+00  0.00000000E+00
  0.00000000E+00  0.00000000E+00  0.00000000E+00
  0.00000000E+00  0.00000000E+00  0.00000000E+00
  0.00000000E+00  0.00000000E+00  0.00000000E+00
  0.00000000E+00  0.00000000E+00  0.00000000E+00
  0.00000000E+00  0.00000000E+00  0.00000000E+00
  0.00000000E+00  0.00000000E+00  0.00000000E+00
  0.00000000E+00  0.00000000E+00  0.00000000E+00
  0.00000000E+00  0.00000000E+00  0.00000000E+00
  0.00000000E+00  0.00000000E+00  0.00000000E+00
  0.00000000E+00  0.00000000E+00  0.00000000E+00
  0.00000000E+00  0.00000000E+00  0.00000000E+00
  0.00000000E+00  0.00000000E+00  0.00000000E+00
  0.00000000E+00  0.00000000E+00  0.00000000E+00
  0.00000000E+00  0.00000000E+00  0.00000000E+00
  0.00000000E+00  0.00000000E+00  0.00000000E+00
  0.00000000E+00  0.00000000E+00  0.00000000E+00
  0.00000000E+00  0.00000000E+00  0.00000000E+00
  0.00000000E+00  0.00000000E+00  0.00000000E+00
  0.00000000E+00  0.00000000E+00  0.00000000E+00
  0.00000000E+00  0.00000000E+00  0.00000000E+00
  0.00000000E+00  0.00000000E+00  0.00000000E+00
  0.00000000E+00  0.00000000E+00  0.00000000E+00
  0.00000000E+00  0.00000000E+00  0.00000000E+00
  0.00000000E+00  0.00000000E+00  0.00000000E+00
  0.00000000E+00  0.00000000E+00  0.00000000E+00
  0.00000000E+00  0.00000000E+00  0.00000000E+00
  0.00000000E+00  0.00000000E+00  0.00000000E+00
  0.00000000E+00  0.00000000E+00  0.00000000E+00
  0.00000000E+00  0.00000000E+00  0.00000000E+00
  0.00000000E+00  0.00000000E+00  0.00000000E+00
  0.00000000E+00  0.00000000E+00  0.00000000E+00
  0.00000000E+00  0.00000000E+00  0.00000000E+00
  0.00000000E+00  0.00000000E+00  0.00000000E+00
  0.00000000E+00  0.00000000E+00  0.00000000E+00
  0.00000000E+00  0.00000000E+00  0.00000000E+00
  0.00000000E+00  0.00000000E+00  0.00000000E+00
  0.00000000E+00  0.00000000E+00  0.00000000E+00
  0.00000000E+00  0.00000000E+00  0.00000000E+00
  0.00000000E+00  0.00000000E+00  0.00000000E+00
  0.00000000E+00  0.00000000E+00  0.00000000E+00
  0.00000000E+00  0.00000000E+00  0.00000000E+00
  0.00000000E+00  0.00000000E+00  0.00000000E+00
  0.00000000E+00  0.00000000E+00  0.00000000E+00
  0.00000000E+00  0.00000000E+00  0.00000000E+00
  0.00000000E+00  0.00000000E+00  0.00000000E+00
  0.00000000E+00  0.00000000E+00  0.00000000E+00
  0.00000000E+00  0.00000000E+00  0.00000000E+00
  0.00000000E+00  0.00000000E+00  0.00000000E+00
  0.00000000E+00  0.00000000E+00  0.00000000E+00
  0.00000000E+00  0.00000000E+00  0.00000000E+00
  0.00000000E+00  0.00000000E+00  0.00000000E+00
  0.00000000E+00  0.00000000E+00  0.00000000E+00
  0.00000000E+00  0.00000000E+00  0.00000000E+00
  0.00000000E+00  0.00000000E+00  0.00000000E+00
  0.00000000E+00  0.00000000E+00  0.00000000E+00
  0.00000000E+00  0.00000000E+00  0.00000000E+00
  0.00000000E+00  0.00000000E+00  0.00000000E+00
  0.00000000E+00  0.00000000E+00  0.00000000E+00
  0.00000000E+00  0.00000000E+00  0.00000000E+00
