Cu48 C4 N2 Br4                          
    1.000000000000000     
    10.2424774999999997    0.0000000000000000    0.0000000000000000
     0.0000000000000000   14.4850505999999992    0.0000000000000000
     0.0000000000000000    0.0000000000000000   15.4644450100000004
   Cu   C    N    Br
    48     4     2     4
Selective dynamics
Direct
  0.2492010342683173  0.2501934901849054  0.4011918498669615   T   T   T
  0.2503573478684444  0.4997991437187466  0.4001973773381238   T   T   T
  0.2501721569750117  0.7492072769924860  0.4015996244636568   T   T   T
  0.2503322699296575  0.9998414305025562  0.4037811302292766   T   T   T
  0.4997100660186362  0.2501021923532889  0.3997420711429100   T   T   T
  0.5000139577016043  0.5000087555033872  0.3988024931744434   T   T   T
  0.5002991647794417  0.7498875739581621  0.3997562367497736   T   T   T
  0.4999990216718686  0.0000076853471143  0.4041290823462376   T   T   T
  0.7498344481781913  0.2507970391248904  0.4015889413489262   T   T   T
  0.7496402487780500  0.5002078018345557  0.4001898122811340   T   T   T
  0.7507961753048704  0.7497873010684799  0.4012008805166403   T   T   T
  0.7496716336680223  0.0001741062956881  0.4037937469655262   T   T   T
  0.9994907041804311  0.2505211002146623  0.4024654581195648   T   T   T
  0.9999924861753016  0.4999981831057596  0.4014176189537082   T   T   T
  0.0005027320431807  0.7494743888151305  0.4024741327326282   T   T   T
  0.9999982024664078  0.0000079259315484  0.4034532769609029   T   T   T
  0.1248604417069927  0.1259871450607264  0.4818401135130017   T   T   T
  0.1238618308021131  0.3752216721553339  0.4820846037406383   T   T   T
  0.1252177636006095  0.6244141989783500  0.4824911238952581   T   T   T
  0.1253428554353135  0.8737758459715863  0.4818642051221360   T   T   T
  0.3748639948715109  0.1271877592692050  0.4816622758282918   T   T   T
  0.3716784929431896  0.3710696966185481  0.4837106208517454   T   T   T
  0.3757536358227327  0.6260979660410513  0.4833992327455263   T   T   T
  0.3753943729827895  0.8726136095118449  0.4821611558139125   T   T   T
  0.6246030463038608  0.1274092948056804  0.4821716668631524   T   T   T
  0.6242457133776185  0.3738859594793524  0.4833964891984692   T   T   T
  0.6283270541043038  0.6289192598403019  0.4836991598313247   T   T   T
  0.6251370054290675  0.8728307275772522  0.4816633427581323   T   T   T
  0.8746577538285294  0.1262436712306325  0.4818721325728319   T   T   T
  0.8747809655516505  0.3755740738476021  0.4824904787255591   T   T   T
  0.8761402544167751  0.6247600743417721  0.4820772216306253   T   T   T
  0.8751441347479272  0.8740273522600148  0.4818393494945141   T   T   T
  0.1250000002440785  0.1249999996548183  0.3233223046004383   F   F   F
  0.1250000002440785  0.3749999989644479  0.3233223046004383   F   F   F
  0.1250000002440785  0.6249999982740846  0.3233223046004383   F   F   F
  0.1250000002440785  0.8749999975837142  0.3233223046004383   F   F   F
  0.3749999997559215  0.1249999996548183  0.3233223046004383   F   F   F
  0.3749999997559215  0.3749999989644479  0.3233223046004383   F   F   F
  0.3749999997559215  0.6249999982740846  0.3233223046004383   F   F   F
  0.3749999997559215  0.8749999975837142  0.3233223046004383   F   F   F
  0.6249999982914289  0.1249999996548183  0.3233223046004383   F   F   F
  0.6249999992677573  0.3749999989644479  0.3233223046004383   F   F   F
  0.6249999992677573  0.6249999982740846  0.3233223046004383   F   F   F
  0.6249999992677573  0.8749999975837142  0.3233223046004383   F   F   F
  0.8749999987795931  0.1249999996548183  0.3233223046004383   F   F   F
  0.8749999978032648  0.3749999989644479  0.3233223046004383   F   F   F
  0.8749999987795931  0.6249999982740846  0.3233223046004383   F   F   F
  0.8749999987795931  0.8749999975837142  0.3233223046004383   F   F   F
  0.5588027155078095  0.4121824011019939  0.6059331978980040   T   T   T
  0.6287228037536323  0.4960448430484377  0.6188873007305915   T   T   T
  0.4412010797241592  0.5878205560115575  0.6059411403608550   T   T   T
  0.3712705024841370  0.5039378920294766  0.6188821947268437   T   T   T
  0.5803128795490906  0.5783987294977493  0.6009065566802931   T   T   T
  0.4196755864658925  0.4216125512998232  0.6008942579668073   T   T   T
  0.1868883001726687  0.5078135336802418  0.6413912605899981   T   T   T
  0.3923841903435488  0.6989157138854551  0.6736690040107831   T   T   T
  0.6076092389565773  0.3010893797704313  0.6736755632628899   T   T   T
  0.8131060669213710  0.4921860129246909  0.6413948065152937   T   T   T
 
  0.00000000E+00  0.00000000E+00  0.00000000E+00
  0.00000000E+00  0.00000000E+00  0.00000000E+00
  0.00000000E+00  0.00000000E+00  0.00000000E+00
  0.00000000E+00  0.00000000E+00  0.00000000E+00
  0.00000000E+00  0.00000000E+00  0.00000000E+00
  0.00000000E+00  0.00000000E+00  0.00000000E+00
  0.00000000E+00  0.00000000E+00  0.00000000E+00
  0.00000000E+00  0.00000000E+00  0.00000000E+00
  0.00000000E+00  0.00000000E+00  0.00000000E+00
  0.00000000E+00  0.00000000E+00  0.00000000E+00
  0.00000000E+00  0.00000000E+00  0.00000000E+00
  0.00000000E+00  0.00000000E+00  0.00000000E+00
  0.00000000E+00  0.00000000E+00  0.00000000E+00
  0.00000000E+00  0.00000000E+00  0.00000000E+00
  0.00000000E+00  0.00000000E+00  0.00000000E+00
  0.00000000E+00  0.00000000E+00  0.00000000E+00
  0.00000000E+00  0.00000000E+00  0.00000000E+00
  0.00000000E+00  0.00000000E+00  0.00000000E+00
  0.00000000E+00  0.00000000E+00  0.00000000E+00
  0.00000000E+00  0.00000000E+00  0.00000000E+00
  0.00000000E+00  0.00000000E+00  0.00000000E+00
  0.00000000E+00  0.00000000E+00  0.00000000E+00
  0.00000000E+00  0.00000000E+00  0.00000000E+00
  0.00000000E+00  0.00000000E+00  0.00000000E+00
  0.00000000E+00  0.00000000E+00  0.00000000E+00
  0.00000000E+00  0.00000000E+00  0.00000000E+00
  0.00000000E+00  0.00000000E+00  0.00000000E+00
  0.00000000E+00  0.00000000E+00  0.00000000E+00
  0.00000000E+00  0.00000000E+00  0.00000000E+00
  0.00000000E+00  0.00000000E+00  0.00000000E+00
  0.00000000E+00  0.00000000E+00  0.00000000E+00
  0.00000000E+00  0.00000000E+00  0.00000000E+00
  0.00000000E+00  0.00000000E+00  0.00000000E+00
  0.00000000E+00  0.00000000E+00  0.00000000E+00
  0.00000000E+00  0.00000000E+00  0.00000000E+00
  0.00000000E+00  0.00000000E+00  0.00000000E+00
  0.00000000E+00  0.00000000E+00  0.00000000E+00
  0.00000000E+00  0.00000000E+00  0.00000000E+00
  0.00000000E+00  0.00000000E+00  0.00000000E+00
  0.00000000E+00  0.00000000E+00  0.00000000E+00
  0.00000000E+00  0.00000000E+00  0.00000000E+00
  0.00000000E+00  0.00000000E+00  0.00000000E+00
  0.00000000E+00  0.00000000E+00  0.00000000E+00
  0.00000000E+00  0.00000000E+00  0.00000000E+00
  0.00000000E+00  0.00000000E+00  0.00000000E+00
  0.00000000E+00  0.00000000E+00  0.00000000E+00
  0.00000000E+00  0.00000000E+00  0.00000000E+00
  0.00000000E+00  0.00000000E+00  0.00000000E+00
  0.00000000E+00  0.00000000E+00  0.00000000E+00
  0.00000000E+00  0.00000000E+00  0.00000000E+00
  0.00000000E+00  0.00000000E+00  0.00000000E+00
  0.00000000E+00  0.00000000E+00  0.00000000E+00
  0.00000000E+00  0.00000000E+00  0.00000000E+00
  0.00000000E+00  0.00000000E+00  0.00000000E+00
  0.00000000E+00  0.00000000E+00  0.00000000E+00
  0.00000000E+00  0.00000000E+00  0.00000000E+00
  0.00000000E+00  0.00000000E+00  0.00000000E+00
  0.00000000E+00  0.00000000E+00  0.00000000E+00
