Pt48 C6 Br6                             
    1.000000000000000     
    11.2480068000000006    0.0000000000000000    0.0000000000000000
     0.0000000000000000   15.9070838000000006    0.0000000000000000
     0.0000000000000000    0.0000000000000000   15.6758574199999998
   Pt   C    Br
    48     6     6
Selective dynamics
Direct
  0.2469375087001495  0.2515384805086072  0.3979019788596858   T   T   T
  0.2506917099358077  0.4990474167856647  0.3909292479340252   T   T   T
  0.2505093503058688  0.7480911998468969  0.3973486955471657   T   T   T
  0.2501457905428239  0.0000925460113592  0.3926274784537966   T   T   T
  0.4974875228219702  0.2483464501981203  0.3924966569122503   T   T   T
  0.4999993741355055  0.4999967725108903  0.3912066468497883   T   T   T
  0.5025144052532582  0.7516553321607660  0.3924970808443788   T   T   T
  0.4999948517714898  0.0000046660470048  0.3998668918421515   T   T   T
  0.7494809185090574  0.2519158667208785  0.3973409038471232   T   T   T
  0.7493138222111995  0.5009417272279180  0.3909487552452475   T   T   T
  0.7530589368576628  0.7484619831597499  0.3978949518089365   T   T   T
  0.7498490604371284  0.9999040308845579  0.3926150643049553   T   T   T
  0.9974561150588741  0.2530085693392081  0.4008951885702388   T   T   T
  0.9999932660295556  0.4999929792125783  0.3981013918831096   T   T   T
  0.0025413956393123  0.7470013437662502  0.4008803314711784   T   T   T
  0.9999987599733231  0.9999970074312259  0.3990941236421435   T   T   T
  0.1248683522293774  0.1255446411740309  0.4872420558821773   T   T   T
  0.1183022684625215  0.3755363306039357  0.4904861587662381   T   T   T
  0.1377593125611583  0.6164004086290120  0.4911652741619861   T   T   T
  0.1264204257823778  0.8742694092199557  0.4874504820975076   T   T   T
  0.3726784141933237  0.1257835935383511  0.4876309577095057   T   T   T
  0.3648891340896583  0.3744769872221951  0.4886416082808580   T   T   T
  0.3898018760315338  0.6309454250794744  0.4874943336309272   T   T   T
  0.3739050003204767  0.8748679611367791  0.4872252749423538   T   T   T
  0.6260944782699127  0.1251334118716159  0.4872273211385973   T   T   T
  0.6102265777037701  0.3690348607508227  0.4874680495910866   T   T   T
  0.6350938293680102  0.6255148641011914  0.4886535964814129   T   T   T
  0.6273199587283216  0.8742130018107659  0.4876396087945380   T   T   T
  0.8735788135065548  0.1257252472485462  0.4874302739647689   T   T   T
  0.8622551462459214  0.3835821571908653  0.4911728856744020   T   T   T
  0.8817106740776950  0.6244741845246935  0.4904913321613762   T   T   T
  0.8751185285034069  0.8744551699994005  0.4872447849196817   T   T   T
  0.1250000000000000  0.1250000003143228  0.3189618191870522   F   F   F
  0.1250000000000000  0.3750000003143228  0.3189618191870522   F   F   F
  0.1250000008890453  0.6250000009429755  0.3189618191870522   F   F   F
  0.1250000008890453  0.8750000009429755  0.3189618191870522   F   F   F
  0.3750000008890453  0.1250000003143228  0.3189618191870522   F   F   F
  0.3750000008890453  0.3750000003143228  0.3189618191870522   F   F   F
  0.3750000008890453  0.6250000009429755  0.3189618191870522   F   F   F
  0.3750000008890453  0.8750000009429755  0.3189618191870522   F   F   F
  0.6250000017780906  0.1250000003143228  0.3189618191870522   F   F   F
  0.6250000017780906  0.3750000003143228  0.3189618191870522   F   F   F
  0.6250000017780906  0.6250000009429755  0.3189618191870522   F   F   F
  0.6250000026671358  0.8750000009429755  0.3189618191870522   F   F   F
  0.8750000026671358  0.1250000003143228  0.3189618191870522   F   F   F
  0.8750000026671358  0.3750000003143228  0.3189618191870522   F   F   F
  0.8750000035561882  0.6250000009429755  0.3189618191870522   F   F   F
  0.8750000026671358  0.8750000009429755  0.3189618191870522   F   F   F
  0.6228439371129255  0.4892115772707868  0.6129161810737500   T   T   T
  0.5489162057828736  0.4205945885336035  0.5938723223284725   T   T   T
  0.4221618977280812  0.4306308894205912  0.5929605844482140   T   T   T
  0.3771270494506425  0.5108019915805286  0.6129334421376171   T   T   T
  0.4510629561030939  0.5794517546482467  0.5938450348426727   T   T   T
  0.5779123705050395  0.5693239466063105  0.5929513162245001   T   T   T
  0.7987752975670546  0.4671669659801836  0.6202817538682908   T   T   T
  0.7499288898316934  0.1276422897032106  0.6169101215991830   T   T   T
  0.2485184324727427  0.1311268223147408  0.6168424954617535   T   T   T
  0.2012225313978036  0.5328570681426257  0.6202745339768114   T   T   T
  0.2500752283999788  0.8723950824799189  0.6169087125376294   T   T   T
  0.7514743533271826  0.8689185379291047  0.6168379613757367   T   T   T
 
  0.00000000E+00  0.00000000E+00  0.00000000E+00
  0.00000000E+00  0.00000000E+00  0.00000000E+00
  0.00000000E+00  0.00000000E+00  0.00000000E+00
  0.00000000E+00  0.00000000E+00  0.00000000E+00
  0.00000000E+00  0.00000000E+00  0.00000000E+00
  0.00000000E+00  0.00000000E+00  0.00000000E+00
  0.00000000E+00  0.00000000E+00  0.00000000E+00
  0.00000000E+00  0.00000000E+00  0.00000000E+00
  0.00000000E+00  0.00000000E+00  0.00000000E+00
  0.00000000E+00  0.00000000E+00  0.00000000E+00
  0.00000000E+00  0.00000000E+00  0.00000000E+00
  0.00000000E+00  0.00000000E+00  0.00000000E+00
  0.00000000E+00  0.00000000E+00  0.00000000E+00
  0.00000000E+00  0.00000000E+00  0.00000000E+00
  0.00000000E+00  0.00000000E+00  0.00000000E+00
  0.00000000E+00  0.00000000E+00  0.00000000E+00
  0.00000000E+00  0.00000000E+00  0.00000000E+00
  0.00000000E+00  0.00000000E+00  0.00000000E+00
  0.00000000E+00  0.00000000E+00  0.00000000E+00
  0.00000000E+00  0.00000000E+00  0.00000000E+00
  0.00000000E+00  0.00000000E+00  0.00000000E+00
  0.00000000E+00  0.00000000E+00  0.00000000E+00
  0.00000000E+00  0.00000000E+00  0.00000000E+00
  0.00000000E+00  0.00000000E+00  0.00000000E+00
  0.00000000E+00  0.00000000E+00  0.00000000E+00
  0.00000000E+00  0.00000000E+00  0.00000000E+00
  0.00000000E+00  0.00000000E+00  0.00000000E+00
  0.00000000E+00  0.00000000E+00  0.00000000E+00
  0.00000000E+00  0.00000000E+00  0.00000000E+00
  0.00000000E+00  0.00000000E+00  0.00000000E+00
  0.00000000E+00  0.00000000E+00  0.00000000E+00
  0.00000000E+00  0.00000000E+00  0.00000000E+00
  0.00000000E+00  0.00000000E+00  0.00000000E+00
  0.00000000E+00  0.00000000E+00  0.00000000E+00
  0.00000000E+00  0.00000000E+00  0.00000000E+00
  0.00000000E+00  0.00000000E+00  0.00000000E+00
  0.00000000E+00  0.00000000E+00  0.00000000E+00
  0.00000000E+00  0.00000000E+00  0.00000000E+00
  0.00000000E+00  0.00000000E+00  0.00000000E+00
  0.00000000E+00  0.00000000E+00  0.00000000E+00
  0.00000000E+00  0.00000000E+00  0.00000000E+00
  0.00000000E+00  0.00000000E+00  0.00000000E+00
  0.00000000E+00  0.00000000E+00  0.00000000E+00
  0.00000000E+00  0.00000000E+00  0.00000000E+00
  0.00000000E+00  0.00000000E+00  0.00000000E+00
  0.00000000E+00  0.00000000E+00  0.00000000E+00
  0.00000000E+00  0.00000000E+00  0.00000000E+00
  0.00000000E+00  0.00000000E+00  0.00000000E+00
  0.00000000E+00  0.00000000E+00  0.00000000E+00
  0.00000000E+00  0.00000000E+00  0.00000000E+00
  0.00000000E+00  0.00000000E+00  0.00000000E+00
  0.00000000E+00  0.00000000E+00  0.00000000E+00
  0.00000000E+00  0.00000000E+00  0.00000000E+00
  0.00000000E+00  0.00000000E+00  0.00000000E+00
  0.00000000E+00  0.00000000E+00  0.00000000E+00
  0.00000000E+00  0.00000000E+00  0.00000000E+00
  0.00000000E+00  0.00000000E+00  0.00000000E+00
  0.00000000E+00  0.00000000E+00  0.00000000E+00
  0.00000000E+00  0.00000000E+00  0.00000000E+00
  0.00000000E+00  0.00000000E+00  0.00000000E+00
