Pd  C  H Cl                             
   1.00000000000000     
    11.1922750000000004    0.0000000000000000    0.0000000000000000
    -5.5961369999999997    9.6927939999999992    0.0000000000000000
     0.0000000000000000    0.0000000000000000   24.8538405000000040
   Pd   C    H    Cl
    64     6     2     4
Selective dynamics
Direct
  0.9999999513476965  0.0000000206338839  0.3017642283493345   F   F   F
  0.2499999873901899  0.2500000051584692  0.3017642283493345   F   F   F
  0.2499999828216346  0.5000000103169455  0.3017642283493345   F   F   F
  0.2499999773596073  0.7500000154754147  0.3017642283493345   F   F   F
  0.2499999727910591  0.0000000206338839  0.3017642283493345   F   F   F
  0.4999999802424000  0.2500000051584692  0.3017642283493345   F   F   F
  0.4999999756738518  0.5000000103169455  0.3017642283493345   F   F   F
  0.4999999702118245  0.7500000154754147  0.3017642283493345   F   F   F
  0.7499999730946101  0.2500000051584692  0.3017642283493345   F   F   F
  0.7499999685260619  0.5000000103169455  0.3017642283493345   F   F   F
  0.7499999630640346  0.7500000154754147  0.3017642283493345   F   F   F
  0.7499999584954864  0.0000000206338839  0.3017642283493345   F   F   F
  0.9999999659468273  0.2500000051584692  0.3017642283493345   F   F   F
  0.9999999613782720  0.5000000103169455  0.3017642283493345   F   F   F
  0.9999999559162518  0.7500000154754147  0.3017642283493345   F   F   F
  0.4999999656432692  0.0000000206338839  0.3017642283493345   F   F   F
  0.0833330000000032  0.1666669999999968  0.3936861790032040   F   F   F
  0.0833330000000032  0.4166669999999968  0.3936861790032040   F   F   F
  0.0833330000000032  0.6666669999999968  0.3936861790032040   F   F   F
  0.0833330000000032  0.9166669999999968  0.3936861790032040   F   F   F
  0.3333330000000032  0.1666669999999968  0.3936861790032040   F   F   F
  0.3333330000000032  0.4166669999999968  0.3936861790032040   F   F   F
  0.3333330000000032  0.6666669999999968  0.3936861790032040   F   F   F
  0.3333330000000032  0.9166669999999968  0.3936861790032040   F   F   F
  0.5833330000000032  0.1666669999999968  0.3936861790032040   F   F   F
  0.5833330000000032  0.4166669999999968  0.3936861790032040   F   F   F
  0.5833330000000032  0.6666669999999968  0.3936861790032040   F   F   F
  0.5833330000000032  0.9166669999999968  0.3936861790032040   F   F   F
  0.8333330000000032  0.1666669999999968  0.3936861790032040   F   F   F
  0.8333330000000032  0.4166669999999968  0.3936861790032040   F   F   F
  0.8333330000000032  0.6666669999999968  0.3936861790032040   F   F   F
  0.8333330000000032  0.9166669999999968  0.3936861790032040   F   F   F
  0.2460073106107890  0.9925954897600529  0.5751312114439243   T   T   T
  0.2554442626334895  0.2527158362296208  0.5795488957760931   T   T   T
  0.2460260730613876  0.5034042942986067  0.5751303417212699   T   T   T
  0.2488454858295510  0.7493987416452371  0.5749873991038889   T   T   T
  0.5007075876939325  0.9954193256175732  0.5738279659171195   T   T   T
  0.5022012018098375  0.2420977000742786  0.5781841202530436   T   T   T
  0.5021916662945733  0.5100982602054173  0.5781956432821752   T   T   T
  0.5007212843855471  0.7552922958776683  0.5738240769547294   T   T   T
  0.7525747317229440  0.0012803365676968  0.5750419712137107   T   T   T
  0.7564818320805886  0.2483507642168430  0.5757299689145775   T   T   T
  0.7495438094563692  0.4997725121772547  0.5803758473770696   T   T   T
  0.7564913105993074  0.7581283720536871  0.5757278537442068   T   T   T
  0.0023374839439140  0.0018342557375888  0.5755615860564106   T   T   T
  0.0022987831249041  0.2504781315391385  0.5755525801546725   T   T   T
 -0.0002328438173464  0.5003932188045200  0.5759878216999713   T   T   T
 -0.0002174883263955  0.7493667665608202  0.5760032100527936   T   T   T
  0.1686098245095803  0.0855431499014499  0.4849960853495167   T   T   T
  0.1685870946943937  0.3330801996150829  0.4849918843628365   T   T   T
  0.1651525997510044  0.5822983317180856  0.4833234313149475   T   T   T
  0.1651511462329086  0.8328529302015003  0.4833301788455729   T   T   T
  0.4168801303600256  0.0844662708988688  0.4842630683908460   T   T   T
  0.4181126419683812  0.3340692237517502  0.4846856827024144   T   T   T
  0.4168756897252536  0.5824095190895671  0.4842612705495289   T   T   T
  0.4152432882385746  0.8326196659525666  0.4826482441946217   T   T   T
  0.6670675428704146  0.0832765690879041  0.4832968642766946   T   T   T
  0.6657552136507814  0.3324812387373398  0.4851316084956147   T   T   T
  0.6657612828926947  0.5832961917161230  0.4851346670546228   T   T   T
  0.6670735898462278  0.8337911404865634  0.4832988874145382   T   T   T
  0.9179974976333215  0.0839984448287505  0.4836871842617516   T   T   T
  0.9167021237975165  0.3328255094987417  0.4838780914002455   T   T   T
  0.9124052591721117  0.5812046626110769  0.4856043981377394   T   T   T
  0.9166937594028274  0.8338549339871288  0.4838786319057923   T   T   T
  0.3464801733116338  0.2982183531882489  0.6578155329843304   T   T   T
  0.4258526721460310  0.4490331963034750  0.6598482425309975   T   T   T
  0.5744529433729780  0.5232698071225588  0.6598169720225561   T   T   T
  0.6539519909048824  0.4519785526781792  0.6577860586969143   T   T   T
  0.5744647276957329  0.3011734754576454  0.6598157586822345   T   T   T
  0.4258580583583311  0.2267798578257612  0.6598499998595740   T   T   T
  0.2494664196236388  0.2497190054345543  0.6804605635812533   T   T   T
  0.7508117145147785  0.5003875320742112  0.6805373206959026   T   T   T
  0.3349834447291842  0.5260500779859333  0.6853673020710073   T   T   T
  0.6657546139192807  0.6912316009663101  0.6852380725300954   T   T   T
  0.6658340766912891  0.2245916056575311  0.6852380262602216   T   T   T
  0.3349896954468552  0.0588494030534968  0.6853656156887026   T   T   T
 
  0.00000000E+00  0.00000000E+00  0.00000000E+00
  0.00000000E+00  0.00000000E+00  0.00000000E+00
  0.00000000E+00  0.00000000E+00  0.00000000E+00
  0.00000000E+00  0.00000000E+00  0.00000000E+00
  0.00000000E+00  0.00000000E+00  0.00000000E+00
  0.00000000E+00  0.00000000E+00  0.00000000E+00
  0.00000000E+00  0.00000000E+00  0.00000000E+00
  0.00000000E+00  0.00000000E+00  0.00000000E+00
  0.00000000E+00  0.00000000E+00  0.00000000E+00
  0.00000000E+00  0.00000000E+00  0.00000000E+00
  0.00000000E+00  0.00000000E+00  0.00000000E+00
  0.00000000E+00  0.00000000E+00  0.00000000E+00
  0.00000000E+00  0.00000000E+00  0.00000000E+00
  0.00000000E+00  0.00000000E+00  0.00000000E+00
  0.00000000E+00  0.00000000E+00  0.00000000E+00
  0.00000000E+00  0.00000000E+00  0.00000000E+00
  0.00000000E+00  0.00000000E+00  0.00000000E+00
  0.00000000E+00  0.00000000E+00  0.00000000E+00
  0.00000000E+00  0.00000000E+00  0.00000000E+00
  0.00000000E+00  0.00000000E+00  0.00000000E+00
  0.00000000E+00  0.00000000E+00  0.00000000E+00
  0.00000000E+00  0.00000000E+00  0.00000000E+00
  0.00000000E+00  0.00000000E+00  0.00000000E+00
  0.00000000E+00  0.00000000E+00  0.00000000E+00
  0.00000000E+00  0.00000000E+00  0.00000000E+00
  0.00000000E+00  0.00000000E+00  0.00000000E+00
  0.00000000E+00  0.00000000E+00  0.00000000E+00
  0.00000000E+00  0.00000000E+00  0.00000000E+00
  0.00000000E+00  0.00000000E+00  0.00000000E+00
  0.00000000E+00  0.00000000E+00  0.00000000E+00
  0.00000000E+00  0.00000000E+00  0.00000000E+00
  0.00000000E+00  0.00000000E+00  0.00000000E+00
  0.00000000E+00  0.00000000E+00  0.00000000E+00
  0.00000000E+00  0.00000000E+00  0.00000000E+00
  0.00000000E+00  0.00000000E+00  0.00000000E+00
  0.00000000E+00  0.00000000E+00  0.00000000E+00
  0.00000000E+00  0.00000000E+00  0.00000000E+00
  0.00000000E+00  0.00000000E+00  0.00000000E+00
  0.00000000E+00  0.00000000E+00  0.00000000E+00
  0.00000000E+00  0.00000000E+00  0.00000000E+00
  0.00000000E+00  0.00000000E+00  0.00000000E+00
  0.00000000E+00  0.00000000E+00  0.00000000E+00
  0.00000000E+00  0.00000000E+00  0.00000000E+00
  0.00000000E+00  0.00000000E+00  0.00000000E+00
  0.00000000E+00  0.00000000E+00  0.00000000E+00
  0.00000000E+00  0.00000000E+00  0.00000000E+00
  0.00000000E+00  0.00000000E+00  0.00000000E+00
  0.00000000E+00  0.00000000E+00  0.00000000E+00
  0.00000000E+00  0.00000000E+00  0.00000000E+00
  0.00000000E+00  0.00000000E+00  0.00000000E+00
  0.00000000E+00  0.00000000E+00  0.00000000E+00
  0.00000000E+00  0.00000000E+00  0.00000000E+00
  0.00000000E+00  0.00000000E+00  0.00000000E+00
  0.00000000E+00  0.00000000E+00  0.00000000E+00
  0.00000000E+00  0.00000000E+00  0.00000000E+00
  0.00000000E+00  0.00000000E+00  0.00000000E+00
  0.00000000E+00  0.00000000E+00  0.00000000E+00
  0.00000000E+00  0.00000000E+00  0.00000000E+00
  0.00000000E+00  0.00000000E+00  0.00000000E+00
  0.00000000E+00  0.00000000E+00  0.00000000E+00
  0.00000000E+00  0.00000000E+00  0.00000000E+00
  0.00000000E+00  0.00000000E+00  0.00000000E+00
  0.00000000E+00  0.00000000E+00  0.00000000E+00
  0.00000000E+00  0.00000000E+00  0.00000000E+00
  0.00000000E+00  0.00000000E+00  0.00000000E+00
  0.00000000E+00  0.00000000E+00  0.00000000E+00
  0.00000000E+00  0.00000000E+00  0.00000000E+00
  0.00000000E+00  0.00000000E+00  0.00000000E+00
  0.00000000E+00  0.00000000E+00  0.00000000E+00
  0.00000000E+00  0.00000000E+00  0.00000000E+00
  0.00000000E+00  0.00000000E+00  0.00000000E+00
  0.00000000E+00  0.00000000E+00  0.00000000E+00
  0.00000000E+00  0.00000000E+00  0.00000000E+00
  0.00000000E+00  0.00000000E+00  0.00000000E+00
  0.00000000E+00  0.00000000E+00  0.00000000E+00
  0.00000000E+00  0.00000000E+00  0.00000000E+00
