Ir48 C4 N2 F4                           
    1.000000000000000     
    10.9622135000000007    0.0000000000000000    0.0000000000000000
     0.0000000000000000   10.9622135000000007    0.0000000000000000
     0.0000000000000000    0.0000000000000000   16.7325000400000015
   Ir   C    N    F 
    48     4     2     4
Selective dynamics
Direct
 -0.0008969823912790  0.2494484413451212  0.4094544695259043   T   T   T
  0.0000033314879219  0.5000003614748282  0.4094410367780707   T   T   T
  0.0008977008075401  0.7505520457272467  0.4094547576021641   T   T   T
 -0.0000000664945576  0.0000017157376355  0.4094455246810569   T   T   T
  0.2505222165279029  0.2505189465692441  0.4102096497577912   T   T   T
  0.2507929969018640  0.4998309966541470  0.4102327434841108   T   T   T
  0.2527143889522815  0.7472850029705207  0.4118684422393629   T   T   T
  0.2494503024011595 -0.0008944370079306  0.4094533092614709   T   T   T
  0.4998312481836789  0.2507883726773684  0.4102306641938760   T   T   T
  0.4999991251857336  0.4999977406764491  0.4110342846561716   T   T   T
  0.5001695075986849  0.7492089418527753  0.4102306636422233   T   T   T
  0.5000004007696244  0.0000017961130869  0.4094379778635337   T   T   T
  0.7472891708484565  0.2527092722664490  0.4118661933279882   T   T   T
  0.7492114206683910  0.5001666679105313  0.4102299007134381   T   T   T
  0.7494813235506799  0.7494828913218130  0.4102085805060227   T   T   T
  0.7505531623581294  0.0008977265336013  0.4094529010307247   T   T   T
  0.1248976074540401  0.1248977601969189  0.5211302336631946   T   T   T
  0.1225650922015787  0.3744862570377198  0.5209968850147867   T   T   T
  0.1233372969570081  0.6246710601472766  0.5219114547114783   T   T   T
  0.1248711292512243  0.8751310121775477  0.5212438535146776   T   T   T
  0.3744881064229370  0.1225629133069788  0.5209938988199085   T   T   T
  0.3720068507462088  0.3720008529513195  0.5226612278356568   T   T   T
  0.3739748316178688  0.6260205321950029  0.5313709383948990   T   T   T
  0.3753314433916571  0.8766620498224715  0.5219078470652122   T   T   T
  0.6246727440852150  0.1233351711098964  0.5219046486407733   T   T   T
  0.6260317079315036  0.3739704595660411  0.5313587935192570   T   T   T
  0.6280000520699500  0.6279937886485569  0.5226603852527369   T   T   T
  0.6255149815879932  0.8774364024463851  0.5209939978726938   T   T   T
  0.8751299572745134  0.1248718013398801  0.5212401854186151   T   T   T
  0.8766645828070990  0.3753306119876309  0.5219092387558060   T   T   T
  0.8774371575040226  0.6255141685078888  0.5209964581144783   T   T   T
  0.8751024814739486  0.8751027233505169  0.5211330901928831   T   T   T
  0.1250000002280558  0.1250000002280558  0.2988196616194330   F   F   F
  0.1250000002280558  0.3749999997719442  0.2988196616194330   F   F   F
  0.1250000002280558  0.6249999993158326  0.2988196616194330   F   F   F
  0.1250000002280558  0.8749999988597210  0.2988196616194330   F   F   F
  0.3749999997719442  0.1250000002280558  0.2988196616194330   F   F   F
  0.3749999997719442  0.3749999997719442  0.2988196616194330   F   F   F
  0.3749999997719442  0.6249999993158326  0.2988196616194330   F   F   F
  0.3749999997719442  0.8749999988597210  0.2988196616194330   F   F   F
  0.6249999993158326  0.1250000002280558  0.2988196616194330   F   F   F
  0.6249999993158326  0.3749999997719442  0.2988196616194330   F   F   F
  0.6249999993158326  0.6249999993158326  0.2988196616194330   F   F   F
  0.6249999993158326  0.8749999988597210  0.2988196616194330   F   F   F
  0.8749999988597210  0.1250000002280558  0.2988196616194330   F   F   F
  0.8749999988597210  0.3749999997719442  0.2988196616194330   F   F   F
  0.8749999988597210  0.6249999993158326  0.2988196616194330   F   F   F
  0.8749999988597210  0.8749999988597210  0.2988196616194330   F   F   F
  0.5300488293378012  0.3763448652632299  0.6470004353747668   T   T   T
  0.6236494273988350  0.4699205250771453  0.6470002618093034   T   T   T
  0.4699480476788718  0.6236440341680237  0.6470008529927759   T   T   T
  0.3763470233415090  0.5300693375588342  0.6470001048650293   T   T   T
  0.5937388283477048  0.5937091436670355  0.6421130448902463   T   T   T
  0.4062685376297706  0.4062728237911035  0.6421178449840047   T   T   T
  0.2731115647077682  0.5510098088141802  0.6908902345274469   T   T   T
  0.4490228375680934  0.7268920812131312  0.6908802575462898   T   T   T
  0.5509860403329020  0.2730957921318665  0.6908713999383788   T   T   T
  0.7268866924162385  0.4489757011768571  0.6908828902983495   T   T   T
 
  0.00000000E+00  0.00000000E+00  0.00000000E+00
  0.00000000E+00  0.00000000E+00  0.00000000E+00
  0.00000000E+00  0.00000000E+00  0.00000000E+00
  0.00000000E+00  0.00000000E+00  0.00000000E+00
  0.00000000E+00  0.00000000E+00  0.00000000E+00
  0.00000000E+00  0.00000000E+00  0.00000000E+00
  0.00000000E+00  0.00000000E+00  0.00000000E+00
  0.00000000E+00  0.00000000E+00  0.00000000E+00
  0.00000000E+00  0.00000000E+00  0.00000000E+00
  0.00000000E+00  0.00000000E+00  0.00000000E+00
  0.00000000E+00  0.00000000E+00  0.00000000E+00
  0.00000000E+00  0.00000000E+00  0.00000000E+00
  0.00000000E+00  0.00000000E+00  0.00000000E+00
  0.00000000E+00  0.00000000E+00  0.00000000E+00
  0.00000000E+00  0.00000000E+00  0.00000000E+00
  0.00000000E+00  0.00000000E+00  0.00000000E+00
  0.00000000E+00  0.00000000E+00  0.00000000E+00
  0.00000000E+00  0.00000000E+00  0.00000000E+00
  0.00000000E+00  0.00000000E+00  0.00000000E+00
  0.00000000E+00  0.00000000E+00  0.00000000E+00
  0.00000000E+00  0.00000000E+00  0.00000000E+00
  0.00000000E+00  0.00000000E+00  0.00000000E+00
  0.00000000E+00  0.00000000E+00  0.00000000E+00
  0.00000000E+00  0.00000000E+00  0.00000000E+00
  0.00000000E+00  0.00000000E+00  0.00000000E+00
  0.00000000E+00  0.00000000E+00  0.00000000E+00
  0.00000000E+00  0.00000000E+00  0.00000000E+00
  0.00000000E+00  0.00000000E+00  0.00000000E+00
  0.00000000E+00  0.00000000E+00  0.00000000E+00
  0.00000000E+00  0.00000000E+00  0.00000000E+00
  0.00000000E+00  0.00000000E+00  0.00000000E+00
  0.00000000E+00  0.00000000E+00  0.00000000E+00
  0.00000000E+00  0.00000000E+00  0.00000000E+00
  0.00000000E+00  0.00000000E+00  0.00000000E+00
  0.00000000E+00  0.00000000E+00  0.00000000E+00
  0.00000000E+00  0.00000000E+00  0.00000000E+00
  0.00000000E+00  0.00000000E+00  0.00000000E+00
  0.00000000E+00  0.00000000E+00  0.00000000E+00
  0.00000000E+00  0.00000000E+00  0.00000000E+00
  0.00000000E+00  0.00000000E+00  0.00000000E+00
  0.00000000E+00  0.00000000E+00  0.00000000E+00
  0.00000000E+00  0.00000000E+00  0.00000000E+00
  0.00000000E+00  0.00000000E+00  0.00000000E+00
  0.00000000E+00  0.00000000E+00  0.00000000E+00
  0.00000000E+00  0.00000000E+00  0.00000000E+00
  0.00000000E+00  0.00000000E+00  0.00000000E+00
  0.00000000E+00  0.00000000E+00  0.00000000E+00
  0.00000000E+00  0.00000000E+00  0.00000000E+00
  0.00000000E+00  0.00000000E+00  0.00000000E+00
  0.00000000E+00  0.00000000E+00  0.00000000E+00
  0.00000000E+00  0.00000000E+00  0.00000000E+00
  0.00000000E+00  0.00000000E+00  0.00000000E+00
  0.00000000E+00  0.00000000E+00  0.00000000E+00
  0.00000000E+00  0.00000000E+00  0.00000000E+00
  0.00000000E+00  0.00000000E+00  0.00000000E+00
  0.00000000E+00  0.00000000E+00  0.00000000E+00
  0.00000000E+00  0.00000000E+00  0.00000000E+00
  0.00000000E+00  0.00000000E+00  0.00000000E+00
