Ir  C  H Br                             
   1.00000000000000     
    10.9622130000000002    0.0000000000000000    0.0000000000000000
    -5.4811069999999997    9.4935550000000006    0.0000000000000000
     0.0000000000000000    0.0000000000000000   24.7129573799999989
   Ir   C    H    Br
    64     6     2     4
Selective dynamics
Direct
  0.7500000643925233  0.7500000284403470  0.3034845196661777   F   F   F
  0.0000000000000000  0.0000000000000000  0.3034845196661777   F   F   F
  0.0000000102134052  0.2500000094801180  0.3034845196661777   F   F   F
  0.0000000213390337  0.5000000189602289  0.3034845196661777   F   F   F
  0.0000000753392229  0.7500000284403470  0.3034845196661777   F   F   F
  0.2500000109466924  0.0000000000000000  0.3034845196661777   F   F   F
  0.2500000211600977  0.2500000094801180  0.3034845196661777   F   F   F
  0.2500000322857332  0.5000000189602289  0.3034845196661777   F   F   F
  0.5000000218933920  0.0000000000000000  0.3034845196661777   F   F   F
  0.5000000321067972  0.2500000094801180  0.3034845196661777   F   F   F
  0.5000000432324256  0.5000000189602289  0.3034845196661777   F   F   F
  0.5000000534458309  0.7500000284403470  0.3034845196661777   F   F   F
  0.7500000328400844  0.0000000000000000  0.3034845196661777   F   F   F
  0.7500000430534897  0.2500000094801180  0.3034845196661777   F   F   F
  0.7500000541791181  0.5000000189602289  0.3034845196661777   F   F   F
  0.2500000424991384  0.7500000284403470  0.3034845196661777   F   F   F
  0.0833330000000032  0.1666669999999968  0.3940302372665698   F   F   F
  0.0833330000000032  0.4166669999999968  0.3940302372665698   F   F   F
  0.0833330000000032  0.6666669999999968  0.3940302372665698   F   F   F
  0.0833330000000032  0.9166669999999968  0.3940302372665698   F   F   F
  0.3333330000000032  0.1666669999999968  0.3940302372665698   F   F   F
  0.3333330000000032  0.4166669999999968  0.3940302372665698   F   F   F
  0.3333330000000032  0.6666669999999968  0.3940302372665698   F   F   F
  0.3333330000000032  0.9166669999999968  0.3940302372665698   F   F   F
  0.5833330000000032  0.1666669999999968  0.3940302372665698   F   F   F
  0.5833330000000032  0.4166669999999968  0.3940302372665698   F   F   F
  0.5833330000000032  0.6666669999999968  0.3940302372665698   F   F   F
  0.5833330000000032  0.9166669999999968  0.3940302372665698   F   F   F
  0.8333330000000032  0.1666669999999968  0.3940302372665698   F   F   F
  0.8333330000000032  0.4166669999999968  0.3940302372665698   F   F   F
  0.8333330000000032  0.6666669999999968  0.3940302372665698   F   F   F
  0.8333330000000032  0.9166669999999968  0.3940302372665698   F   F   F
  0.9965288503938459  0.9956668489287581  0.5714002733827606   T   T   T
  0.9945836672639964  0.2474356792704578  0.5738715537869157   T   T   T
  0.0018699201070415  0.5005322855335509  0.5722294689441236   T   T   T
  0.0005979276086023  0.7492239187921181  0.5718025353131500   T   T   T
  0.2472857897715112  0.9937045292628711  0.5737983070116861   T   T   T
  0.2451408906303930  0.2441598321922311  0.5782951409528432   T   T   T
  0.2498045176815809  0.5002725698976443  0.5767040625536877   T   T   T
  0.2495035636626893  0.7484206547731113  0.5723943545534794   T   T   T
  0.5018998404269557  0.0014434489124914  0.5724983591471272   T   T   T
  0.5001859160993761  0.2494310012626524  0.5765640438129706   T   T   T
  0.5056716416461938  0.5044582326908627  0.5781575653330062   T   T   T
  0.5024643001301365  0.7552059046420450  0.5739001233074346   T   T   T
  0.7495821524005514  0.0003864232401215  0.5718638712534730   T   T   T
  0.7486629682853727  0.2482957863637909  0.5726421178797428   T   T   T
  0.7563099520625760  0.5024871722610045  0.5736011909803782   T   T   T
  0.7546288988014757  0.7535070458301215  0.5713741562043201   T   T   T
  0.1676224192779891  0.0850609273626902  0.4836972696951502   T   T   T
  0.1678751385795161  0.3337043900206714  0.4842948058946825   T   T   T
  0.1681646791136712  0.5816344867991528  0.4837390872863254   T   T   T
  0.1683771187958355  0.8339961749866711  0.4832149090808574   T   T   T
  0.4160726772801058  0.0846295066716414  0.4844361350197970   T   T   T
  0.4163317422589891  0.3334168001491364  0.4843106133850231   T   T   T
  0.4161526553950269  0.5820764182843806  0.4842998356581245   T   T   T
  0.4173438006036031  0.8329189455073419  0.4839801025557262   T   T   T
  0.6663500250030820  0.0836699996627771  0.4829729471270011   T   T   T
  0.6653692090183101  0.3340055434359905  0.4844175059002690   T   T   T
  0.6648755277079113  0.5822509752822168  0.4836389524740159   T   T   T
  0.6656799664195229  0.8321725611269989  0.4831869630441001   T   T   T
  0.9174181165756686  0.0840161134826020  0.4829905714439532   T   T   T
  0.9171354160649695  0.3327630579877610  0.4839443430522181   T   T   T
  0.9160743892757699  0.5819219120256924  0.4830327127366749   T   T   T
  0.9171305701338851  0.8328982734940907  0.4822218686761411   T   T   T
  0.2932652913205316  0.4574431101893854  0.6580944433251207   T   T   T
  0.4497742765241936  0.5241270345098157  0.6572497367055372   T   T   T
  0.5253955957922577  0.4478912265225029  0.6570214873105169   T   T   T
  0.4582358048267421  0.2913047507306609  0.6579962391250556   T   T   T
  0.3015028279314831  0.2243754386020765  0.6571771627158043   T   T   T
  0.2259689454508170  0.3007643250572094  0.6573588322660133   T   T   T
  0.2513107083544033  0.4999514509489525  0.6883859375978526   T   T   T
  0.5003124271755202  0.2491108464730443  0.6883799627216434   T   T   T
  0.5359774872483054  0.7238963576586666  0.6808238199988685   T   T   T
  0.7260811528228903  0.5318385146218577  0.6804081005741812   T   T   T
  0.2180103193048324  0.0249398688662608  0.6811512999669113   T   T   T
  0.0266211408725945  0.2159551416591663  0.6811436081649028   T   T   T
 
  0.00000000E+00  0.00000000E+00  0.00000000E+00
  0.00000000E+00  0.00000000E+00  0.00000000E+00
  0.00000000E+00  0.00000000E+00  0.00000000E+00
  0.00000000E+00  0.00000000E+00  0.00000000E+00
  0.00000000E+00  0.00000000E+00  0.00000000E+00
  0.00000000E+00  0.00000000E+00  0.00000000E+00
  0.00000000E+00  0.00000000E+00  0.00000000E+00
  0.00000000E+00  0.00000000E+00  0.00000000E+00
  0.00000000E+00  0.00000000E+00  0.00000000E+00
  0.00000000E+00  0.00000000E+00  0.00000000E+00
  0.00000000E+00  0.00000000E+00  0.00000000E+00
  0.00000000E+00  0.00000000E+00  0.00000000E+00
  0.00000000E+00  0.00000000E+00  0.00000000E+00
  0.00000000E+00  0.00000000E+00  0.00000000E+00
  0.00000000E+00  0.00000000E+00  0.00000000E+00
  0.00000000E+00  0.00000000E+00  0.00000000E+00
  0.00000000E+00  0.00000000E+00  0.00000000E+00
  0.00000000E+00  0.00000000E+00  0.00000000E+00
  0.00000000E+00  0.00000000E+00  0.00000000E+00
  0.00000000E+00  0.00000000E+00  0.00000000E+00
  0.00000000E+00  0.00000000E+00  0.00000000E+00
  0.00000000E+00  0.00000000E+00  0.00000000E+00
  0.00000000E+00  0.00000000E+00  0.00000000E+00
  0.00000000E+00  0.00000000E+00  0.00000000E+00
  0.00000000E+00  0.00000000E+00  0.00000000E+00
  0.00000000E+00  0.00000000E+00  0.00000000E+00
  0.00000000E+00  0.00000000E+00  0.00000000E+00
  0.00000000E+00  0.00000000E+00  0.00000000E+00
  0.00000000E+00  0.00000000E+00  0.00000000E+00
  0.00000000E+00  0.00000000E+00  0.00000000E+00
  0.00000000E+00  0.00000000E+00  0.00000000E+00
  0.00000000E+00  0.00000000E+00  0.00000000E+00
  0.00000000E+00  0.00000000E+00  0.00000000E+00
  0.00000000E+00  0.00000000E+00  0.00000000E+00
  0.00000000E+00  0.00000000E+00  0.00000000E+00
  0.00000000E+00  0.00000000E+00  0.00000000E+00
  0.00000000E+00  0.00000000E+00  0.00000000E+00
  0.00000000E+00  0.00000000E+00  0.00000000E+00
  0.00000000E+00  0.00000000E+00  0.00000000E+00
  0.00000000E+00  0.00000000E+00  0.00000000E+00
  0.00000000E+00  0.00000000E+00  0.00000000E+00
  0.00000000E+00  0.00000000E+00  0.00000000E+00
  0.00000000E+00  0.00000000E+00  0.00000000E+00
  0.00000000E+00  0.00000000E+00  0.00000000E+00
  0.00000000E+00  0.00000000E+00  0.00000000E+00
  0.00000000E+00  0.00000000E+00  0.00000000E+00
  0.00000000E+00  0.00000000E+00  0.00000000E+00
  0.00000000E+00  0.00000000E+00  0.00000000E+00
  0.00000000E+00  0.00000000E+00  0.00000000E+00
  0.00000000E+00  0.00000000E+00  0.00000000E+00
  0.00000000E+00  0.00000000E+00  0.00000000E+00
  0.00000000E+00  0.00000000E+00  0.00000000E+00
  0.00000000E+00  0.00000000E+00  0.00000000E+00
  0.00000000E+00  0.00000000E+00  0.00000000E+00
  0.00000000E+00  0.00000000E+00  0.00000000E+00
  0.00000000E+00  0.00000000E+00  0.00000000E+00
  0.00000000E+00  0.00000000E+00  0.00000000E+00
  0.00000000E+00  0.00000000E+00  0.00000000E+00
  0.00000000E+00  0.00000000E+00  0.00000000E+00
  0.00000000E+00  0.00000000E+00  0.00000000E+00
  0.00000000E+00  0.00000000E+00  0.00000000E+00
  0.00000000E+00  0.00000000E+00  0.00000000E+00
  0.00000000E+00  0.00000000E+00  0.00000000E+00
  0.00000000E+00  0.00000000E+00  0.00000000E+00
  0.00000000E+00  0.00000000E+00  0.00000000E+00
  0.00000000E+00  0.00000000E+00  0.00000000E+00
  0.00000000E+00  0.00000000E+00  0.00000000E+00
  0.00000000E+00  0.00000000E+00  0.00000000E+00
  0.00000000E+00  0.00000000E+00  0.00000000E+00
  0.00000000E+00  0.00000000E+00  0.00000000E+00
  0.00000000E+00  0.00000000E+00  0.00000000E+00
  0.00000000E+00  0.00000000E+00  0.00000000E+00
  0.00000000E+00  0.00000000E+00  0.00000000E+00
  0.00000000E+00  0.00000000E+00  0.00000000E+00
  0.00000000E+00  0.00000000E+00  0.00000000E+00
  0.00000000E+00  0.00000000E+00  0.00000000E+00
