H4 Pt48 C6 F2                           
    1.000000000000000     
    11.2480069999999994    0.0000000000000000    0.0000000000000000
    -5.6240030000000001    9.7410599999999992    0.0000000000000000
     0.0000000000000000    0.0000000000000000   17.5993339999999989
   H    Pt   C    F 
     4    48     6     2
Selective dynamics
Direct
  0.5007108495211199  0.3664157541860007  0.7717190019643354   T   T   T
  0.3692635293665276  0.4978951058407759  0.7716052867125569   T   T   T
  0.7516182547693759  0.8801200733519750  0.7716470431625311   T   T   T
  0.8829564334315805  0.7485872777495999  0.7717674010288462   T   T   T
  0.0833330000000032  0.1666669999999968  0.3409219999999991   F   F   F
  0.0833330000000032  0.4166669999999968  0.3409219999999991   F   F   F
  0.0833330000000032  0.6666669999999968  0.3409219999999991   F   F   F
  0.0833330000000032  0.9166669999999968  0.3409219999999991   F   F   F
  0.3333330000000032  0.1666669999999968  0.3409219999999991   F   F   F
  0.3333330000000032  0.4166669999999968  0.3409219999999991   F   F   F
  0.3333330000000032  0.6666669999999968  0.3409219999999991   F   F   F
  0.3333330000000032  0.9166669999999968  0.3409219999999991   F   F   F
  0.5833330000000032  0.1666669999999968  0.3409219999999991   F   F   F
  0.5833330000000032  0.4166669999999968  0.3409219999999991   F   F   F
  0.5833330000000032  0.6666669999999968  0.3409219999999991   F   F   F
  0.5833330000000032  0.9166669999999968  0.3409219999999991   F   F   F
  0.8333330000000032  0.1666669999999968  0.3409219999999991   F   F   F
  0.8333330000000032  0.4166669999999968  0.3409219999999991   F   F   F
  0.8333330000000032  0.6666669999999968  0.3409219999999991   F   F   F
  0.8333330000000032  0.9166669999999968  0.3409219999999991   F   F   F
  0.2492343943582398  0.2494410212800133  0.6028926567446646   T   T   T
  0.2484108333373669  0.4994238287645558  0.6017156733263178   T   T   T
  0.2496293804815863  0.7501283855463257  0.6017396687986150   T   T   T
  0.2498380427100884  0.0001579293503511  0.6026633984298826   T   T   T
  0.4995928351348766  0.2490722104331695  0.6017478541757626   T   T   T
  0.4982751122538858  0.4985810271185471  0.6030935090908329   T   T   T
  0.4991531048540807  0.7508600794783291  0.5995768405193758   T   T   T
  0.4998746968587469  0.0003679453854915  0.6017285147136846   T   T   T
  0.7501115814452888  0.2498420943565662  0.6015480295921734   T   T   T
  0.7505381542683907  0.4994873318496644  0.5993480826659194   T   T   T
  0.7513987337036454  0.7516970672956163  0.6030951695275490   T   T   T
  0.7505800058260306  0.0015732471023284  0.6017208215074064   T   T   T
  0.9998913692564386  0.2501077719308711  0.6024268372183457   T   T   T
  0.0001675801541694  0.4999105535064672  0.6015573009328818   T   T   T
  0.0009137075265073  0.7504040466460253  0.6017634749700846   T   T   T
  0.0005480979002641  0.0007508291896272  0.6028985714896180   T   T   T
  0.1667312508394474  0.0832780944703160  0.4716688995526965   T   T   T
  0.1664956968599256  0.3325801669976229  0.4715469959182883   T   T   T
  0.1672168208413254  0.5837137267115722  0.4710522666281562   T   T   T
  0.1668046535927985  0.8340545843643739  0.4713628704010091   T   T   T
  0.4159295740336404  0.0831846073274889  0.4713538406627791   T   T   T
  0.4158289690427139  0.3326999623437672  0.4716830841087614   T   T   T
  0.4161941583715532  0.5823256113429807  0.4714006381970819   T   T   T
  0.4163412709083900  0.8336459031584482  0.4707032837114014   T   T   T
  0.6662907886384630  0.0827864070175224  0.4710512492366306   T   T   T
  0.6659875655710863  0.3326959720631564  0.4707484934709072   T   T   T
  0.6659541719962903  0.5840268216575879  0.4715980179267589   T   T   T
  0.6676751117757789  0.8337993072887357  0.4714024021925525   T   T   T
  0.9174358984709841  0.0835132130677252  0.4715475368961037   T   T   T
  0.9168940529550156  0.3331463804943127  0.4711918062307987   T   T   T
  0.9173284784083009  0.5840230464246545  0.4707504175682971   T   T   T
  0.9172940100018252  0.8341612048362350  0.4716896693772128   T   T   T
  0.6964852013533900  0.5528356633905958  0.7769258820358189   T   T   T
  0.5535614950412153  0.4785331629659453  0.7732260402737694   T   T   T
  0.4813527861454574  0.5507089841690629  0.7730932656000888   T   T   T
  0.5557555271237007  0.6936179130601801  0.7767213734773222   T   T   T
  0.6986822643067541  0.7680094178994352  0.7731284514981880   T   T   T
  0.7708316206586687  0.6957705357417368  0.7732611786320120   T   T   T
  0.7661899522686966  0.4830747621760096  0.7833465160639790   T   T   T
  0.4860714536357804  0.7633671242986111  0.7830483757755928   T   T   T
 
  0.00000000E+00  0.00000000E+00  0.00000000E+00
  0.00000000E+00  0.00000000E+00  0.00000000E+00
  0.00000000E+00  0.00000000E+00  0.00000000E+00
  0.00000000E+00  0.00000000E+00  0.00000000E+00
  0.00000000E+00  0.00000000E+00  0.00000000E+00
  0.00000000E+00  0.00000000E+00  0.00000000E+00
  0.00000000E+00  0.00000000E+00  0.00000000E+00
  0.00000000E+00  0.00000000E+00  0.00000000E+00
  0.00000000E+00  0.00000000E+00  0.00000000E+00
  0.00000000E+00  0.00000000E+00  0.00000000E+00
  0.00000000E+00  0.00000000E+00  0.00000000E+00
  0.00000000E+00  0.00000000E+00  0.00000000E+00
  0.00000000E+00  0.00000000E+00  0.00000000E+00
  0.00000000E+00  0.00000000E+00  0.00000000E+00
  0.00000000E+00  0.00000000E+00  0.00000000E+00
  0.00000000E+00  0.00000000E+00  0.00000000E+00
  0.00000000E+00  0.00000000E+00  0.00000000E+00
  0.00000000E+00  0.00000000E+00  0.00000000E+00
  0.00000000E+00  0.00000000E+00  0.00000000E+00
  0.00000000E+00  0.00000000E+00  0.00000000E+00
  0.00000000E+00  0.00000000E+00  0.00000000E+00
  0.00000000E+00  0.00000000E+00  0.00000000E+00
  0.00000000E+00  0.00000000E+00  0.00000000E+00
  0.00000000E+00  0.00000000E+00  0.00000000E+00
  0.00000000E+00  0.00000000E+00  0.00000000E+00
  0.00000000E+00  0.00000000E+00  0.00000000E+00
  0.00000000E+00  0.00000000E+00  0.00000000E+00
  0.00000000E+00  0.00000000E+00  0.00000000E+00
  0.00000000E+00  0.00000000E+00  0.00000000E+00
  0.00000000E+00  0.00000000E+00  0.00000000E+00
  0.00000000E+00  0.00000000E+00  0.00000000E+00
  0.00000000E+00  0.00000000E+00  0.00000000E+00
  0.00000000E+00  0.00000000E+00  0.00000000E+00
  0.00000000E+00  0.00000000E+00  0.00000000E+00
  0.00000000E+00  0.00000000E+00  0.00000000E+00
  0.00000000E+00  0.00000000E+00  0.00000000E+00
  0.00000000E+00  0.00000000E+00  0.00000000E+00
  0.00000000E+00  0.00000000E+00  0.00000000E+00
  0.00000000E+00  0.00000000E+00  0.00000000E+00
  0.00000000E+00  0.00000000E+00  0.00000000E+00
  0.00000000E+00  0.00000000E+00  0.00000000E+00
  0.00000000E+00  0.00000000E+00  0.00000000E+00
  0.00000000E+00  0.00000000E+00  0.00000000E+00
  0.00000000E+00  0.00000000E+00  0.00000000E+00
  0.00000000E+00  0.00000000E+00  0.00000000E+00
  0.00000000E+00  0.00000000E+00  0.00000000E+00
  0.00000000E+00  0.00000000E+00  0.00000000E+00
  0.00000000E+00  0.00000000E+00  0.00000000E+00
  0.00000000E+00  0.00000000E+00  0.00000000E+00
  0.00000000E+00  0.00000000E+00  0.00000000E+00
  0.00000000E+00  0.00000000E+00  0.00000000E+00
  0.00000000E+00  0.00000000E+00  0.00000000E+00
  0.00000000E+00  0.00000000E+00  0.00000000E+00
  0.00000000E+00  0.00000000E+00  0.00000000E+00
  0.00000000E+00  0.00000000E+00  0.00000000E+00
  0.00000000E+00  0.00000000E+00  0.00000000E+00
  0.00000000E+00  0.00000000E+00  0.00000000E+00
  0.00000000E+00  0.00000000E+00  0.00000000E+00
  0.00000000E+00  0.00000000E+00  0.00000000E+00
  0.00000000E+00  0.00000000E+00  0.00000000E+00
