Rh48 C4 N2 Cl4                          
    1.000000000000000     
    10.8856652999999994    0.0000000000000000    0.0000000000000000
     0.0000000000000000   10.8856652999999994    0.0000000000000000
     0.0000000000000000    0.0000000000000000   16.5533157799999984
   Rh   C    N    Cl
    48     4     2     4
Selective dynamics
Direct
  0.0000007378247489  0.9999894473460529  0.4086080754052261   T   T   T
  0.9986911181404636  0.2508081798307913  0.4093807867068548   T   T   T
  0.0000083717366550  0.4999923266704869  0.4094754803580187   T   T   T
  0.0013153635213072  0.7492143395853148  0.4093883946808887   T   T   T
  0.2508008993690680  0.9986817095532885  0.4093936291007481   T   T   T
  0.2499292505950805  0.2499295674993718  0.4089908300551599   T   T   T
  0.2494505583882898  0.4999791497796195  0.4090184264534571   T   T   T
  0.2518458929787499  0.7481591779295158  0.4104931874871198   T   T   T
  0.4999974820770703  0.9999963703750723  0.4094791619867948   T   T   T
  0.4999825176902917  0.2494495995157706  0.4090145674297219   T   T   T
  0.5000053508100422  0.5000002515822004  0.4084591278258500   T   T   T
  0.5000186318028383  0.7505442579460180  0.4090238770190311   T   T   T
  0.7492023327494266  0.0013017609041412  0.4093813122574659   T   T   T
  0.7481526784568189  0.2518505746529911  0.4104801643917213   T   T   T
  0.7505400195201588  0.5000154668895433  0.4090140573058676   T   T   T
  0.7500673517582115  0.7500755712615614  0.4089912595118577   T   T   T
  0.1245229996095247  0.1245261211648625  0.5159804260278946   T   T   T
  0.1238823506963627  0.3734323647177717  0.5167034610355188   T   T   T
  0.1245536224572845  0.6252516235919430  0.5189427539307587   T   T   T
  0.1245927911164983  0.8754113997595212  0.5166376678854263   T   T   T
  0.3734321627888662  0.1238824034444761  0.5166978136022067   T   T   T
  0.3721404536458266  0.3721495294984720  0.5167323796150711   T   T   T
  0.3767493287239319  0.6232540332326124  0.5218476640437757   T   T   T
  0.3747468060425732  0.8754461662690787  0.5189535820394156   T   T   T
  0.6252568166312287  0.1245460604556428  0.5189498792705720   T   T   T
  0.6232496732492194  0.3767492250858169  0.5218500782270397   T   T   T
  0.6278561246004344  0.6278583457124896  0.5167345975531248   T   T   T
  0.6265656419891812  0.8761118587555501  0.5167150314167230   T   T   T
  0.8754083052852693  0.1245912157726963  0.5166232916925608   T   T   T
  0.8754520721138235  0.3747446604469644  0.5189637540133774   T   T   T
  0.8761102483246859  0.6265682195597932  0.5166995854807581   T   T   T
  0.8754767596730062  0.8754794384735476  0.5159809580335946   T   T   T
  0.1249999997703384  0.1249999997703384  0.3020542872770591   F   F   F
  0.1250000006889778  0.3750000002296616  0.3020542872770591   F   F   F
  0.1250000006889778  0.6250000006889778  0.3020542872770591   F   F   F
  0.1250000006889778  0.8750000011483010  0.3020542872770591   F   F   F
  0.3750000011483010  0.1249999997703384  0.3020542872770591   F   F   F
  0.3750000011483010  0.3750000002296616  0.3020542872770591   F   F   F
  0.3750000011483010  0.6250000006889778  0.3020542872770591   F   F   F
  0.3750000011483010  0.8750000011483010  0.3020542872770591   F   F   F
  0.6250000006889778  0.1249999997703384  0.3020542872770591   F   F   F
  0.6250000006889778  0.3750000002296616  0.3020542872770591   F   F   F
  0.6250000016076172  0.6250000006889778  0.3020542872770591   F   F   F
  0.6250000016076172  0.8750000011483010  0.3020542872770591   F   F   F
  0.8750000011483010  0.1249999997703384  0.3020542872770591   F   F   F
  0.8750000011483010  0.3750000002296616  0.3020542872770591   F   F   F
  0.8750000011483010  0.6250000006889778  0.3020542872770591   F   F   F
  0.8750000020669404  0.8750000011483010  0.3020542872770591   F   F   F
  0.4697367755516311  0.6244530460352991  0.6384732982890355   T   T   T
  0.3755567350319708  0.5302462821907099  0.6384749721803402   T   T   T
  0.5302760165184637  0.3755359044698778  0.6384903051211452   T   T   T
  0.6244368176395412  0.4697234776165828  0.6384889699873781   T   T   T
  0.4066985302338395  0.4067255788860109  0.6379358778899160   T   T   T
  0.5932772846841416  0.5932889858030563  0.6379375268120526   T   T   T
  0.7727866812736366  0.4410605326272190  0.6787898734642468   T   T   T
  0.5589186198611316  0.2272093332344269  0.6788029468380685   T   T   T
  0.4410551071439315  0.7728000944753290  0.6787578332858786   T   T   T
  0.2271925945058513  0.5589383902752019  0.6787755786127221   T   T   T
 
  0.00000000E+00  0.00000000E+00  0.00000000E+00
  0.00000000E+00  0.00000000E+00  0.00000000E+00
  0.00000000E+00  0.00000000E+00  0.00000000E+00
  0.00000000E+00  0.00000000E+00  0.00000000E+00
  0.00000000E+00  0.00000000E+00  0.00000000E+00
  0.00000000E+00  0.00000000E+00  0.00000000E+00
  0.00000000E+00  0.00000000E+00  0.00000000E+00
  0.00000000E+00  0.00000000E+00  0.00000000E+00
  0.00000000E+00  0.00000000E+00  0.00000000E+00
  0.00000000E+00  0.00000000E+00  0.00000000E+00
  0.00000000E+00  0.00000000E+00  0.00000000E+00
  0.00000000E+00  0.00000000E+00  0.00000000E+00
  0.00000000E+00  0.00000000E+00  0.00000000E+00
  0.00000000E+00  0.00000000E+00  0.00000000E+00
  0.00000000E+00  0.00000000E+00  0.00000000E+00
  0.00000000E+00  0.00000000E+00  0.00000000E+00
  0.00000000E+00  0.00000000E+00  0.00000000E+00
  0.00000000E+00  0.00000000E+00  0.00000000E+00
  0.00000000E+00  0.00000000E+00  0.00000000E+00
  0.00000000E+00  0.00000000E+00  0.00000000E+00
  0.00000000E+00  0.00000000E+00  0.00000000E+00
  0.00000000E+00  0.00000000E+00  0.00000000E+00
  0.00000000E+00  0.00000000E+00  0.00000000E+00
  0.00000000E+00  0.00000000E+00  0.00000000E+00
  0.00000000E+00  0.00000000E+00  0.00000000E+00
  0.00000000E+00  0.00000000E+00  0.00000000E+00
  0.00000000E+00  0.00000000E+00  0.00000000E+00
  0.00000000E+00  0.00000000E+00  0.00000000E+00
  0.00000000E+00  0.00000000E+00  0.00000000E+00
  0.00000000E+00  0.00000000E+00  0.00000000E+00
  0.00000000E+00  0.00000000E+00  0.00000000E+00
  0.00000000E+00  0.00000000E+00  0.00000000E+00
  0.00000000E+00  0.00000000E+00  0.00000000E+00
  0.00000000E+00  0.00000000E+00  0.00000000E+00
  0.00000000E+00  0.00000000E+00  0.00000000E+00
  0.00000000E+00  0.00000000E+00  0.00000000E+00
  0.00000000E+00  0.00000000E+00  0.00000000E+00
  0.00000000E+00  0.00000000E+00  0.00000000E+00
  0.00000000E+00  0.00000000E+00  0.00000000E+00
  0.00000000E+00  0.00000000E+00  0.00000000E+00
  0.00000000E+00  0.00000000E+00  0.00000000E+00
  0.00000000E+00  0.00000000E+00  0.00000000E+00
  0.00000000E+00  0.00000000E+00  0.00000000E+00
  0.00000000E+00  0.00000000E+00  0.00000000E+00
  0.00000000E+00  0.00000000E+00  0.00000000E+00
  0.00000000E+00  0.00000000E+00  0.00000000E+00
  0.00000000E+00  0.00000000E+00  0.00000000E+00
  0.00000000E+00  0.00000000E+00  0.00000000E+00
  0.00000000E+00  0.00000000E+00  0.00000000E+00
  0.00000000E+00  0.00000000E+00  0.00000000E+00
  0.00000000E+00  0.00000000E+00  0.00000000E+00
  0.00000000E+00  0.00000000E+00  0.00000000E+00
  0.00000000E+00  0.00000000E+00  0.00000000E+00
  0.00000000E+00  0.00000000E+00  0.00000000E+00
  0.00000000E+00  0.00000000E+00  0.00000000E+00
  0.00000000E+00  0.00000000E+00  0.00000000E+00
  0.00000000E+00  0.00000000E+00  0.00000000E+00
  0.00000000E+00  0.00000000E+00  0.00000000E+00
