Au48 C4 Br4 N2                          
    1.000000000000000     
    11.7981859999999994    0.0000000000000000    0.0000000000000000
    -5.8990929999999997   10.2175279999999997    0.0000000000000000
     0.0000000000000000    0.0000000000000000   17.8165890000000005
   Au   C    Br   N 
    48     4     4     2
Selective dynamics
Direct
  0.0833330000000032  0.1666669999999968  0.3367649999999998   F   F   F
  0.0833330000000032  0.4166669999999968  0.3367649999999998   F   F   F
  0.0833330000000032  0.6666669999999968  0.3367649999999998   F   F   F
  0.0833330000000032  0.9166669999999968  0.3367649999999998   F   F   F
  0.3333330000000032  0.1666669999999968  0.3367649999999998   F   F   F
  0.3333330000000032  0.4166669999999968  0.3367649999999998   F   F   F
  0.3333330000000032  0.6666669999999968  0.3367649999999998   F   F   F
  0.3333330000000032  0.9166669999999968  0.3367649999999998   F   F   F
  0.5833330000000032  0.1666669999999968  0.3367649999999998   F   F   F
  0.5833330000000032  0.4166669999999968  0.3367649999999998   F   F   F
  0.5833330000000032  0.6666669999999968  0.3367649999999998   F   F   F
  0.5833330000000032  0.9166669999999968  0.3367649999999998   F   F   F
  0.8333330000000032  0.1666669999999968  0.3367649999999998   F   F   F
  0.8333330000000032  0.4166669999999968  0.3367649999999998   F   F   F
  0.8333330000000032  0.6666669999999968  0.3367649999999998   F   F   F
  0.8333330000000032  0.9166669999999968  0.3367649999999998   F   F   F
  0.2499249414547364  0.2498147947817202  0.6123249783477007   T   T   T
  0.2497648013249929  0.5001572003608672  0.6118289570826718   T   T   T
  0.2503307903671654  0.7502253477587715  0.6125125626723289   T   T   T
  0.2501669753895257  0.0000342450749642  0.6125278493602764   T   T   T
  0.5002769625248291  0.2496184126468464  0.6118233718020676   T   T   T
  0.5005386195726231  0.5004618384594792  0.6104608148242079   T   T   T
  0.5000912570606033  0.7501200486797472  0.6124889382265124   T   T   T
  0.4999928965915501  0.9998825136029055  0.6125208299174858   T   T   T
  0.7503057465630008  0.2502151264049175  0.6124871123720155   T   T   T
  0.7501410803200770  0.5000707927101260  0.6124903441766065   T   T   T
  0.7497689835477175  0.7496937968071151  0.6104626013875460   T   T   T
  0.7500654459934992  0.0004596350615387  0.6118300699886063   T   T   T
  0.0000728176674158  0.2501216857860982  0.6124907027012654   T   T   T
  0.9999938387471943  0.4999077694723297  0.6124966036337156   T   T   T
  0.0006103870350245  0.7499546493084210  0.6118263459934852   T   T   T
  0.0004003437149365  0.0002979470868638  0.6123288979350718   T   T   T
  0.1668727696764520  0.0832623578871790  0.4744548534793793   T   T   T
  0.1667588269828642  0.3333747277298045  0.4745407523269876   T   T   T
  0.1666181357643310  0.5834143921808135  0.4746171754034592   T   T   T
  0.1669915022322641  0.8334953327256756  0.4744603669657650   T   T   T
  0.4166422419376588  0.0831435781866432  0.4744589378090609   T   T   T
  0.4164564107715876  0.3330006836115729  0.4743898565707383   T   T   T
  0.4166510710833293  0.5836220978042661  0.4742286542962404   T   T   T
  0.4166549238872861  0.8334879319876478  0.4745296781003603   T   T   T
  0.6667286177607394  0.0835208065768924  0.4746187422744086   T   T   T
  0.6668454850116277  0.3333771636075511  0.4745737638539325   T   T   T
  0.6670430414680624  0.5830994212581118  0.4738139514821782   T   T   T
  0.6665134235844405  0.8334855747183880  0.4742306789942177   T   T   T
  0.9167645462134502  0.0833780131489164  0.4745436719642413   T   T   T
  0.9168016222113877  0.3333458190893097  0.4744443666948044   T   T   T
  0.9167595167341034  0.5832948951273238  0.4745771923494431   T   T   T
  0.9171359385349476  0.8336780216199458  0.4743935526726162   T   T   T
  0.4923542553620877  0.5617714064121984  0.7986120736185285   T   T   T
  0.5616273527089106  0.4927483031277902  0.7985657261311303   T   T   T
  0.7560302689387512  0.6870432915374280  0.7985820828653374   T   T   T
  0.6868402471576402  0.7561082024778543  0.7986263190553515   T   T   T
  0.7719497016821819  0.9411431316849033  0.7999528084986025   T   T   T
  0.9408734360949680  0.7720691255675547  0.7997862509605156   T   T   T
  0.3076561019183330  0.4769086798238718  0.7999166193434704   T   T   T
  0.4765741804082566  0.3077228610782612  0.7997498327803001   T   T   T
  0.6913934705244813  0.5572866578921065  0.7980843018296540   T   T   T
  0.5570691775267989  0.6915631464843841  0.7981628778534500   T   T   T
 
  0.00000000E+00  0.00000000E+00  0.00000000E+00
  0.00000000E+00  0.00000000E+00  0.00000000E+00
  0.00000000E+00  0.00000000E+00  0.00000000E+00
  0.00000000E+00  0.00000000E+00  0.00000000E+00
  0.00000000E+00  0.00000000E+00  0.00000000E+00
  0.00000000E+00  0.00000000E+00  0.00000000E+00
  0.00000000E+00  0.00000000E+00  0.00000000E+00
  0.00000000E+00  0.00000000E+00  0.00000000E+00
  0.00000000E+00  0.00000000E+00  0.00000000E+00
  0.00000000E+00  0.00000000E+00  0.00000000E+00
  0.00000000E+00  0.00000000E+00  0.00000000E+00
  0.00000000E+00  0.00000000E+00  0.00000000E+00
  0.00000000E+00  0.00000000E+00  0.00000000E+00
  0.00000000E+00  0.00000000E+00  0.00000000E+00
  0.00000000E+00  0.00000000E+00  0.00000000E+00
  0.00000000E+00  0.00000000E+00  0.00000000E+00
  0.00000000E+00  0.00000000E+00  0.00000000E+00
  0.00000000E+00  0.00000000E+00  0.00000000E+00
  0.00000000E+00  0.00000000E+00  0.00000000E+00
  0.00000000E+00  0.00000000E+00  0.00000000E+00
  0.00000000E+00  0.00000000E+00  0.00000000E+00
  0.00000000E+00  0.00000000E+00  0.00000000E+00
  0.00000000E+00  0.00000000E+00  0.00000000E+00
  0.00000000E+00  0.00000000E+00  0.00000000E+00
  0.00000000E+00  0.00000000E+00  0.00000000E+00
  0.00000000E+00  0.00000000E+00  0.00000000E+00
  0.00000000E+00  0.00000000E+00  0.00000000E+00
  0.00000000E+00  0.00000000E+00  0.00000000E+00
  0.00000000E+00  0.00000000E+00  0.00000000E+00
  0.00000000E+00  0.00000000E+00  0.00000000E+00
  0.00000000E+00  0.00000000E+00  0.00000000E+00
  0.00000000E+00  0.00000000E+00  0.00000000E+00
  0.00000000E+00  0.00000000E+00  0.00000000E+00
  0.00000000E+00  0.00000000E+00  0.00000000E+00
  0.00000000E+00  0.00000000E+00  0.00000000E+00
  0.00000000E+00  0.00000000E+00  0.00000000E+00
  0.00000000E+00  0.00000000E+00  0.00000000E+00
  0.00000000E+00  0.00000000E+00  0.00000000E+00
  0.00000000E+00  0.00000000E+00  0.00000000E+00
  0.00000000E+00  0.00000000E+00  0.00000000E+00
  0.00000000E+00  0.00000000E+00  0.00000000E+00
  0.00000000E+00  0.00000000E+00  0.00000000E+00
  0.00000000E+00  0.00000000E+00  0.00000000E+00
  0.00000000E+00  0.00000000E+00  0.00000000E+00
  0.00000000E+00  0.00000000E+00  0.00000000E+00
  0.00000000E+00  0.00000000E+00  0.00000000E+00
  0.00000000E+00  0.00000000E+00  0.00000000E+00
  0.00000000E+00  0.00000000E+00  0.00000000E+00
  0.00000000E+00  0.00000000E+00  0.00000000E+00
  0.00000000E+00  0.00000000E+00  0.00000000E+00
  0.00000000E+00  0.00000000E+00  0.00000000E+00
  0.00000000E+00  0.00000000E+00  0.00000000E+00
  0.00000000E+00  0.00000000E+00  0.00000000E+00
  0.00000000E+00  0.00000000E+00  0.00000000E+00
  0.00000000E+00  0.00000000E+00  0.00000000E+00
  0.00000000E+00  0.00000000E+00  0.00000000E+00
  0.00000000E+00  0.00000000E+00  0.00000000E+00
  0.00000000E+00  0.00000000E+00  0.00000000E+00
