Pt  C  H Cl                             
    1.000000000000000     
    11.2480068000000006    0.0000000000000000    0.0000000000000000
     0.0000000000000000   15.9070838000000006    0.0000000000000000
     0.0000000000000000    0.0000000000000000   22.2180025631249976
   Pt   C    H    Cl
    64     6     2     4
Selective dynamics
Direct
  0.2500000008890453  0.2500000006286527  0.3375640982438100   F   F   F
  0.2500000008890453  0.5000000006286527  0.3375640982438100   F   F   F
  0.2500000008890453  0.7500000012572983  0.3375640982438100   F   F   F
  0.2500000008890453  0.0000000000000000  0.3375640982438100   F   F   F
  0.5000000017780906  0.5000000006286527  0.3375640982438100   F   F   F
  0.0000000035561882  0.0000000000000000  0.3375640982438100   F   F   F
  0.5000000017780906  0.7500000012572983  0.3375640982438100   F   F   F
  0.5000000017780906  0.0000000000000000  0.3375640982438100   F   F   F
  0.7500000026671358  0.0000000000000000  0.3375640982438100   F   F   F
  0.0000000035561882  0.7500000012572983  0.3375640982438100   F   F   F
  0.5000000017780906  0.2500000006286527  0.3375640982438100   F   F   F
  0.7500000026671358  0.2500000006286527  0.3375640982438100   F   F   F
  0.7500000026671358  0.5000000006286527  0.3375640982438100   F   F   F
  0.7500000026671358  0.7500000012572983  0.3375640982438100   F   F   F
  0.0000000035561882  0.2500000006286527  0.3375640982438100   F   F   F
  0.0000000035561882  0.5000000006286527  0.3375640982438100   F   F   F
  0.2476470756604353  0.2505294836776146  0.4678066013143935   T   T   T
  0.2470432908930637  0.4998396043544132  0.4659798385934812   T   T   T
  0.2536188626263078  0.7470026343493607  0.4691620226309192   T   T   T
  0.2499041382677006  0.0002063520744518  0.4681231067799156   T   T   T
  0.4996293392060750  0.2518076570625609  0.4683519783652201   T   T   T
  0.5000284516625878  0.4999620243998511  0.4630665311918715   T   T   T
  0.5003966093208798  0.7482371782364201  0.4683275579933464   T   T   T
  0.4999918483530292  0.0000018970983565  0.4678910744487135   T   T   T
  0.7463448680334034  0.2530419396393690  0.4691864756240748   T   T   T
  0.7529532701375176  0.5001253903040385  0.4660051590053802   T   T   T
  0.7523403242781455  0.7494637501370501  0.4678046240245798   T   T   T
  0.7500725727118326  0.9998017392928424  0.4681270120639449   T   T   T
  0.9970211063493921  0.2505449860702262  0.4680021645696962   T   T   T
 -0.0000038517736929  0.4999932257621540  0.4680972107134783   T   T   T
  0.0029670839090857  0.7494407737781036  0.4680074340307264   T   T   T
 -0.0000206406247996  0.0000026779140903  0.4684832144970500   T   T   T
  0.1233629771863853  0.1260563620947200  0.5254751615824186   T   T   T
  0.1204136804985355  0.3750294621030846  0.5261378273428350   T   T   T
  0.1292923110832369  0.6244099159005738  0.5268633798137317   T   T   T
  0.1280863904398216  0.8737489950946821  0.5252332259281099   T   T   T
  0.3744289729541113  0.1262926078355288  0.5253230838849728   T   T   T
  0.3681342649553501  0.3770485957337004  0.5254021698397547   T   T   T
  0.3835872049221887  0.6144597384728189  0.5310741973333203   T   T   T
  0.3767976276949599  0.8740210842662505  0.5255610003688371   T   T   T
  0.6231806912654223  0.1259928982933309  0.5255705776583349   T   T   T
  0.6164873074779108  0.3856368055386425  0.5311979830266150   T   T   T
  0.6318158851933490  0.6229328210878242  0.5253795399521296   T   T   T
  0.6255609936675863  0.8737189521283710  0.5253165950996403   T   T   T
  0.8718787765722061  0.1262542866614259  0.5252421497599472   T   T   T
  0.8707356415626623  0.3755655453837446  0.5268421784285846   T   T   T
  0.8795665145112476  0.6249648954625545  0.5261460666332103   T   T   T
  0.8766168583641372  0.8739467666789442  0.5254751559830142   T   T   T
  0.1250000000000000  0.1250000003143228  0.4008461529820977   F   F   F
  0.1250000000000000  0.3750000003143228  0.4008461529820977   F   F   F
  0.1250000008890453  0.6250000009429755  0.4008461529820977   F   F   F
  0.1250000008890453  0.8750000009429755  0.4008461529820977   F   F   F
  0.3750000008890453  0.1250000003143228  0.4008461529820977   F   F   F
  0.3750000008890453  0.3750000003143228  0.4008461529820977   F   F   F
  0.3750000008890453  0.6250000009429755  0.4008461529820977   F   F   F
  0.3750000008890453  0.8750000009429755  0.4008461529820977   F   F   F
  0.6250000017780906  0.1250000003143228  0.4008461529820977   F   F   F
  0.6250000017780906  0.3750000003143228  0.4008461529820977   F   F   F
  0.6250000017780906  0.6250000009429755  0.4008461529820977   F   F   F
  0.6250000026671358  0.8750000009429755  0.4008461529820977   F   F   F
  0.8750000026671358  0.1250000003143228  0.4008461529820977   F   F   F
  0.8750000026671358  0.3750000003143228  0.4008461529820977   F   F   F
  0.8750000035561882  0.6250000009429755  0.4008461529820977   F   F   F
  0.8750000026671358  0.8750000009429755  0.4008461529820977   F   F   F
  0.4015482081674450  0.4372939750116200  0.6060268388707166   T   T   T
  0.3748830531565283  0.5305369981342770  0.6074209241738548   T   T   T
  0.4717729051742212  0.5902433776851245  0.6152898801132118   T   T   T
  0.5982304518170002  0.5628266005024225  0.6060251180084806   T   T   T
  0.6249718607071355  0.4696284598587078  0.6076015574322552   T   T   T
  0.5280423601246886  0.4099615961777557  0.6153708215121838   T   T   T
  0.3421096423250765  0.4050479942290297  0.6377375438385241   T   T   T
  0.6575468291555975  0.5951734845531946  0.6377013866321956   T   T   T
  0.2370741965193833  0.5497497510563322  0.6428949425490641   T   T   T
  0.4563918358745047  0.6749805172611142  0.6646678551108594   T   T   T
  0.7627742572352044  0.4504339740621883  0.6432492857943105   T   T   T
  0.5434457887049551  0.3251818419657065  0.6646615284882039   T   T   T
 
  0.00000000E+00  0.00000000E+00  0.00000000E+00
  0.00000000E+00  0.00000000E+00  0.00000000E+00
  0.00000000E+00  0.00000000E+00  0.00000000E+00
  0.00000000E+00  0.00000000E+00  0.00000000E+00
  0.00000000E+00  0.00000000E+00  0.00000000E+00
  0.00000000E+00  0.00000000E+00  0.00000000E+00
  0.00000000E+00  0.00000000E+00  0.00000000E+00
  0.00000000E+00  0.00000000E+00  0.00000000E+00
  0.00000000E+00  0.00000000E+00  0.00000000E+00
  0.00000000E+00  0.00000000E+00  0.00000000E+00
  0.00000000E+00  0.00000000E+00  0.00000000E+00
  0.00000000E+00  0.00000000E+00  0.00000000E+00
  0.00000000E+00  0.00000000E+00  0.00000000E+00
  0.00000000E+00  0.00000000E+00  0.00000000E+00
  0.00000000E+00  0.00000000E+00  0.00000000E+00
  0.00000000E+00  0.00000000E+00  0.00000000E+00
  0.00000000E+00  0.00000000E+00  0.00000000E+00
  0.00000000E+00  0.00000000E+00  0.00000000E+00
  0.00000000E+00  0.00000000E+00  0.00000000E+00
  0.00000000E+00  0.00000000E+00  0.00000000E+00
  0.00000000E+00  0.00000000E+00  0.00000000E+00
  0.00000000E+00  0.00000000E+00  0.00000000E+00
  0.00000000E+00  0.00000000E+00  0.00000000E+00
  0.00000000E+00  0.00000000E+00  0.00000000E+00
  0.00000000E+00  0.00000000E+00  0.00000000E+00
  0.00000000E+00  0.00000000E+00  0.00000000E+00
  0.00000000E+00  0.00000000E+00  0.00000000E+00
  0.00000000E+00  0.00000000E+00  0.00000000E+00
  0.00000000E+00  0.00000000E+00  0.00000000E+00
  0.00000000E+00  0.00000000E+00  0.00000000E+00
  0.00000000E+00  0.00000000E+00  0.00000000E+00
  0.00000000E+00  0.00000000E+00  0.00000000E+00
  0.00000000E+00  0.00000000E+00  0.00000000E+00
  0.00000000E+00  0.00000000E+00  0.00000000E+00
  0.00000000E+00  0.00000000E+00  0.00000000E+00
  0.00000000E+00  0.00000000E+00  0.00000000E+00
  0.00000000E+00  0.00000000E+00  0.00000000E+00
  0.00000000E+00  0.00000000E+00  0.00000000E+00
  0.00000000E+00  0.00000000E+00  0.00000000E+00
  0.00000000E+00  0.00000000E+00  0.00000000E+00
  0.00000000E+00  0.00000000E+00  0.00000000E+00
  0.00000000E+00  0.00000000E+00  0.00000000E+00
  0.00000000E+00  0.00000000E+00  0.00000000E+00
  0.00000000E+00  0.00000000E+00  0.00000000E+00
  0.00000000E+00  0.00000000E+00  0.00000000E+00
  0.00000000E+00  0.00000000E+00  0.00000000E+00
  0.00000000E+00  0.00000000E+00  0.00000000E+00
  0.00000000E+00  0.00000000E+00  0.00000000E+00
  0.00000000E+00  0.00000000E+00  0.00000000E+00
  0.00000000E+00  0.00000000E+00  0.00000000E+00
  0.00000000E+00  0.00000000E+00  0.00000000E+00
  0.00000000E+00  0.00000000E+00  0.00000000E+00
  0.00000000E+00  0.00000000E+00  0.00000000E+00
  0.00000000E+00  0.00000000E+00  0.00000000E+00
  0.00000000E+00  0.00000000E+00  0.00000000E+00
  0.00000000E+00  0.00000000E+00  0.00000000E+00
  0.00000000E+00  0.00000000E+00  0.00000000E+00
  0.00000000E+00  0.00000000E+00  0.00000000E+00
  0.00000000E+00  0.00000000E+00  0.00000000E+00
  0.00000000E+00  0.00000000E+00  0.00000000E+00
  0.00000000E+00  0.00000000E+00  0.00000000E+00
  0.00000000E+00  0.00000000E+00  0.00000000E+00
  0.00000000E+00  0.00000000E+00  0.00000000E+00
  0.00000000E+00  0.00000000E+00  0.00000000E+00
  0.00000000E+00  0.00000000E+00  0.00000000E+00
  0.00000000E+00  0.00000000E+00  0.00000000E+00
  0.00000000E+00  0.00000000E+00  0.00000000E+00
  0.00000000E+00  0.00000000E+00  0.00000000E+00
  0.00000000E+00  0.00000000E+00  0.00000000E+00
  0.00000000E+00  0.00000000E+00  0.00000000E+00
  0.00000000E+00  0.00000000E+00  0.00000000E+00
  0.00000000E+00  0.00000000E+00  0.00000000E+00
  0.00000000E+00  0.00000000E+00  0.00000000E+00
  0.00000000E+00  0.00000000E+00  0.00000000E+00
  0.00000000E+00  0.00000000E+00  0.00000000E+00
  0.00000000E+00  0.00000000E+00  0.00000000E+00
