Au  C  N Br                             
    1.000000000000000     
    11.7981856999999994    0.0000000000000000    0.0000000000000000
     0.0000000000000000   11.7981856999999994    0.0000000000000000
     0.0000000000000000    0.0000000000000000   24.2569328400000011
   Au   C    N    Br
    64     4     2     4
Selective dynamics
Direct
  0.2500000004237961  0.0000000000000000  0.3091899561032889   F   F   F
  0.0000000000000000  0.5000000008475851  0.3091899561032889   F   F   F
  0.2500000004237961  0.2500000004237961  0.3091899561032889   F   F   F
  0.2500000004237961  0.5000000008475851  0.3091899561032889   F   F   F
  0.2500000004237961  0.7500000012713812  0.3091899561032889   F   F   F
  0.5000000008475851  0.0000000000000000  0.3091899561032889   F   F   F
  0.5000000008475851  0.2500000004237961  0.3091899561032889   F   F   F
  0.0000000000000000  0.7500000012713812  0.3091899561032889   F   F   F
  0.5000000008475851  0.5000000008475851  0.3091899561032889   F   F   F
  0.5000000008475851  0.7500000012713812  0.3091899561032889   F   F   F
  0.7500000012713812  0.0000000000000000  0.3091899561032889   F   F   F
  0.7500000012713812  0.2500000004237961  0.3091899561032889   F   F   F
  0.7500000012713812  0.5000000008475851  0.3091899561032889   F   F   F
  0.7500000012713812  0.7500000012713812  0.3091899561032889   F   F   F
  0.0000000000000000  0.0000000000000000  0.3091899561032889   F   F   F
  0.0000000000000000  0.2500000004237961  0.3091899561032889   F   F   F
  0.2502359687222840  0.0010632227221602  0.4806870480333894   T   T   T
  0.2493779431159295  0.2507859344381229  0.4807712020220721   T   T   T
  0.2489420975953963  0.4997946623134668  0.4806592543317874   T   T   T
  0.2492887826162971  0.7508120938944791  0.4805954333548975   T   T   T
  0.4999953115822831  0.0000016018544487  0.4812270089639535   T   T   T
  0.4996055569668053  0.2487661770333923  0.4805786772114274   T   T   T
  0.4999953804974269  0.5000017902452920  0.4803829142999272   T   T   T
  0.5003120979046887  0.7510634208897853  0.4806548253380268   T   T   T
  0.7496704423040622  0.9989588084166484  0.4806905194460368   T   T   T
  0.7507190121466257  0.2492827560566068  0.4806339276523822   T   T   T
  0.7510844852817945  0.5002429849428202  0.4806539390740852   T   T   T
  0.7506496504126210  0.7492439539454806  0.4807053702875113   T   T   T
 -0.0006296057431099  0.0006356893033458  0.4806465505593459   T   T   T
  0.0009625552087635  0.2503254014420146  0.4806915187664184   T   T   T
  0.0000005997196234  0.5000108389946559  0.4812249937355986   T   T   T
  0.9990583621505181  0.7498024984733798  0.4806774497128599   T   T   T
  0.1253312996082423  0.1253200025153680  0.5666847606594699   T   T   T
  0.1249997977947188  0.3749974931807233  0.5680288994158671   T   T   T
  0.1246656851878820  0.6253416998105218  0.5666722063533730   T   T   T
  0.1246549842224185  0.8753497902741092  0.5666376005461619   T   T   T
  0.3749610294979039  0.1250363222929241  0.5679960092553876   T   T   T
  0.3746889340220159  0.3746780998124088  0.5666322327077432   T   T   T
  0.3750836260497271  0.6249253353925431  0.5652123195792675   T   T   T
  0.3746656635737527  0.8753466887743362  0.5666758195174965   T   T   T
  0.6253254380902863  0.1246655079153737  0.5666775390167713   T   T   T
  0.6249577442863772  0.3750414805962344  0.5652275903799434   T   T   T
  0.6253212056386466  0.6253321713545866  0.5666260713050727   T   T   T
  0.6250408053741124  0.8749652700183363  0.5679975082690836   T   T   T
  0.8753066857016477  0.1246973450139665  0.5666704759527610   T   T   T
  0.8753312900917299  0.3746790790449397  0.5666776814638681   T   T   T
  0.8749988311779675  0.6250108307255759  0.5680227266016937   T   T   T
  0.8746852588918478  0.8746827395033347  0.5666853194682315   T   T   T
  0.1249999997881019  0.1250000006356942  0.3951713245539921   F   F   F
  0.1250000006356942  0.3750000010594832  0.3951713245539921   F   F   F
  0.1250000006356942  0.6250000006356942  0.3951713245539921   F   F   F
  0.1250000006356942  0.8750000019070754  0.3951713245539921   F   F   F
  0.3750000010594832  0.1250000006356942  0.3951713245539921   F   F   F
  0.3750000010594832  0.3750000010594832  0.3951713245539921   F   F   F
  0.3750000010594832  0.6250000006356942  0.3951713245539921   F   F   F
  0.3750000010594832  0.8750000019070754  0.3951713245539921   F   F   F
  0.6250000006356942  0.1250000006356942  0.3951713245539921   F   F   F
  0.6250000014832793  0.3750000010594832  0.3951713245539921   F   F   F
  0.6250000014832793  0.6250000006356942  0.3951713245539921   F   F   F
  0.6250000014832793  0.8750000019070754  0.3951713245539921   F   F   F
  0.8750000019070754  0.1250000006356942  0.3951713245539921   F   F   F
  0.8750000019070754  0.3750000010594832  0.3951713245539921   F   F   F
  0.8750000019070754  0.6250000006356942  0.3951713245539921   F   F   F
  0.8750000019070754  0.8750000019070754  0.3951713245539921   F   F   F
  0.4737084747233065  0.6111354137140935  0.6996259736729542   T   T   T
  0.3889693419510751  0.5264641028055674  0.6995888608620726   T   T   T
  0.5262972556800376  0.3889069091011129  0.6995825591528289   T   T   T
  0.6110538964697509  0.4735389944315380  0.6995902814723959   T   T   T
  0.4180666395518081  0.4181354218370905  0.6994772634743374   T   T   T
  0.5819737008981523  0.5818978986480152  0.6995261956383706   T   T   T
  0.7681070477742852  0.4394011258570756  0.6999369618070626   T   T   T
  0.5603680007152230  0.2317854658881412  0.6999449172999626   T   T   T
  0.4397543803139788  0.7682594448953580  0.7000243653448779   T   T   T
  0.2319202756288077  0.5605560009274605  0.6999264104778241   T   T   T
 
  0.00000000E+00  0.00000000E+00  0.00000000E+00
  0.00000000E+00  0.00000000E+00  0.00000000E+00
  0.00000000E+00  0.00000000E+00  0.00000000E+00
  0.00000000E+00  0.00000000E+00  0.00000000E+00
  0.00000000E+00  0.00000000E+00  0.00000000E+00
  0.00000000E+00  0.00000000E+00  0.00000000E+00
  0.00000000E+00  0.00000000E+00  0.00000000E+00
  0.00000000E+00  0.00000000E+00  0.00000000E+00
  0.00000000E+00  0.00000000E+00  0.00000000E+00
  0.00000000E+00  0.00000000E+00  0.00000000E+00
  0.00000000E+00  0.00000000E+00  0.00000000E+00
  0.00000000E+00  0.00000000E+00  0.00000000E+00
  0.00000000E+00  0.00000000E+00  0.00000000E+00
  0.00000000E+00  0.00000000E+00  0.00000000E+00
  0.00000000E+00  0.00000000E+00  0.00000000E+00
  0.00000000E+00  0.00000000E+00  0.00000000E+00
  0.00000000E+00  0.00000000E+00  0.00000000E+00
  0.00000000E+00  0.00000000E+00  0.00000000E+00
  0.00000000E+00  0.00000000E+00  0.00000000E+00
  0.00000000E+00  0.00000000E+00  0.00000000E+00
  0.00000000E+00  0.00000000E+00  0.00000000E+00
  0.00000000E+00  0.00000000E+00  0.00000000E+00
  0.00000000E+00  0.00000000E+00  0.00000000E+00
  0.00000000E+00  0.00000000E+00  0.00000000E+00
  0.00000000E+00  0.00000000E+00  0.00000000E+00
  0.00000000E+00  0.00000000E+00  0.00000000E+00
  0.00000000E+00  0.00000000E+00  0.00000000E+00
  0.00000000E+00  0.00000000E+00  0.00000000E+00
  0.00000000E+00  0.00000000E+00  0.00000000E+00
  0.00000000E+00  0.00000000E+00  0.00000000E+00
  0.00000000E+00  0.00000000E+00  0.00000000E+00
  0.00000000E+00  0.00000000E+00  0.00000000E+00
  0.00000000E+00  0.00000000E+00  0.00000000E+00
  0.00000000E+00  0.00000000E+00  0.00000000E+00
  0.00000000E+00  0.00000000E+00  0.00000000E+00
  0.00000000E+00  0.00000000E+00  0.00000000E+00
  0.00000000E+00  0.00000000E+00  0.00000000E+00
  0.00000000E+00  0.00000000E+00  0.00000000E+00
  0.00000000E+00  0.00000000E+00  0.00000000E+00
  0.00000000E+00  0.00000000E+00  0.00000000E+00
  0.00000000E+00  0.00000000E+00  0.00000000E+00
  0.00000000E+00  0.00000000E+00  0.00000000E+00
  0.00000000E+00  0.00000000E+00  0.00000000E+00
  0.00000000E+00  0.00000000E+00  0.00000000E+00
  0.00000000E+00  0.00000000E+00  0.00000000E+00
  0.00000000E+00  0.00000000E+00  0.00000000E+00
  0.00000000E+00  0.00000000E+00  0.00000000E+00
  0.00000000E+00  0.00000000E+00  0.00000000E+00
  0.00000000E+00  0.00000000E+00  0.00000000E+00
  0.00000000E+00  0.00000000E+00  0.00000000E+00
  0.00000000E+00  0.00000000E+00  0.00000000E+00
  0.00000000E+00  0.00000000E+00  0.00000000E+00
  0.00000000E+00  0.00000000E+00  0.00000000E+00
  0.00000000E+00  0.00000000E+00  0.00000000E+00
  0.00000000E+00  0.00000000E+00  0.00000000E+00
  0.00000000E+00  0.00000000E+00  0.00000000E+00
  0.00000000E+00  0.00000000E+00  0.00000000E+00
  0.00000000E+00  0.00000000E+00  0.00000000E+00
  0.00000000E+00  0.00000000E+00  0.00000000E+00
  0.00000000E+00  0.00000000E+00  0.00000000E+00
  0.00000000E+00  0.00000000E+00  0.00000000E+00
  0.00000000E+00  0.00000000E+00  0.00000000E+00
  0.00000000E+00  0.00000000E+00  0.00000000E+00
  0.00000000E+00  0.00000000E+00  0.00000000E+00
  0.00000000E+00  0.00000000E+00  0.00000000E+00
  0.00000000E+00  0.00000000E+00  0.00000000E+00
  0.00000000E+00  0.00000000E+00  0.00000000E+00
  0.00000000E+00  0.00000000E+00  0.00000000E+00
  0.00000000E+00  0.00000000E+00  0.00000000E+00
  0.00000000E+00  0.00000000E+00  0.00000000E+00
  0.00000000E+00  0.00000000E+00  0.00000000E+00
  0.00000000E+00  0.00000000E+00  0.00000000E+00
  0.00000000E+00  0.00000000E+00  0.00000000E+00
  0.00000000E+00  0.00000000E+00  0.00000000E+00
