Au  C Br                                
    1.000000000000000     
    11.7981856999999994    0.0000000000000000    0.0000000000000000
     0.0000000000000000   16.6851543000000007    0.0000000000000000
     0.0000000000000000    0.0000000000000000   22.4243196299999994
   Au   C    Br
    64     6     6
Selective dynamics
Direct
  0.0000000016951773  0.2499999991010000  0.3344583079330619   F   F   F
  0.7500000012713812  0.7499999979023286  0.3344583079330619   F   F   F
  0.0000000016951773  0.4999999988013286  0.3344583079330619   F   F   F
  0.0000000016951773  0.7499999979023286  0.3344583079330619   F   F   F
  0.0000000016951773  0.0000000000000000  0.3344583079330619   F   F   F
  0.2500000004237961  0.2499999991010000  0.3344583079330619   F   F   F
  0.2500000004237961  0.4999999988013286  0.3344583079330619   F   F   F
  0.7500000012713812  0.0000000000000000  0.3344583079330619   F   F   F
  0.2500000004237961  0.7499999979023286  0.3344583079330619   F   F   F
  0.2500000004237961  0.0000000000000000  0.3344583079330619   F   F   F
  0.5000000008475851  0.2499999991010000  0.3344583079330619   F   F   F
  0.5000000008475851  0.4999999988013286  0.3344583079330619   F   F   F
  0.5000000008475851  0.7499999979023286  0.3344583079330619   F   F   F
  0.5000000008475851  0.0000000000000000  0.3344583079330619   F   F   F
  0.7500000012713812  0.2499999991010000  0.3344583079330619   F   F   F
  0.7500000012713812  0.4999999988013286  0.3344583079330619   F   F   F
  0.0000726189309053  0.2505435180280816  0.4705819894778654   T   T   T
 -0.0000366998879769  0.4999960754984595  0.4699350191732217   T   T   T
 -0.0000680613937167  0.7494500720115266  0.4705809824344190   T   T   T
  0.0000030810286776 -0.0000022727148999  0.4699941576316251   T   T   T
  0.2490653764740355  0.2501058228380368  0.4701615842735053   T   T   T
  0.2501938769059722  0.4999810393247543  0.4699642684984165   T   T   T
  0.2486846089630998  0.7501613238332355  0.4697594237897549   T   T   T
  0.2508648014139214 -0.0000770322617511  0.4701951850229141   T   T   T
  0.4992483043996934  0.2500022034493539  0.4700723244742592   T   T   T
  0.4999651336072690  0.4999908588801080  0.4715477145116319   T   T   T
  0.5007501133794099  0.7499833756040537  0.4700783320234510   T   T   T
  0.4999993159567298  0.0000001202573487  0.4714282700400668   T   T   T
  0.7513448913184848  0.2498336250051504  0.4697639152907334   T   T   T
  0.7491693814431835  0.5000400355219079  0.4701442625296041   T   T   T
  0.7509289969100221  0.7498988517813534  0.4701572147942664   T   T   T
  0.7491371166204981  0.0000657758089086  0.4701870590063063   T   T   T
  0.1247740158716518  0.1249842606807886  0.5286391595441783   T   T   T
  0.1237275821778921  0.3759382457553072  0.5289277662543684   T   T   T
  0.1237827397152592  0.6239495829525190  0.5288954756377301   T   T   T
  0.1259984985409260  0.8750214237338569  0.5287311009048251   T   T   T
  0.3741380501142481  0.1258069717631826  0.5288089489483727   T   T   T
  0.3742077304726579  0.3747064850209575  0.5284831864181964   T   T   T
  0.3733539703283345  0.6260504123048422  0.5281236739800121   T   T   T
  0.3759617270534029  0.8740550804467595  0.5288056594498085   T   T   T
  0.6239227760698327  0.1261141736428147  0.5288083465255556   T   T   T
  0.6266027512813691  0.3738276566138238  0.5281546346074050   T   T   T
  0.6258422082919057  0.6253162776101797  0.5284787951610355   T   T   T
  0.6257859277563418  0.8741733277030491  0.5288159456251004   T   T   T
  0.8740170402971846  0.1249631643676743  0.5287364166637544   T   T   T
  0.8762207569883225  0.3761115203808682  0.5288861733642415   T   T   T
  0.8762507965698473  0.6240008363357008  0.5289065816195107   T   T   T
  0.8752238981697831  0.8750123370349411  0.5286442025221182   T   T   T
  0.1250000006356942  0.1249999995504965  0.4002249949199452   F   F   F
  0.1250000006356942  0.3749999992508322  0.4002249949199452   F   F   F
  0.1250000006356942  0.6249999983518251  0.4002249949199452   F   F   F
  0.1250000006356942  0.8749999974528251  0.4002249949199452   F   F   F
  0.3750000002118981  0.1249999995504965  0.4002249949199452   F   F   F
  0.3750000002118981  0.3749999992508322  0.4002249949199452   F   F   F
  0.3750000010594832  0.6249999983518251  0.4002249949199452   F   F   F
  0.3750000010594832  0.8749999974528251  0.4002249949199452   F   F   F
  0.6250000006356942  0.1249999995504965  0.4002249949199452   F   F   F
  0.6250000006356942  0.3749999992508322  0.4002249949199452   F   F   F
  0.6250000014832793  0.6249999983518251  0.4002249949199452   F   F   F
  0.6250000006356942  0.8749999974528251  0.4002249949199452   F   F   F
  0.8750000010594832  0.1249999995504965  0.4002249949199452   F   F   F
  0.8750000010594832  0.3749999992508322  0.4002249949199452   F   F   F
  0.8750000019070754  0.6249999983518251  0.4002249949199452   F   F   F
  0.8750000010594832  0.8749999974528251  0.4002249949199452   F   F   F
  0.3809155841863470  0.5071909517160409  0.6674272337782344   T   T   T
  0.4494022583279451  0.5761454289828479  0.6684810264542262   T   T   T
  0.5680671071647621  0.5687752296286601  0.6685418238685283   T   T   T
  0.6191134046386640  0.4927774045912433  0.6674282847999442   T   T   T
  0.5506389932169247  0.4238214950615560  0.6684624032698634   T   T   T
  0.4319743336345350  0.4311937218405217  0.6685149150036631   T   T   T
  0.2217230253770295  0.5162264203545981  0.6609501129551857   T   T   T
  0.3819566263362743  0.6789662471164655  0.6674975326402403   T   T   T
  0.6598421814924911  0.6617545849170492  0.6679506755905763   T   T   T
  0.7782836939374655  0.4837609537201064  0.6609897110355556   T   T   T
  0.6181248547312884  0.3210584444554674  0.6674642738545968   T   T   T
  0.3402998042182213  0.3382298320104015  0.6678942664207456   T   T   T
 
  0.00000000E+00  0.00000000E+00  0.00000000E+00
  0.00000000E+00  0.00000000E+00  0.00000000E+00
  0.00000000E+00  0.00000000E+00  0.00000000E+00
  0.00000000E+00  0.00000000E+00  0.00000000E+00
  0.00000000E+00  0.00000000E+00  0.00000000E+00
  0.00000000E+00  0.00000000E+00  0.00000000E+00
  0.00000000E+00  0.00000000E+00  0.00000000E+00
  0.00000000E+00  0.00000000E+00  0.00000000E+00
  0.00000000E+00  0.00000000E+00  0.00000000E+00
  0.00000000E+00  0.00000000E+00  0.00000000E+00
  0.00000000E+00  0.00000000E+00  0.00000000E+00
  0.00000000E+00  0.00000000E+00  0.00000000E+00
  0.00000000E+00  0.00000000E+00  0.00000000E+00
  0.00000000E+00  0.00000000E+00  0.00000000E+00
  0.00000000E+00  0.00000000E+00  0.00000000E+00
  0.00000000E+00  0.00000000E+00  0.00000000E+00
  0.00000000E+00  0.00000000E+00  0.00000000E+00
  0.00000000E+00  0.00000000E+00  0.00000000E+00
  0.00000000E+00  0.00000000E+00  0.00000000E+00
  0.00000000E+00  0.00000000E+00  0.00000000E+00
  0.00000000E+00  0.00000000E+00  0.00000000E+00
  0.00000000E+00  0.00000000E+00  0.00000000E+00
  0.00000000E+00  0.00000000E+00  0.00000000E+00
  0.00000000E+00  0.00000000E+00  0.00000000E+00
  0.00000000E+00  0.00000000E+00  0.00000000E+00
  0.00000000E+00  0.00000000E+00  0.00000000E+00
  0.00000000E+00  0.00000000E+00  0.00000000E+00
  0.00000000E+00  0.00000000E+00  0.00000000E+00
  0.00000000E+00  0.00000000E+00  0.00000000E+00
  0.00000000E+00  0.00000000E+00  0.00000000E+00
  0.00000000E+00  0.00000000E+00  0.00000000E+00
  0.00000000E+00  0.00000000E+00  0.00000000E+00
  0.00000000E+00  0.00000000E+00  0.00000000E+00
  0.00000000E+00  0.00000000E+00  0.00000000E+00
  0.00000000E+00  0.00000000E+00  0.00000000E+00
  0.00000000E+00  0.00000000E+00  0.00000000E+00
  0.00000000E+00  0.00000000E+00  0.00000000E+00
  0.00000000E+00  0.00000000E+00  0.00000000E+00
  0.00000000E+00  0.00000000E+00  0.00000000E+00
  0.00000000E+00  0.00000000E+00  0.00000000E+00
  0.00000000E+00  0.00000000E+00  0.00000000E+00
  0.00000000E+00  0.00000000E+00  0.00000000E+00
  0.00000000E+00  0.00000000E+00  0.00000000E+00
  0.00000000E+00  0.00000000E+00  0.00000000E+00
  0.00000000E+00  0.00000000E+00  0.00000000E+00
  0.00000000E+00  0.00000000E+00  0.00000000E+00
  0.00000000E+00  0.00000000E+00  0.00000000E+00
  0.00000000E+00  0.00000000E+00  0.00000000E+00
  0.00000000E+00  0.00000000E+00  0.00000000E+00
  0.00000000E+00  0.00000000E+00  0.00000000E+00
  0.00000000E+00  0.00000000E+00  0.00000000E+00
  0.00000000E+00  0.00000000E+00  0.00000000E+00
  0.00000000E+00  0.00000000E+00  0.00000000E+00
  0.00000000E+00  0.00000000E+00  0.00000000E+00
  0.00000000E+00  0.00000000E+00  0.00000000E+00
  0.00000000E+00  0.00000000E+00  0.00000000E+00
  0.00000000E+00  0.00000000E+00  0.00000000E+00
  0.00000000E+00  0.00000000E+00  0.00000000E+00
  0.00000000E+00  0.00000000E+00  0.00000000E+00
  0.00000000E+00  0.00000000E+00  0.00000000E+00
  0.00000000E+00  0.00000000E+00  0.00000000E+00
  0.00000000E+00  0.00000000E+00  0.00000000E+00
  0.00000000E+00  0.00000000E+00  0.00000000E+00
  0.00000000E+00  0.00000000E+00  0.00000000E+00
  0.00000000E+00  0.00000000E+00  0.00000000E+00
  0.00000000E+00  0.00000000E+00  0.00000000E+00
  0.00000000E+00  0.00000000E+00  0.00000000E+00
  0.00000000E+00  0.00000000E+00  0.00000000E+00
  0.00000000E+00  0.00000000E+00  0.00000000E+00
  0.00000000E+00  0.00000000E+00  0.00000000E+00
  0.00000000E+00  0.00000000E+00  0.00000000E+00
  0.00000000E+00  0.00000000E+00  0.00000000E+00
  0.00000000E+00  0.00000000E+00  0.00000000E+00
  0.00000000E+00  0.00000000E+00  0.00000000E+00
  0.00000000E+00  0.00000000E+00  0.00000000E+00
  0.00000000E+00  0.00000000E+00  0.00000000E+00
