Ag48 H4 C6 Cl2                          
    1.000000000000000     
    11.7678089999999997    0.0000000000000000    0.0000000000000000
    -5.8839040000000002   10.1912210000000005    0.0000000000000000
     0.0000000000000000    0.0000000000000000   17.8059820000000002
   Ag   H    C    Cl
    48     4     6     2
Selective dynamics
Direct
  0.0833330000000032  0.1666669999999968  0.3369649999999993   F   F   F
  0.0833330000000032  0.4166669999999968  0.3369649999999993   F   F   F
  0.0833330000000032  0.6666669999999968  0.3369649999999993   F   F   F
  0.0833330000000032  0.9166669999999968  0.3369649999999993   F   F   F
  0.3333330000000032  0.1666669999999968  0.3369649999999993   F   F   F
  0.3333330000000032  0.4166669999999968  0.3369649999999993   F   F   F
  0.3333330000000032  0.6666669999999968  0.3369649999999993   F   F   F
  0.3333330000000032  0.9166669999999968  0.3369649999999993   F   F   F
  0.5833330000000032  0.1666669999999968  0.3369649999999993   F   F   F
  0.5833330000000032  0.4166669999999968  0.3369649999999993   F   F   F
  0.5833330000000032  0.6666669999999968  0.3369649999999993   F   F   F
  0.5833330000000032  0.9166669999999968  0.3369649999999993   F   F   F
  0.8333330000000032  0.1666669999999968  0.3369649999999993   F   F   F
  0.8333330000000032  0.4166669999999968  0.3369649999999993   F   F   F
  0.8333330000000032  0.6666669999999968  0.3369649999999993   F   F   F
  0.8333330000000032  0.9166669999999968  0.3369649999999993   F   F   F
  0.2487577275391857  0.2490038119375058  0.5889198899592643   T   T   T
  0.2495550319110436  0.5002615034284119  0.5884357254812542   T   T   T
  0.2499632889100951  0.7503878525385730  0.5890032655086088   T   T   T
  0.2495620313198046  0.9998445456367691  0.5892670948245495   T   T   T
  0.5001278473900044  0.2496809825901209  0.5885663921980111   T   T   T
  0.5010008263608654  0.5012339090281444  0.5888179665084508   T   T   T
  0.5003517230482615  0.7502104317519382  0.5892473589228828   T   T   T
  0.4997350175883284  0.9994139009455836  0.5891122538949176   T   T   T
  0.7502776410166234  0.2500215984124878  0.5890856792894681   T   T   T
  0.7499461121430855  0.5002406865022877  0.5891913389626637   T   T   T
  0.7500032460528629  0.7502204786319879  0.5896190444689537   T   T   T
  0.7497697153550575  0.9999541978259714  0.5897353578662319   T   T   T
  0.9996869995847106  0.2495000746406077  0.5892527417112987   T   T   T
  0.9993567645287840  0.4997892809990034  0.5889868365370106   T   T   T
  0.9998027569126506  0.7500309610799079  0.5895833331860629   T   T   T
  0.9995125337308295  0.9997157506832721  0.5897014567377283   T   T   T
  0.1664372776163461  0.0834066551241293  0.4630548626649897   T   T   T
  0.1666344522002561  0.3331964422886955  0.4630642893600267   T   T   T
  0.1666161986275796  0.5832500262123119  0.4629558058597070   T   T   T
  0.1664037473698556  0.8333485256088906  0.4630826361733114   T   T   T
  0.4163604411368169  0.0831891472700121  0.4630809120636528   T   T   T
  0.4165436192430363  0.3332518362957231  0.4632515497177536   T   T   T
  0.4166278016713747  0.5832653673446444  0.4630497503176727   T   T   T
  0.4164857873627952  0.8330492777713161  0.4630098960848841   T   T   T
  0.6666831428965523  0.0832067261027163  0.4631986086913926   T   T   T
  0.6666865798612847  0.3334798610782386  0.4630686636500982   T   T   T
  0.6665838304407075  0.5834970662412218  0.4629935415939102   T   T   T
  0.6667335859593635  0.8333548787919369  0.4631952119892588   T   T   T
  0.9164756966960041  0.0831217652638045  0.4632229198412432   T   T   T
  0.9167342627848640  0.3332800453335949  0.4630191092849998   T   T   T
  0.9165496100168085  0.5835100636913211  0.4630634297884200   T   T   T
  0.9165485744582682  0.8333001754288034  0.4632610316767654   T   T   T
  0.4980712930701472  0.6206143656870253  0.7517904205772936   T   T   T
  0.6206822681544395  0.4979613162399659  0.7518575004323722   T   T   T
  0.2539899840506123  0.1312771624791509  0.7518781036941675   T   T   T
  0.1313982985604198  0.2539021180928600  0.7518110462798973   T   T   T
  0.3078827844964778  0.4440969174112439  0.7585879152627086   T   T   T
  0.4449595944596609  0.5135278001358543  0.7548706466122113   T   T   T
  0.5136506555989087  0.4448655702535120  0.7549264267095879   T   T   T
  0.4442078715119777  0.3078074416067054  0.7586900200347415   T   T   T
  0.3071332446427135  0.2383726998734517  0.7549410918513644   T   T   T
  0.2384421830866899  0.3070319648174547  0.7548875725739208   T   T   T
  0.2231790682617643  0.5287846132636105  0.7650272557376212   T   T   T
  0.5288765644935225  0.2230935844126734  0.7652235225058135   T   T   T
 
  0.00000000E+00  0.00000000E+00  0.00000000E+00
  0.00000000E+00  0.00000000E+00  0.00000000E+00
  0.00000000E+00  0.00000000E+00  0.00000000E+00
  0.00000000E+00  0.00000000E+00  0.00000000E+00
  0.00000000E+00  0.00000000E+00  0.00000000E+00
  0.00000000E+00  0.00000000E+00  0.00000000E+00
  0.00000000E+00  0.00000000E+00  0.00000000E+00
  0.00000000E+00  0.00000000E+00  0.00000000E+00
  0.00000000E+00  0.00000000E+00  0.00000000E+00
  0.00000000E+00  0.00000000E+00  0.00000000E+00
  0.00000000E+00  0.00000000E+00  0.00000000E+00
  0.00000000E+00  0.00000000E+00  0.00000000E+00
  0.00000000E+00  0.00000000E+00  0.00000000E+00
  0.00000000E+00  0.00000000E+00  0.00000000E+00
  0.00000000E+00  0.00000000E+00  0.00000000E+00
  0.00000000E+00  0.00000000E+00  0.00000000E+00
  0.00000000E+00  0.00000000E+00  0.00000000E+00
  0.00000000E+00  0.00000000E+00  0.00000000E+00
  0.00000000E+00  0.00000000E+00  0.00000000E+00
  0.00000000E+00  0.00000000E+00  0.00000000E+00
  0.00000000E+00  0.00000000E+00  0.00000000E+00
  0.00000000E+00  0.00000000E+00  0.00000000E+00
  0.00000000E+00  0.00000000E+00  0.00000000E+00
  0.00000000E+00  0.00000000E+00  0.00000000E+00
  0.00000000E+00  0.00000000E+00  0.00000000E+00
  0.00000000E+00  0.00000000E+00  0.00000000E+00
  0.00000000E+00  0.00000000E+00  0.00000000E+00
  0.00000000E+00  0.00000000E+00  0.00000000E+00
  0.00000000E+00  0.00000000E+00  0.00000000E+00
  0.00000000E+00  0.00000000E+00  0.00000000E+00
  0.00000000E+00  0.00000000E+00  0.00000000E+00
  0.00000000E+00  0.00000000E+00  0.00000000E+00
  0.00000000E+00  0.00000000E+00  0.00000000E+00
  0.00000000E+00  0.00000000E+00  0.00000000E+00
  0.00000000E+00  0.00000000E+00  0.00000000E+00
  0.00000000E+00  0.00000000E+00  0.00000000E+00
  0.00000000E+00  0.00000000E+00  0.00000000E+00
  0.00000000E+00  0.00000000E+00  0.00000000E+00
  0.00000000E+00  0.00000000E+00  0.00000000E+00
  0.00000000E+00  0.00000000E+00  0.00000000E+00
  0.00000000E+00  0.00000000E+00  0.00000000E+00
  0.00000000E+00  0.00000000E+00  0.00000000E+00
  0.00000000E+00  0.00000000E+00  0.00000000E+00
  0.00000000E+00  0.00000000E+00  0.00000000E+00
  0.00000000E+00  0.00000000E+00  0.00000000E+00
  0.00000000E+00  0.00000000E+00  0.00000000E+00
  0.00000000E+00  0.00000000E+00  0.00000000E+00
  0.00000000E+00  0.00000000E+00  0.00000000E+00
  0.00000000E+00  0.00000000E+00  0.00000000E+00
  0.00000000E+00  0.00000000E+00  0.00000000E+00
  0.00000000E+00  0.00000000E+00  0.00000000E+00
  0.00000000E+00  0.00000000E+00  0.00000000E+00
  0.00000000E+00  0.00000000E+00  0.00000000E+00
  0.00000000E+00  0.00000000E+00  0.00000000E+00
  0.00000000E+00  0.00000000E+00  0.00000000E+00
  0.00000000E+00  0.00000000E+00  0.00000000E+00
  0.00000000E+00  0.00000000E+00  0.00000000E+00
  0.00000000E+00  0.00000000E+00  0.00000000E+00
  0.00000000E+00  0.00000000E+00  0.00000000E+00
  0.00000000E+00  0.00000000E+00  0.00000000E+00
