H2 Rh48 C6 F4                           
    1.000000000000000     
    10.8721879999999995    0.0000000000000000    0.0000000000000000
    -5.4360939999999998    9.4155909999999992    0.0000000000000000
     0.0000000000000000    0.0000000000000000   16.6628579999999999
   H    Rh   C    F 
     2    48     6     4
Selective dynamics
Direct
  0.2478590956624629  0.5039906564931229  0.7835854313451520   T   T   T
  0.5031812172607886  0.2475994957034686  0.7849405652851686   T   T   T
  0.0833330000000032  0.1666669999999968  0.3600819999999985   F   F   F
  0.0833330000000032  0.4166669999999968  0.3600819999999985   F   F   F
  0.0833330000000032  0.6666669999999968  0.3600819999999985   F   F   F
  0.0833330000000032  0.9166669999999968  0.3600819999999985   F   F   F
  0.3333330000000032  0.1666669999999968  0.3600819999999985   F   F   F
  0.3333330000000032  0.4166669999999968  0.3600819999999985   F   F   F
  0.3333330000000032  0.6666669999999968  0.3600819999999985   F   F   F
  0.3333330000000032  0.9166669999999968  0.3600819999999985   F   F   F
  0.5833330000000032  0.1666669999999968  0.3600819999999985   F   F   F
  0.5833330000000032  0.4166669999999968  0.3600819999999985   F   F   F
  0.5833330000000032  0.6666669999999968  0.3600819999999985   F   F   F
  0.5833330000000032  0.9166669999999968  0.3600819999999985   F   F   F
  0.8333330000000032  0.1666669999999968  0.3600819999999985   F   F   F
  0.8333330000000032  0.4166669999999968  0.3600819999999985   F   F   F
  0.8333330000000032  0.6666669999999968  0.3600819999999985   F   F   F
  0.8333330000000032  0.9166669999999968  0.3600819999999985   F   F   F
  0.9969405183761921  0.9960737638778241  0.6148745649882628   T   T   T
  0.9945949330795827  0.2483230771847573  0.6151251087918652   T   T   T
  0.0007600336404678  0.4993949433332006  0.6158772998872095   T   T   T
  0.0011742888287003  0.7486387139819826  0.6154088277722707   T   T   T
  0.2473478725291471  0.9938907623668314  0.6151334536866102   T   T   T
  0.2432074783625211  0.2424344982001259  0.6268406775777322   T   T   T
  0.2519250303270937  0.4981727438615238  0.6230314300604647   T   T   T
  0.2503180265169718  0.7491245356388490  0.6158922013255150   T   T   T
  0.5000332884152172  0.0008816601404291  0.6158039827463497   T   T   T
  0.4984013331698662  0.2514479785840678  0.6234914630508896   T   T   T
  0.5077176086952448  0.5068820979598456  0.6265804251333975   T   T   T
  0.5014425311942148  0.7553293845896079  0.6150704441492323   T   T   T
  0.7496939212850009  0.0001061049402082  0.6148937551424183   T   T   T
  0.7488865174362047  0.2496710161692164  0.6158508474073656   T   T   T
  0.7559744688611474  0.5024296906663182  0.6151016865025412   T   T   T
  0.7540076188426852  0.7530909950772298  0.6147438659609890   T   T   T
  0.1688338166682684  0.0871657647276081  0.4883405769737124   T   T   T
  0.1696039361588078  0.3338683599509267  0.4891205013298716   T   T   T
  0.1691587842395563  0.5806394659016547  0.4893478431391642   T   T   T
  0.1679464417365821  0.8333542099505138  0.4873982835179262   T   T   T
  0.4173627892985365  0.0870724369317912  0.4890761804021437   T   T   T
  0.4155865150109932  0.3344911989830877  0.4894890467863817   T   T   T
  0.4160943920011206  0.5803273330346030  0.4890094098032307   T   T   T
  0.4168475429972247  0.8335362765829544  0.4879649884821404   T   T   T
  0.6660433067223224  0.0838835599754120  0.4879781034350046   T   T   T
  0.6627998692598496  0.3325109105219042  0.4891247582309930   T   T   T
  0.6628370630501124  0.5810621503843763  0.4881548161810514   T   T   T
  0.6658411932689461  0.8321934215511106  0.4874924390657043   T   T   T
  0.9177021037087130  0.0840077386637077  0.4875609595858919   T   T   T
  0.9164349896713659  0.3330500399455190  0.4879641561578438   T   T   T
  0.9166369258230631  0.5819131982169168  0.4874443204466701   T   T   T
  0.9173064650839819  0.8328026681767824  0.4871811172166005   T   T   T
  0.2946317051412350  0.4568853663628971  0.7441682664341300   T   T   T
  0.4502120932225466  0.5261499796336579  0.7461957144010967   T   T   T
  0.5264795146453949  0.4495607557677985  0.7461427803706400   T   T   T
  0.4569990128707317  0.2939165833406960  0.7445696304071205   T   T   T
  0.3013736842984969  0.2247294382612779  0.7464851078967030   T   T   T
  0.2250925431315025  0.3013129264065810  0.7464512775268375   T   T   T
  0.5174266948453123  0.6593363604894122  0.7804451964573147   T   T   T
  0.6595339175038717  0.5168500254788597  0.7806021905661282   T   T   T
  0.2338328182565590  0.0921317132237718  0.7814764765640163   T   T   T
  0.0922152657220892  0.2345036468547690  0.7810335822709931   T   T   T
 
  0.00000000E+00  0.00000000E+00  0.00000000E+00
  0.00000000E+00  0.00000000E+00  0.00000000E+00
  0.00000000E+00  0.00000000E+00  0.00000000E+00
  0.00000000E+00  0.00000000E+00  0.00000000E+00
  0.00000000E+00  0.00000000E+00  0.00000000E+00
  0.00000000E+00  0.00000000E+00  0.00000000E+00
  0.00000000E+00  0.00000000E+00  0.00000000E+00
  0.00000000E+00  0.00000000E+00  0.00000000E+00
  0.00000000E+00  0.00000000E+00  0.00000000E+00
  0.00000000E+00  0.00000000E+00  0.00000000E+00
  0.00000000E+00  0.00000000E+00  0.00000000E+00
  0.00000000E+00  0.00000000E+00  0.00000000E+00
  0.00000000E+00  0.00000000E+00  0.00000000E+00
  0.00000000E+00  0.00000000E+00  0.00000000E+00
  0.00000000E+00  0.00000000E+00  0.00000000E+00
  0.00000000E+00  0.00000000E+00  0.00000000E+00
  0.00000000E+00  0.00000000E+00  0.00000000E+00
  0.00000000E+00  0.00000000E+00  0.00000000E+00
  0.00000000E+00  0.00000000E+00  0.00000000E+00
  0.00000000E+00  0.00000000E+00  0.00000000E+00
  0.00000000E+00  0.00000000E+00  0.00000000E+00
  0.00000000E+00  0.00000000E+00  0.00000000E+00
  0.00000000E+00  0.00000000E+00  0.00000000E+00
  0.00000000E+00  0.00000000E+00  0.00000000E+00
  0.00000000E+00  0.00000000E+00  0.00000000E+00
  0.00000000E+00  0.00000000E+00  0.00000000E+00
  0.00000000E+00  0.00000000E+00  0.00000000E+00
  0.00000000E+00  0.00000000E+00  0.00000000E+00
  0.00000000E+00  0.00000000E+00  0.00000000E+00
  0.00000000E+00  0.00000000E+00  0.00000000E+00
  0.00000000E+00  0.00000000E+00  0.00000000E+00
  0.00000000E+00  0.00000000E+00  0.00000000E+00
  0.00000000E+00  0.00000000E+00  0.00000000E+00
  0.00000000E+00  0.00000000E+00  0.00000000E+00
  0.00000000E+00  0.00000000E+00  0.00000000E+00
  0.00000000E+00  0.00000000E+00  0.00000000E+00
  0.00000000E+00  0.00000000E+00  0.00000000E+00
  0.00000000E+00  0.00000000E+00  0.00000000E+00
  0.00000000E+00  0.00000000E+00  0.00000000E+00
  0.00000000E+00  0.00000000E+00  0.00000000E+00
  0.00000000E+00  0.00000000E+00  0.00000000E+00
  0.00000000E+00  0.00000000E+00  0.00000000E+00
  0.00000000E+00  0.00000000E+00  0.00000000E+00
  0.00000000E+00  0.00000000E+00  0.00000000E+00
  0.00000000E+00  0.00000000E+00  0.00000000E+00
  0.00000000E+00  0.00000000E+00  0.00000000E+00
  0.00000000E+00  0.00000000E+00  0.00000000E+00
  0.00000000E+00  0.00000000E+00  0.00000000E+00
  0.00000000E+00  0.00000000E+00  0.00000000E+00
  0.00000000E+00  0.00000000E+00  0.00000000E+00
  0.00000000E+00  0.00000000E+00  0.00000000E+00
  0.00000000E+00  0.00000000E+00  0.00000000E+00
  0.00000000E+00  0.00000000E+00  0.00000000E+00
  0.00000000E+00  0.00000000E+00  0.00000000E+00
  0.00000000E+00  0.00000000E+00  0.00000000E+00
  0.00000000E+00  0.00000000E+00  0.00000000E+00
  0.00000000E+00  0.00000000E+00  0.00000000E+00
  0.00000000E+00  0.00000000E+00  0.00000000E+00
  0.00000000E+00  0.00000000E+00  0.00000000E+00
  0.00000000E+00  0.00000000E+00  0.00000000E+00
