Ag  C  N  F                             
   1.00000000000000     
    11.7678089999999997    0.0000000000000000    0.0000000000000000
    -5.8839040000000002   10.1912210000000005    0.0000000000000000
     0.0000000000000000    0.0000000000000000   25.2062817300000006
   Ag   C    N    F 
    64     4     2     4
Selective dynamics
Direct
  0.7499999754973956  0.7500000274746270  0.2975448771198046   F   F   F
  0.9999999830044857  0.0000000000000000  0.2975448771198046   F   F   F
  0.9999999789222898  0.2500000088311296  0.2975448771198046   F   F   F
  0.9999999748400938  0.5000000176622592  0.2975448771198046   F   F   F
  0.9999999882440349  0.7500000274746270  0.2975448771198046   F   F   F
  0.2499999957511179  0.0000000000000000  0.2975448771198046   F   F   F
  0.2499999916689291  0.2500000088311296  0.2975448771198046   F   F   F
  0.2499999875867331  0.5000000176622592  0.2975448771198046   F   F   F
  0.4999999915022428  0.0000000000000000  0.2975448771198046   F   F   F
  0.4999999874200469  0.2500000088311296  0.2975448771198046   F   F   F
  0.4999999833378510  0.5000000176622592  0.2975448771198046   F   F   F
  0.4999999797462777  0.7500000274746270  0.2975448771198046   F   F   F
  0.7499999872533607  0.0000000000000000  0.2975448771198046   F   F   F
  0.7499999831711648  0.2500000088311296  0.2975448771198046   F   F   F
  0.7499999790889760  0.5000000176622592  0.2975448771198046   F   F   F
  0.2499999839951599  0.7500000274746270  0.2975448771198046   F   F   F
  0.0833330000000032  0.1666669999999968  0.3928423087572952   F   F   F
  0.0833330000000032  0.4166669999999968  0.3928423087572952   F   F   F
  0.0833330000000032  0.6666669999999968  0.3928423087572952   F   F   F
  0.0833330000000032  0.9166669999999968  0.3928423087572952   F   F   F
  0.3333330000000032  0.1666669999999968  0.3928423087572952   F   F   F
  0.3333330000000032  0.4166669999999968  0.3928423087572952   F   F   F
  0.3333330000000032  0.6666669999999968  0.3928423087572952   F   F   F
  0.3333330000000032  0.9166669999999968  0.3928423087572952   F   F   F
  0.5833330000000032  0.1666669999999968  0.3928423087572952   F   F   F
  0.5833330000000032  0.4166669999999968  0.3928423087572952   F   F   F
  0.5833330000000032  0.6666669999999968  0.3928423087572952   F   F   F
  0.5833330000000032  0.9166669999999968  0.3928423087572952   F   F   F
  0.8333330000000032  0.1666669999999968  0.3928423087572952   F   F   F
  0.8333330000000032  0.4166669999999968  0.3928423087572952   F   F   F
  0.8333330000000032  0.6666669999999968  0.3928423087572952   F   F   F
  0.8333330000000032  0.9166669999999968  0.3928423087572952   F   F   F
  0.2500891766020086  0.2500947634158386  0.5709308600831028   T   T   T
  0.2501542507065573  0.4998068575050248  0.5713396432303297   T   T   T
  0.2500613853500833  0.7499650550806984  0.5712345323420134   T   T   T
  0.2499193718792068  0.0001117523716666  0.5712676105992928   T   T   T
  0.4997614774545294  0.2502045206544660  0.5713542831927674   T   T   T
  0.4998702794152299  0.4998876387267753  0.5709192493657408   T   T   T
  0.4999796526277108  0.7498271796290774  0.5712555396169878   T   T   T
  0.4999758068458066  0.0000918165884378  0.5712147850928289   T   T   T
  0.7498897134417492  0.2499940086137358  0.5712349838177861   T   T   T
  0.7498616569355194  0.5000644646940472  0.5712658615285980   T   T   T
  0.7498467234450448  0.7498474947217487  0.5712384175693536   T   T   T
  0.7500322238748209  0.9999430219595826  0.5712034332694683   T   T   T
  0.0001542023875414  0.2499941721411573  0.5712550976679115   T   T   T
  0.0000018989547910  0.4998918492914391  0.5712127304118672   T   T   T
  0.9999776222559679  0.7499964471008023  0.5712166659053187   T   T   T
  0.0001538386850340  0.0001481991779335  0.5712179065456529   T   T   T
  0.1666071125186199  0.0831697262485299  0.4818133839373957   T   T   T
  0.1665825591057972  0.3334181917120352  0.4818319757096670   T   T   T
  0.1667097802138060  0.5833185106585741  0.4819172542277991   T   T   T
  0.1666911090370887  0.8333245866548991  0.4818874494516725   T   T   T
  0.4166475941441796  0.0833889269652817  0.4819168542986220   T   T   T
  0.4167279811414635  0.3332204861199690  0.4817707972843640   T   T   T
  0.4165374760471861  0.5834138073192030  0.4818241161287640   T   T   T
  0.4166836125698060  0.8333384581448314  0.4818883315135692   T   T   T
  0.6666871216534556  0.0833402931524777  0.4818717177095421   T   T   T
  0.6666064912431813  0.3333165919283634  0.4819289127902536   T   T   T
  0.6668476262766256  0.5834278397731600  0.4818168871834699   T   T   T
  0.6666311302627251  0.8332998207721837  0.4818760720003728   T   T   T
  0.9166641656357409  0.0833632633617206  0.4818658396684929   T   T   T
  0.9165916048612641  0.3332455055862670  0.4818883262865207   T   T   T
  0.9166378649944903  0.5833070983622552  0.4818769127200160   T   T   T
  0.9166339666695723  0.8332970231462062  0.4818770422195278   T   T   T
  0.5051953926746706  0.4363804435912569  0.7020730859067712   T   T   T
  0.4364210474330036  0.5051597794127761  0.7020619693341471   T   T   T
  0.2449952305571179  0.3137805731709922  0.7020627440343880   T   T   T
  0.3137888712334365  0.2449715294855054  0.7020720498293275   T   T   T
  0.3072009120624313  0.4430314298266077  0.7024318021989951   T   T   T
  0.4430089965642514  0.3071221501899976  0.7024627518836645   T   T   T
  0.2492657184216273  0.1132240869626531  0.7029617077196872   T   T   T
  0.1132472274526460  0.2493077645338334  0.7029400766207814   T   T   T
  0.6369085828481831  0.5008373198154497  0.7029557914404835   T   T   T
  0.5009206728125425  0.6368817104650837  0.7029323294767743   T   T   T
 
  0.00000000E+00  0.00000000E+00  0.00000000E+00
  0.00000000E+00  0.00000000E+00  0.00000000E+00
  0.00000000E+00  0.00000000E+00  0.00000000E+00
  0.00000000E+00  0.00000000E+00  0.00000000E+00
  0.00000000E+00  0.00000000E+00  0.00000000E+00
  0.00000000E+00  0.00000000E+00  0.00000000E+00
  0.00000000E+00  0.00000000E+00  0.00000000E+00
  0.00000000E+00  0.00000000E+00  0.00000000E+00
  0.00000000E+00  0.00000000E+00  0.00000000E+00
  0.00000000E+00  0.00000000E+00  0.00000000E+00
  0.00000000E+00  0.00000000E+00  0.00000000E+00
  0.00000000E+00  0.00000000E+00  0.00000000E+00
  0.00000000E+00  0.00000000E+00  0.00000000E+00
  0.00000000E+00  0.00000000E+00  0.00000000E+00
  0.00000000E+00  0.00000000E+00  0.00000000E+00
  0.00000000E+00  0.00000000E+00  0.00000000E+00
  0.00000000E+00  0.00000000E+00  0.00000000E+00
  0.00000000E+00  0.00000000E+00  0.00000000E+00
  0.00000000E+00  0.00000000E+00  0.00000000E+00
  0.00000000E+00  0.00000000E+00  0.00000000E+00
  0.00000000E+00  0.00000000E+00  0.00000000E+00
  0.00000000E+00  0.00000000E+00  0.00000000E+00
  0.00000000E+00  0.00000000E+00  0.00000000E+00
  0.00000000E+00  0.00000000E+00  0.00000000E+00
  0.00000000E+00  0.00000000E+00  0.00000000E+00
  0.00000000E+00  0.00000000E+00  0.00000000E+00
  0.00000000E+00  0.00000000E+00  0.00000000E+00
  0.00000000E+00  0.00000000E+00  0.00000000E+00
  0.00000000E+00  0.00000000E+00  0.00000000E+00
  0.00000000E+00  0.00000000E+00  0.00000000E+00
  0.00000000E+00  0.00000000E+00  0.00000000E+00
  0.00000000E+00  0.00000000E+00  0.00000000E+00
  0.00000000E+00  0.00000000E+00  0.00000000E+00
  0.00000000E+00  0.00000000E+00  0.00000000E+00
  0.00000000E+00  0.00000000E+00  0.00000000E+00
  0.00000000E+00  0.00000000E+00  0.00000000E+00
  0.00000000E+00  0.00000000E+00  0.00000000E+00
  0.00000000E+00  0.00000000E+00  0.00000000E+00
  0.00000000E+00  0.00000000E+00  0.00000000E+00
  0.00000000E+00  0.00000000E+00  0.00000000E+00
  0.00000000E+00  0.00000000E+00  0.00000000E+00
  0.00000000E+00  0.00000000E+00  0.00000000E+00
  0.00000000E+00  0.00000000E+00  0.00000000E+00
  0.00000000E+00  0.00000000E+00  0.00000000E+00
  0.00000000E+00  0.00000000E+00  0.00000000E+00
  0.00000000E+00  0.00000000E+00  0.00000000E+00
  0.00000000E+00  0.00000000E+00  0.00000000E+00
  0.00000000E+00  0.00000000E+00  0.00000000E+00
  0.00000000E+00  0.00000000E+00  0.00000000E+00
  0.00000000E+00  0.00000000E+00  0.00000000E+00
  0.00000000E+00  0.00000000E+00  0.00000000E+00
  0.00000000E+00  0.00000000E+00  0.00000000E+00
  0.00000000E+00  0.00000000E+00  0.00000000E+00
  0.00000000E+00  0.00000000E+00  0.00000000E+00
  0.00000000E+00  0.00000000E+00  0.00000000E+00
  0.00000000E+00  0.00000000E+00  0.00000000E+00
  0.00000000E+00  0.00000000E+00  0.00000000E+00
  0.00000000E+00  0.00000000E+00  0.00000000E+00
  0.00000000E+00  0.00000000E+00  0.00000000E+00
  0.00000000E+00  0.00000000E+00  0.00000000E+00
  0.00000000E+00  0.00000000E+00  0.00000000E+00
  0.00000000E+00  0.00000000E+00  0.00000000E+00
  0.00000000E+00  0.00000000E+00  0.00000000E+00
  0.00000000E+00  0.00000000E+00  0.00000000E+00
  0.00000000E+00  0.00000000E+00  0.00000000E+00
  0.00000000E+00  0.00000000E+00  0.00000000E+00
  0.00000000E+00  0.00000000E+00  0.00000000E+00
  0.00000000E+00  0.00000000E+00  0.00000000E+00
  0.00000000E+00  0.00000000E+00  0.00000000E+00
  0.00000000E+00  0.00000000E+00  0.00000000E+00
  0.00000000E+00  0.00000000E+00  0.00000000E+00
  0.00000000E+00  0.00000000E+00  0.00000000E+00
  0.00000000E+00  0.00000000E+00  0.00000000E+00
  0.00000000E+00  0.00000000E+00  0.00000000E+00
