Cu  C  N  F                             
    1.000000000000000     
    10.2424774999999997    0.0000000000000000    0.0000000000000000
     0.0000000000000000   14.4850505999999992    0.0000000000000000
     0.0000000000000000    0.0000000000000000   21.8409290399999989
   Cu   C    N    F 
    64     4     2     4
Selective dynamics
Direct
  0.2499999995118358  0.2499999993096296  0.3433919860398049   F   F   F
  0.0000000000000000  0.7499999965481621  0.3433919860398049   F   F   F
  0.2499999995118358  0.4999999986192663  0.3433919860398049   F   F   F
  0.2499999995118358  0.7499999979288958  0.3433919860398049   F   F   F
  0.2499999995118358  0.0000000000000000  0.3433919860398049   F   F   F
  0.4999999990236716  0.2499999993096296  0.3433919860398049   F   F   F
  0.4999999990236716  0.4999999986192663  0.3433919860398049   F   F   F
  0.0000000000000000  0.0000000000000000  0.3433919860398049   F   F   F
  0.4999999990236716  0.7499999979288958  0.3433919860398049   F   F   F
  0.4999999990236716  0.0000000000000000  0.3433919860398049   F   F   F
  0.7499999985355075  0.2499999993096296  0.3433919860398049   F   F   F
  0.7499999985355075  0.4999999986192663  0.3433919860398049   F   F   F
  0.7499999985355075  0.7499999979288958  0.3433919860398049   F   F   F
  0.7499999985355075  0.0000000000000000  0.3433919860398049   F   F   F
  0.9999999980473504  0.2499999993096296  0.3433919860398049   F   F   F
  0.0000000000000000  0.4999999986192663  0.3433919860398049   F   F   F
  0.2491968694642323  0.2495746118360900  0.4608579621137489   T   T   T
  0.2502794365339184  0.4994555726879304  0.4604797265136947   T   T   T
  0.2505570154775908  0.7495061706501943  0.4613265449498228   T   T   T
  0.2501012066957575 -0.0000403586874414  0.4619329907233703   T   T   T
  0.4996323998714552  0.2498568051539200  0.4602983228107415   T   T   T
  0.4999981122780629  0.5000085104424536  0.4593751972114517   T   T   T
  0.5003668465545902  0.7501524241833865  0.4602860148984966   T   T   T
  0.5000040745329808 -0.0000129565532778  0.4618615750816294   T   T   T
  0.7494356090841210  0.2504934667126502  0.4613416662145361   T   T   T
  0.7497199490277232  0.5005569034549054  0.4604959356090568   T   T   T
  0.7507945770407171  0.7504312663884078  0.4608625580825828   T   T   T
  0.7498980179315508  0.0000297067336717  0.4619374815341755   T   T   T
  0.9993318644671852  0.2497058740069829  0.4616034795932901   T   T   T
  0.0000002393440368  0.5000017724941127  0.4616163709436191   T   T   T
  0.0006637569120516  0.7502902165529792  0.4616029126498530   T   T   T
 -0.0000015955279337  0.0000018213031062  0.4619765441202923   T   T   T
  0.1248086018768007  0.1251103892256332  0.5164976651051135   T   T   T
  0.1233329231236778  0.3744088668024151  0.5158056713535429   T   T   T
  0.1257429138410683  0.6248412398027823  0.5159906528056460   T   T   T
  0.1254131446083641  0.8746865888308269  0.5164895118352630   T   T   T
  0.3748215209768017  0.1258256722440719  0.5160430446485114   T   T   T
  0.3716931992959234  0.3708703102851162  0.5178939138675236   T   T   T
  0.3761569329711177  0.6253829727974556  0.5171315154619638   T   T   T
  0.3751994207995500  0.8740832460275224  0.5160811776723494   T   T   T
  0.6248101901061969  0.1259047741797999  0.5160915159638818   T   T   T
  0.6238442257224478  0.3746342508134708  0.5171342721225372   T   T   T
  0.6283000647968623  0.6291416480761421  0.5178897460343516   T   T   T
  0.6251770582231024  0.8741749323528263  0.5160497041940447   T   T   T
  0.8745934997271059  0.1253084630072643  0.5164921901475905   T   T   T
  0.8742542401259046  0.3751658820174664  0.5159915676340766   T   T   T
  0.8766656608498895  0.6255926181076381  0.5158051479896711   T   T   T
  0.8751883021650784  0.8748858509110311  0.5164959086922004   T   T   T
  0.1250000002440785  0.1249999996548183  0.4020117305412967   F   F   F
  0.1250000002440785  0.3749999989644479  0.4020117305412967   F   F   F
  0.1250000002440785  0.6249999982740846  0.4020117305412967   F   F   F
  0.1250000002440785  0.8749999975837142  0.4020117305412967   F   F   F
  0.3749999997559215  0.1249999996548183  0.4020117305412967   F   F   F
  0.3749999997559215  0.3749999989644479  0.4020117305412967   F   F   F
  0.3749999997559215  0.6249999982740846  0.4020117305412967   F   F   F
  0.3749999997559215  0.8749999975837142  0.4020117305412967   F   F   F
  0.6249999982914289  0.1249999996548183  0.4020117305412967   F   F   F
  0.6249999992677573  0.3749999989644479  0.4020117305412967   F   F   F
  0.6249999992677573  0.6249999982740846  0.4020117305412967   F   F   F
  0.6249999992677573  0.8749999975837142  0.4020117305412967   F   F   F
  0.8749999987795931  0.1249999996548183  0.4020117305412967   F   F   F
  0.8749999978032648  0.3749999989644479  0.4020117305412967   F   F   F
  0.8749999987795931  0.6249999982740846  0.4020117305412967   F   F   F
  0.8749999987795931  0.8749999975837142  0.4020117305412967   F   F   F
  0.5578930391662787  0.4116340127444145  0.6036995195823427   T   T   T
  0.6283552116240586  0.4966669094631679  0.6119966799240452   T   T   T
  0.4420947246466770  0.5883866566932964  0.6037115902656816   T   T   T
  0.3716451481376062  0.5033582245632945  0.6120057837433641   T   T   T
  0.5814685043101485  0.5793364060851157  0.6026680687243630   T   T   T
  0.4185169244901614  0.4206883917605416  0.6026655973754342   T   T   T
  0.2411738196517947  0.5100838521043177  0.6211346127814040   T   T   T
  0.4047424788112829  0.6612168692306242  0.6418935522998194   T   T   T
  0.5952696420754923  0.3388041685746382  0.6418872484415168   T   T   T
  0.7588377120763543  0.4899330894244516  0.6211262928885153   T   T   T
 
  0.00000000E+00  0.00000000E+00  0.00000000E+00
  0.00000000E+00  0.00000000E+00  0.00000000E+00
  0.00000000E+00  0.00000000E+00  0.00000000E+00
  0.00000000E+00  0.00000000E+00  0.00000000E+00
  0.00000000E+00  0.00000000E+00  0.00000000E+00
  0.00000000E+00  0.00000000E+00  0.00000000E+00
  0.00000000E+00  0.00000000E+00  0.00000000E+00
  0.00000000E+00  0.00000000E+00  0.00000000E+00
  0.00000000E+00  0.00000000E+00  0.00000000E+00
  0.00000000E+00  0.00000000E+00  0.00000000E+00
  0.00000000E+00  0.00000000E+00  0.00000000E+00
  0.00000000E+00  0.00000000E+00  0.00000000E+00
  0.00000000E+00  0.00000000E+00  0.00000000E+00
  0.00000000E+00  0.00000000E+00  0.00000000E+00
  0.00000000E+00  0.00000000E+00  0.00000000E+00
  0.00000000E+00  0.00000000E+00  0.00000000E+00
  0.00000000E+00  0.00000000E+00  0.00000000E+00
  0.00000000E+00  0.00000000E+00  0.00000000E+00
  0.00000000E+00  0.00000000E+00  0.00000000E+00
  0.00000000E+00  0.00000000E+00  0.00000000E+00
  0.00000000E+00  0.00000000E+00  0.00000000E+00
  0.00000000E+00  0.00000000E+00  0.00000000E+00
  0.00000000E+00  0.00000000E+00  0.00000000E+00
  0.00000000E+00  0.00000000E+00  0.00000000E+00
  0.00000000E+00  0.00000000E+00  0.00000000E+00
  0.00000000E+00  0.00000000E+00  0.00000000E+00
  0.00000000E+00  0.00000000E+00  0.00000000E+00
  0.00000000E+00  0.00000000E+00  0.00000000E+00
  0.00000000E+00  0.00000000E+00  0.00000000E+00
  0.00000000E+00  0.00000000E+00  0.00000000E+00
  0.00000000E+00  0.00000000E+00  0.00000000E+00
  0.00000000E+00  0.00000000E+00  0.00000000E+00
  0.00000000E+00  0.00000000E+00  0.00000000E+00
  0.00000000E+00  0.00000000E+00  0.00000000E+00
  0.00000000E+00  0.00000000E+00  0.00000000E+00
  0.00000000E+00  0.00000000E+00  0.00000000E+00
  0.00000000E+00  0.00000000E+00  0.00000000E+00
  0.00000000E+00  0.00000000E+00  0.00000000E+00
  0.00000000E+00  0.00000000E+00  0.00000000E+00
  0.00000000E+00  0.00000000E+00  0.00000000E+00
  0.00000000E+00  0.00000000E+00  0.00000000E+00
  0.00000000E+00  0.00000000E+00  0.00000000E+00
  0.00000000E+00  0.00000000E+00  0.00000000E+00
  0.00000000E+00  0.00000000E+00  0.00000000E+00
  0.00000000E+00  0.00000000E+00  0.00000000E+00
  0.00000000E+00  0.00000000E+00  0.00000000E+00
  0.00000000E+00  0.00000000E+00  0.00000000E+00
  0.00000000E+00  0.00000000E+00  0.00000000E+00
  0.00000000E+00  0.00000000E+00  0.00000000E+00
  0.00000000E+00  0.00000000E+00  0.00000000E+00
  0.00000000E+00  0.00000000E+00  0.00000000E+00
  0.00000000E+00  0.00000000E+00  0.00000000E+00
  0.00000000E+00  0.00000000E+00  0.00000000E+00
  0.00000000E+00  0.00000000E+00  0.00000000E+00
  0.00000000E+00  0.00000000E+00  0.00000000E+00
  0.00000000E+00  0.00000000E+00  0.00000000E+00
  0.00000000E+00  0.00000000E+00  0.00000000E+00
  0.00000000E+00  0.00000000E+00  0.00000000E+00
  0.00000000E+00  0.00000000E+00  0.00000000E+00
  0.00000000E+00  0.00000000E+00  0.00000000E+00
  0.00000000E+00  0.00000000E+00  0.00000000E+00
  0.00000000E+00  0.00000000E+00  0.00000000E+00
  0.00000000E+00  0.00000000E+00  0.00000000E+00
  0.00000000E+00  0.00000000E+00  0.00000000E+00
  0.00000000E+00  0.00000000E+00  0.00000000E+00
  0.00000000E+00  0.00000000E+00  0.00000000E+00
  0.00000000E+00  0.00000000E+00  0.00000000E+00
  0.00000000E+00  0.00000000E+00  0.00000000E+00
  0.00000000E+00  0.00000000E+00  0.00000000E+00
  0.00000000E+00  0.00000000E+00  0.00000000E+00
  0.00000000E+00  0.00000000E+00  0.00000000E+00
  0.00000000E+00  0.00000000E+00  0.00000000E+00
  0.00000000E+00  0.00000000E+00  0.00000000E+00
  0.00000000E+00  0.00000000E+00  0.00000000E+00
