Au48 C6 H2 Cl4                          
    1.000000000000000     
    11.7981856999999994    0.0000000000000000    0.0000000000000000
     0.0000000000000000   11.7981856999999994    0.0000000000000000
     0.0000000000000000    0.0000000000000000   17.1733822899999993
   Au   C    H    Cl
    48     6     2     4
Selective dynamics
Direct
  0.2497153379019821  0.0002835847210250  0.4126246097772039   T   T   T
  0.2497272136777440  0.2497255271026972  0.4125577342974083   T   T   T
  0.2491008708380846  0.4996213093597461  0.4122895768616246   T   T   T
  0.2491615521486921  0.7508361416277367  0.4123207783489633   T   T   T
  0.5000000901065960  0.0000025723373298  0.4126537557975283   T   T   T
  0.4996247158636606  0.2491014140810108  0.4122855497753477   T   T   T
  0.5000015113007308  0.4999955273398839  0.4119833837254490   T   T   T
  0.5003775905596086  0.7508977152107192  0.4122910033516689   T   T   T
  0.7502851494399607  0.9997203638063468  0.4126272375951743   T   T   T
  0.7508354308178369  0.2491641086980110  0.4123189267966012   T   T   T
  0.7508996897357321  0.5003730028153370  0.4122871330987437   T   T   T
  0.7502758948804455  0.7502725259707574  0.4125602898466099   T   T   T
  0.9999996692848399  0.0000008301300767  0.4127258355556052   T   T   T
  0.0002817774767010  0.2497154798455483  0.4126266299366605   T   T   T
  0.9999995501016699  0.4999993976745145  0.4126544031841206   T   T   T
  0.9997172710347897  0.7502833205049626  0.4126260073579644   T   T   T
  0.1251486637926718  0.1251481174986466  0.5343993822263116   T   T   T
  0.1252018497879774  0.3748580897708891  0.5342526235083227   T   T   T
  0.1243105076351867  0.6252660456023023  0.5337642605984243   T   T   T
  0.1247720787211932  0.8752259832044516  0.5343263887753977   T   T   T
  0.3748574158485383  0.1252000082984424  0.5342523774480199   T   T   T
  0.3749361276561842  0.3749356692913750  0.5331670679295186   T   T   T
  0.3745097108403783  0.6254888840607151  0.5304399140224447   T   T   T
  0.3747336283191842  0.8756876764509016  0.5337647912635148   T   T   T
  0.6252670464873304  0.1243077911760579  0.5337623602758796   T   T   T
  0.6254895500218467  0.3745113563010491  0.5304461877619886   T   T   T
  0.6250656313217462  0.6250645500334286  0.5331649623540855   T   T   T
  0.6251428981405951  0.8747961882421080  0.5342530851230904   T   T   T
  0.8752284127225565  0.1247706146558016  0.5343262824163091   T   T   T
  0.8756903797271605  0.3747347999674346  0.5337641944332816   T   T   T
  0.8747993970204178  0.6251435095134639  0.5342518462020465   T   T   T
  0.8748508088456148  0.8748489620155624  0.5343981494529473   T   T   T
  0.1249999997881019  0.1250000006356942  0.2911482383357580   F   F   F
  0.1250000006356942  0.3750000010594832  0.2911482383357580   F   F   F
  0.1250000006356942  0.6250000006356942  0.2911482383357580   F   F   F
  0.1250000006356942  0.8750000019070754  0.2911482383357580   F   F   F
  0.3750000010594832  0.1250000006356942  0.2911482383357580   F   F   F
  0.3750000010594832  0.3750000010594832  0.2911482383357580   F   F   F
  0.3750000010594832  0.6250000006356942  0.2911482383357580   F   F   F
  0.3750000010594832  0.8750000019070754  0.2911482383357580   F   F   F
  0.6250000006356942  0.1250000006356942  0.2911482383357580   F   F   F
  0.6250000014832793  0.3750000010594832  0.2911482383357580   F   F   F
  0.6250000014832793  0.6250000006356942  0.2911482383357580   F   F   F
  0.6250000014832793  0.8750000019070754  0.2911482383357580   F   F   F
  0.8750000019070754  0.1250000006356942  0.2911482383357580   F   F   F
  0.8750000019070754  0.3750000010594832  0.2911482383357580   F   F   F
  0.8750000019070754  0.6250000006356942  0.2911482383357580   F   F   F
  0.8750000019070754  0.8750000019070754  0.2911482383357580   F   F   F
  0.4164936897802534  0.4165140564577783  0.7146779210546086   T   T   T
  0.3849068055824389  0.5307138432845591  0.7163478832792833   T   T   T
  0.4692282829943011  0.6149917948712726  0.7163485070612623   T   T   T
  0.5835614499368091  0.5834703785446251  0.7146741393194986   T   T   T
  0.6150398534525650  0.4691728342670913  0.7163555002204660   T   T   T
  0.5307194142686029  0.3849228297746023  0.7163490172697351   T   T   T
  0.3512071629284108  0.3512217512437132  0.7147648578844041   T   T   T
  0.6488452011756536  0.6488569835478089  0.7147579415556748   T   T   T
  0.2434840430243526  0.5647903799012965  0.7195037244343183   T   T   T
  0.4352092642346861  0.7566301693516877  0.7194941375578452   T   T   T
  0.7565228096035170  0.4352346263771736  0.7195112503951790   T   T   T
  0.5647646370386354  0.2435119330462570  0.7195038616009981   T   T   T
 
  0.00000000E+00  0.00000000E+00  0.00000000E+00
  0.00000000E+00  0.00000000E+00  0.00000000E+00
  0.00000000E+00  0.00000000E+00  0.00000000E+00
  0.00000000E+00  0.00000000E+00  0.00000000E+00
  0.00000000E+00  0.00000000E+00  0.00000000E+00
  0.00000000E+00  0.00000000E+00  0.00000000E+00
  0.00000000E+00  0.00000000E+00  0.00000000E+00
  0.00000000E+00  0.00000000E+00  0.00000000E+00
  0.00000000E+00  0.00000000E+00  0.00000000E+00
  0.00000000E+00  0.00000000E+00  0.00000000E+00
  0.00000000E+00  0.00000000E+00  0.00000000E+00
  0.00000000E+00  0.00000000E+00  0.00000000E+00
  0.00000000E+00  0.00000000E+00  0.00000000E+00
  0.00000000E+00  0.00000000E+00  0.00000000E+00
  0.00000000E+00  0.00000000E+00  0.00000000E+00
  0.00000000E+00  0.00000000E+00  0.00000000E+00
  0.00000000E+00  0.00000000E+00  0.00000000E+00
  0.00000000E+00  0.00000000E+00  0.00000000E+00
  0.00000000E+00  0.00000000E+00  0.00000000E+00
  0.00000000E+00  0.00000000E+00  0.00000000E+00
  0.00000000E+00  0.00000000E+00  0.00000000E+00
  0.00000000E+00  0.00000000E+00  0.00000000E+00
  0.00000000E+00  0.00000000E+00  0.00000000E+00
  0.00000000E+00  0.00000000E+00  0.00000000E+00
  0.00000000E+00  0.00000000E+00  0.00000000E+00
  0.00000000E+00  0.00000000E+00  0.00000000E+00
  0.00000000E+00  0.00000000E+00  0.00000000E+00
  0.00000000E+00  0.00000000E+00  0.00000000E+00
  0.00000000E+00  0.00000000E+00  0.00000000E+00
  0.00000000E+00  0.00000000E+00  0.00000000E+00
  0.00000000E+00  0.00000000E+00  0.00000000E+00
  0.00000000E+00  0.00000000E+00  0.00000000E+00
  0.00000000E+00  0.00000000E+00  0.00000000E+00
  0.00000000E+00  0.00000000E+00  0.00000000E+00
  0.00000000E+00  0.00000000E+00  0.00000000E+00
  0.00000000E+00  0.00000000E+00  0.00000000E+00
  0.00000000E+00  0.00000000E+00  0.00000000E+00
  0.00000000E+00  0.00000000E+00  0.00000000E+00
  0.00000000E+00  0.00000000E+00  0.00000000E+00
  0.00000000E+00  0.00000000E+00  0.00000000E+00
  0.00000000E+00  0.00000000E+00  0.00000000E+00
  0.00000000E+00  0.00000000E+00  0.00000000E+00
  0.00000000E+00  0.00000000E+00  0.00000000E+00
  0.00000000E+00  0.00000000E+00  0.00000000E+00
  0.00000000E+00  0.00000000E+00  0.00000000E+00
  0.00000000E+00  0.00000000E+00  0.00000000E+00
  0.00000000E+00  0.00000000E+00  0.00000000E+00
  0.00000000E+00  0.00000000E+00  0.00000000E+00
  0.00000000E+00  0.00000000E+00  0.00000000E+00
  0.00000000E+00  0.00000000E+00  0.00000000E+00
  0.00000000E+00  0.00000000E+00  0.00000000E+00
  0.00000000E+00  0.00000000E+00  0.00000000E+00
  0.00000000E+00  0.00000000E+00  0.00000000E+00
  0.00000000E+00  0.00000000E+00  0.00000000E+00
  0.00000000E+00  0.00000000E+00  0.00000000E+00
  0.00000000E+00  0.00000000E+00  0.00000000E+00
  0.00000000E+00  0.00000000E+00  0.00000000E+00
  0.00000000E+00  0.00000000E+00  0.00000000E+00
  0.00000000E+00  0.00000000E+00  0.00000000E+00
  0.00000000E+00  0.00000000E+00  0.00000000E+00
