Pd  C  H  F                             
   1.00000000000000     
    11.1922750000000004    0.0000000000000000    0.0000000000000000
    -5.5961369999999997    9.6927939999999992    0.0000000000000000
     0.0000000000000000    0.0000000000000000   24.8538405000000040
   Pd   C    H    F 
    64     6     4     2
Selective dynamics
Direct
  0.9999999513476965  0.0000000206338839  0.3017642283493345   F   F   F
  0.2499999873901899  0.2500000051584692  0.3017642283493345   F   F   F
  0.2499999828216346  0.5000000103169455  0.3017642283493345   F   F   F
  0.2499999773596073  0.7500000154754147  0.3017642283493345   F   F   F
  0.2499999727910591  0.0000000206338839  0.3017642283493345   F   F   F
  0.4999999802424000  0.2500000051584692  0.3017642283493345   F   F   F
  0.4999999756738518  0.5000000103169455  0.3017642283493345   F   F   F
  0.4999999702118245  0.7500000154754147  0.3017642283493345   F   F   F
  0.7499999730946101  0.2500000051584692  0.3017642283493345   F   F   F
  0.7499999685260619  0.5000000103169455  0.3017642283493345   F   F   F
  0.7499999630640346  0.7500000154754147  0.3017642283493345   F   F   F
  0.7499999584954864  0.0000000206338839  0.3017642283493345   F   F   F
  0.9999999659468273  0.2500000051584692  0.3017642283493345   F   F   F
  0.9999999613782720  0.5000000103169455  0.3017642283493345   F   F   F
  0.9999999559162518  0.7500000154754147  0.3017642283493345   F   F   F
  0.4999999656432692  0.0000000206338839  0.3017642283493345   F   F   F
  0.0833330000000032  0.1666669999999968  0.3936861790032040   F   F   F
  0.0833330000000032  0.4166669999999968  0.3936861790032040   F   F   F
  0.0833330000000032  0.6666669999999968  0.3936861790032040   F   F   F
  0.0833330000000032  0.9166669999999968  0.3936861790032040   F   F   F
  0.3333330000000032  0.1666669999999968  0.3936861790032040   F   F   F
  0.3333330000000032  0.4166669999999968  0.3936861790032040   F   F   F
  0.3333330000000032  0.6666669999999968  0.3936861790032040   F   F   F
  0.3333330000000032  0.9166669999999968  0.3936861790032040   F   F   F
  0.5833330000000032  0.1666669999999968  0.3936861790032040   F   F   F
  0.5833330000000032  0.4166669999999968  0.3936861790032040   F   F   F
  0.5833330000000032  0.6666669999999968  0.3936861790032040   F   F   F
  0.5833330000000032  0.9166669999999968  0.3936861790032040   F   F   F
  0.8333330000000032  0.1666669999999968  0.3936861790032040   F   F   F
  0.8333330000000032  0.4166669999999968  0.3936861790032040   F   F   F
  0.8333330000000032  0.6666669999999968  0.3936861790032040   F   F   F
  0.8333330000000032  0.9166669999999968  0.3936861790032040   F   F   F
  0.2463463069804852  0.9938046980664077  0.5742054039174002   T   T   T
  0.2565848114238250  0.2533270209156150  0.5817616638051311   T   T   T
  0.2463438914464078  0.5026280163180675  0.5741946119432713   T   T   T
  0.2479276774154616  0.7490173513856884  0.5755712265617772   T   T   T
  0.4999410654559067  0.9954899896567676  0.5749504266292926   T   T   T
  0.5017282087126300  0.2399072453730764  0.5782556454245582   T   T   T
  0.5017515077070793  0.5119952619089344  0.5782087094875250   T   T   T
  0.4999451157864881  0.7546091493166827  0.5749336666623602   T   T   T
  0.7519899175821778  0.0010580567126379  0.5755806890793734   T   T   T
  0.7549937978018070  0.2485594004477205  0.5745244226045831   T   T   T
  0.7462513662394985  0.4981545653103673  0.5829242271456203   T   T   T
  0.7549900496271077  0.7565730525195260  0.5745049300084047   T   T   T
  0.0019523489127241  0.0015110992720571  0.5757712725101052   T   T   T
  0.0019671756391595  0.2505869311264516  0.5757683970966413   T   T   T
  0.9984059854956212  0.4994667090350488  0.5758761363295275   T   T   T
  0.9984445977646692  0.7490071692029159  0.5758670224016955   T   T   T
  0.1683385223500957  0.0864054346875638  0.4850815437195070   T   T   T
  0.1683234614423995  0.3319954831549795  0.4850748424410876   T   T   T
  0.1648355017302758  0.5823677773797636  0.4834775413177950   T   T   T
  0.1648491503750940  0.8325558327784640  0.4834807445621550   T   T   T
  0.4171143564027996  0.0845183793660429  0.4841122145637060   T   T   T
  0.4179091312867933  0.3339803061109204  0.4853466234015918   T   T   T
  0.4171148021013523  0.5826400925201201  0.4841059524688822   T   T   T
  0.4150786219037919  0.8325867598004529  0.4831687202642090   T   T   T
  0.6664432797760703  0.0828169584873922  0.4835242221171372   T   T   T
  0.6654401251938353  0.3330009562974919  0.4853250171364511   T   T   T
  0.6654199907595537  0.5825125828126771  0.4853158247314091   T   T   T
  0.6664942170764843  0.8336879514200177  0.4835102371925765   T   T   T
  0.9171410891974739  0.0836048404728507  0.4837608327656834   T   T   T
  0.9173920378767536  0.3330450882090567  0.4835847116291855   T   T   T
  0.9114147675148493  0.5807454380642565  0.4859411755902606   T   T   T
  0.9174020971005743  0.8344095210712517  0.4835940891363629   T   T   T
  0.3455957604787983  0.2979177793851527  0.6585485992456921   T   T   T
  0.4241769662240112  0.4490144618029998  0.6594265466172397   T   T   T
  0.5721524367412564  0.5229827157498825  0.6597700027352245   T   T   T
  0.6509595851059686  0.4506094915437305  0.6590423459501407   T   T   T
  0.5721104202506188  0.2994236069865183  0.6597950619063587   T   T   T
  0.4241307105118757  0.2253806247429442  0.6594604808119211   T   T   T
  0.3688326325745752  0.5000442142787721  0.6739838617439194   T   T   T
  0.6269570423754346  0.6290192386314194  0.6746457604243601   T   T   T
  0.6269370841671247  0.2481714321888094  0.6746894149735062   T   T   T
  0.3688168981508788  0.1190539714552331  0.6740263888017952   T   T   T
  0.2338109512831964  0.2420592591212032  0.6937649437592482   T   T   T
  0.7612195324098098  0.5057515715124515  0.6950635517375073   T   T   T
 
  0.00000000E+00  0.00000000E+00  0.00000000E+00
  0.00000000E+00  0.00000000E+00  0.00000000E+00
  0.00000000E+00  0.00000000E+00  0.00000000E+00
  0.00000000E+00  0.00000000E+00  0.00000000E+00
  0.00000000E+00  0.00000000E+00  0.00000000E+00
  0.00000000E+00  0.00000000E+00  0.00000000E+00
  0.00000000E+00  0.00000000E+00  0.00000000E+00
  0.00000000E+00  0.00000000E+00  0.00000000E+00
  0.00000000E+00  0.00000000E+00  0.00000000E+00
  0.00000000E+00  0.00000000E+00  0.00000000E+00
  0.00000000E+00  0.00000000E+00  0.00000000E+00
  0.00000000E+00  0.00000000E+00  0.00000000E+00
  0.00000000E+00  0.00000000E+00  0.00000000E+00
  0.00000000E+00  0.00000000E+00  0.00000000E+00
  0.00000000E+00  0.00000000E+00  0.00000000E+00
  0.00000000E+00  0.00000000E+00  0.00000000E+00
  0.00000000E+00  0.00000000E+00  0.00000000E+00
  0.00000000E+00  0.00000000E+00  0.00000000E+00
  0.00000000E+00  0.00000000E+00  0.00000000E+00
  0.00000000E+00  0.00000000E+00  0.00000000E+00
  0.00000000E+00  0.00000000E+00  0.00000000E+00
  0.00000000E+00  0.00000000E+00  0.00000000E+00
  0.00000000E+00  0.00000000E+00  0.00000000E+00
  0.00000000E+00  0.00000000E+00  0.00000000E+00
  0.00000000E+00  0.00000000E+00  0.00000000E+00
  0.00000000E+00  0.00000000E+00  0.00000000E+00
  0.00000000E+00  0.00000000E+00  0.00000000E+00
  0.00000000E+00  0.00000000E+00  0.00000000E+00
  0.00000000E+00  0.00000000E+00  0.00000000E+00
  0.00000000E+00  0.00000000E+00  0.00000000E+00
  0.00000000E+00  0.00000000E+00  0.00000000E+00
  0.00000000E+00  0.00000000E+00  0.00000000E+00
  0.00000000E+00  0.00000000E+00  0.00000000E+00
  0.00000000E+00  0.00000000E+00  0.00000000E+00
  0.00000000E+00  0.00000000E+00  0.00000000E+00
  0.00000000E+00  0.00000000E+00  0.00000000E+00
  0.00000000E+00  0.00000000E+00  0.00000000E+00
  0.00000000E+00  0.00000000E+00  0.00000000E+00
  0.00000000E+00  0.00000000E+00  0.00000000E+00
  0.00000000E+00  0.00000000E+00  0.00000000E+00
  0.00000000E+00  0.00000000E+00  0.00000000E+00
  0.00000000E+00  0.00000000E+00  0.00000000E+00
  0.00000000E+00  0.00000000E+00  0.00000000E+00
  0.00000000E+00  0.00000000E+00  0.00000000E+00
  0.00000000E+00  0.00000000E+00  0.00000000E+00
  0.00000000E+00  0.00000000E+00  0.00000000E+00
  0.00000000E+00  0.00000000E+00  0.00000000E+00
  0.00000000E+00  0.00000000E+00  0.00000000E+00
  0.00000000E+00  0.00000000E+00  0.00000000E+00
  0.00000000E+00  0.00000000E+00  0.00000000E+00
  0.00000000E+00  0.00000000E+00  0.00000000E+00
  0.00000000E+00  0.00000000E+00  0.00000000E+00
  0.00000000E+00  0.00000000E+00  0.00000000E+00
  0.00000000E+00  0.00000000E+00  0.00000000E+00
  0.00000000E+00  0.00000000E+00  0.00000000E+00
  0.00000000E+00  0.00000000E+00  0.00000000E+00
  0.00000000E+00  0.00000000E+00  0.00000000E+00
  0.00000000E+00  0.00000000E+00  0.00000000E+00
  0.00000000E+00  0.00000000E+00  0.00000000E+00
  0.00000000E+00  0.00000000E+00  0.00000000E+00
  0.00000000E+00  0.00000000E+00  0.00000000E+00
  0.00000000E+00  0.00000000E+00  0.00000000E+00
  0.00000000E+00  0.00000000E+00  0.00000000E+00
  0.00000000E+00  0.00000000E+00  0.00000000E+00
  0.00000000E+00  0.00000000E+00  0.00000000E+00
  0.00000000E+00  0.00000000E+00  0.00000000E+00
  0.00000000E+00  0.00000000E+00  0.00000000E+00
  0.00000000E+00  0.00000000E+00  0.00000000E+00
  0.00000000E+00  0.00000000E+00  0.00000000E+00
  0.00000000E+00  0.00000000E+00  0.00000000E+00
  0.00000000E+00  0.00000000E+00  0.00000000E+00
  0.00000000E+00  0.00000000E+00  0.00000000E+00
  0.00000000E+00  0.00000000E+00  0.00000000E+00
  0.00000000E+00  0.00000000E+00  0.00000000E+00
  0.00000000E+00  0.00000000E+00  0.00000000E+00
  0.00000000E+00  0.00000000E+00  0.00000000E+00
