Rh48 C6 F6                              
    1.000000000000000     
    10.8856652999999994    0.0000000000000000    0.0000000000000000
     0.0000000000000000   10.8856652999999994    0.0000000000000000
     0.0000000000000000    0.0000000000000000   16.5533157799999984
   Rh   C    F 
    48     6     6
Selective dynamics
Direct
  0.0000000000000000  0.0000000000000000  0.4094792685662085   T   T   T
  0.9999670009945874  0.2499307840071339  0.4095082687160385   T   T   T
  0.0000000018372788  0.5000000009186394  0.4095213471739783   T   T   T
  0.0000330008426914  0.7500692178301378  0.4095082687160385   T   T   T
  0.2499304056138953  0.9999665637568214  0.4095084525021662   T   T   T
  0.2499819300343660  0.2499822464724630  0.4095221715736983   T   T   T
  0.2496783065732657  0.5000079968362385  0.4092782517312941   T   T   T
  0.2498773401081493  0.7501233468163591  0.4094502775903734   T   T   T
  0.5000000009186394  0.0000000000000000  0.4095215328125477   T   T   T
  0.5000084559091107  0.2496785923479052  0.4092782974431799   T   T   T
  0.5000000009186394  0.5000000009186394  0.4089717829852049   T   T   T
  0.4999915459281681  0.7503214094893664  0.4092782974431799   T   T   T
  0.7500695962233763  0.0000334362431786  0.4095084525021662   T   T   T
  0.7501226617291223  0.2498766550209126  0.4094502775903734   T   T   T
  0.7503216952640059  0.4999920050010402  0.4092782517312941   T   T   T
  0.7500180718029057  0.7500177553648086  0.4095221715736983   T   T   T
  0.1249936152254776  0.1249941972800386  0.5169646237748324   T   T   T
  0.1249294061418027  0.3749807406594101  0.5169786831659238   T   T   T
  0.1249416085644199  0.6250672951557092  0.5170721601029555   T   T   T
  0.1249321832730104  0.8750675051565864  0.5170330176109275   T   T   T
  0.3749810913285643  0.1249298394186269  0.5169784180384838   T   T   T
  0.3751775353634912  0.3751775181607542  0.5166452403890389   T   T   T
  0.3748586181516629  0.6251420296542705  0.5164458410625699   T   T   T
  0.3749328705827679  0.8750578252876409  0.5170725662619375   T   T   T
  0.6250671312545109  0.1249421756309985  0.5170725662619375   T   T   T
  0.6251413836856159  0.3748579712643689  0.5164458410625699   T   T   T
  0.6248224673924270  0.6248224827578852  0.5166452403890389   T   T   T
  0.6250189114273539  0.8750701615000125  0.5169784180384838   T   T   T
  0.8750678185642613  0.1249324957620530  0.5170330176109275   T   T   T
  0.8750583932728588  0.3749327057629301  0.5170721601029555   T   T   T
  0.8750705956954761  0.6250192602592293  0.5169786831659238   T   T   T
  0.8750063866118012  0.8750058036386008  0.5169646237748324   T   T   T
  0.1249999997703384  0.1249999997703384  0.3020542872770591   F   F   F
  0.1250000006889778  0.3750000002296616  0.3020542872770591   F   F   F
  0.1250000006889778  0.6250000006889778  0.3020542872770591   F   F   F
  0.1250000006889778  0.8750000011483010  0.3020542872770591   F   F   F
  0.3750000011483010  0.1249999997703384  0.3020542872770591   F   F   F
  0.3750000011483010  0.3750000002296616  0.3020542872770591   F   F   F
  0.3750000011483010  0.6250000006889778  0.3020542872770591   F   F   F
  0.3750000011483010  0.8750000011483010  0.3020542872770591   F   F   F
  0.6250000006889778  0.1249999997703384  0.3020542872770591   F   F   F
  0.6250000006889778  0.3750000002296616  0.3020542872770591   F   F   F
  0.6250000016076172  0.6250000006889778  0.3020542872770591   F   F   F
  0.6250000016076172  0.8750000011483010  0.3020542872770591   F   F   F
  0.8750000011483010  0.1249999997703384  0.3020542872770591   F   F   F
  0.8750000011483010  0.3750000002296616  0.3020542872770591   F   F   F
  0.8750000011483010  0.6250000006889778  0.3020542872770591   F   F   F
  0.8750000020669404  0.8750000011483010  0.3020542872770591   F   F   F
  0.6242729985581406  0.4666412131210507  0.6947038201964588   T   T   T
  0.5333615829643108  0.3757293261848531  0.6947036926858985   T   T   T
  0.4089876025114307  0.4089918714639182  0.6943509924991389   T   T   T
  0.3757270335942380  0.5333588015771724  0.6947038201964588   T   T   T
  0.4666383903951470  0.6242706609541955  0.6947036926858985   T   T   T
  0.5910124002444874  0.5910081294547211  0.6943509924991389   T   T   T
  0.7432724738426870  0.4353413871048275  0.7018823083007035   T   T   T
  0.5646561973011757  0.2567291236575073  0.7018821627105680   T   T   T
  0.3219815003600388  0.3219757993460277  0.7033163595760641   T   T   T
  0.2567275289132311  0.5646586138138119  0.7018823083007035   T   T   T
  0.4353437338008774  0.7432708598069837  0.7018821627105680   T   T   T
  0.6780184729994190  0.6780241877930209  0.7033163595760641   T   T   T
 
  0.00000000E+00  0.00000000E+00  0.00000000E+00
  0.00000000E+00  0.00000000E+00  0.00000000E+00
  0.00000000E+00  0.00000000E+00  0.00000000E+00
  0.00000000E+00  0.00000000E+00  0.00000000E+00
  0.00000000E+00  0.00000000E+00  0.00000000E+00
  0.00000000E+00  0.00000000E+00  0.00000000E+00
  0.00000000E+00  0.00000000E+00  0.00000000E+00
  0.00000000E+00  0.00000000E+00  0.00000000E+00
  0.00000000E+00  0.00000000E+00  0.00000000E+00
  0.00000000E+00  0.00000000E+00  0.00000000E+00
  0.00000000E+00  0.00000000E+00  0.00000000E+00
  0.00000000E+00  0.00000000E+00  0.00000000E+00
  0.00000000E+00  0.00000000E+00  0.00000000E+00
  0.00000000E+00  0.00000000E+00  0.00000000E+00
  0.00000000E+00  0.00000000E+00  0.00000000E+00
  0.00000000E+00  0.00000000E+00  0.00000000E+00
  0.00000000E+00  0.00000000E+00  0.00000000E+00
  0.00000000E+00  0.00000000E+00  0.00000000E+00
  0.00000000E+00  0.00000000E+00  0.00000000E+00
  0.00000000E+00  0.00000000E+00  0.00000000E+00
  0.00000000E+00  0.00000000E+00  0.00000000E+00
  0.00000000E+00  0.00000000E+00  0.00000000E+00
  0.00000000E+00  0.00000000E+00  0.00000000E+00
  0.00000000E+00  0.00000000E+00  0.00000000E+00
  0.00000000E+00  0.00000000E+00  0.00000000E+00
  0.00000000E+00  0.00000000E+00  0.00000000E+00
  0.00000000E+00  0.00000000E+00  0.00000000E+00
  0.00000000E+00  0.00000000E+00  0.00000000E+00
  0.00000000E+00  0.00000000E+00  0.00000000E+00
  0.00000000E+00  0.00000000E+00  0.00000000E+00
  0.00000000E+00  0.00000000E+00  0.00000000E+00
  0.00000000E+00  0.00000000E+00  0.00000000E+00
  0.00000000E+00  0.00000000E+00  0.00000000E+00
  0.00000000E+00  0.00000000E+00  0.00000000E+00
  0.00000000E+00  0.00000000E+00  0.00000000E+00
  0.00000000E+00  0.00000000E+00  0.00000000E+00
  0.00000000E+00  0.00000000E+00  0.00000000E+00
  0.00000000E+00  0.00000000E+00  0.00000000E+00
  0.00000000E+00  0.00000000E+00  0.00000000E+00
  0.00000000E+00  0.00000000E+00  0.00000000E+00
  0.00000000E+00  0.00000000E+00  0.00000000E+00
  0.00000000E+00  0.00000000E+00  0.00000000E+00
  0.00000000E+00  0.00000000E+00  0.00000000E+00
  0.00000000E+00  0.00000000E+00  0.00000000E+00
  0.00000000E+00  0.00000000E+00  0.00000000E+00
  0.00000000E+00  0.00000000E+00  0.00000000E+00
  0.00000000E+00  0.00000000E+00  0.00000000E+00
  0.00000000E+00  0.00000000E+00  0.00000000E+00
  0.00000000E+00  0.00000000E+00  0.00000000E+00
  0.00000000E+00  0.00000000E+00  0.00000000E+00
  0.00000000E+00  0.00000000E+00  0.00000000E+00
  0.00000000E+00  0.00000000E+00  0.00000000E+00
  0.00000000E+00  0.00000000E+00  0.00000000E+00
  0.00000000E+00  0.00000000E+00  0.00000000E+00
  0.00000000E+00  0.00000000E+00  0.00000000E+00
  0.00000000E+00  0.00000000E+00  0.00000000E+00
  0.00000000E+00  0.00000000E+00  0.00000000E+00
  0.00000000E+00  0.00000000E+00  0.00000000E+00
  0.00000000E+00  0.00000000E+00  0.00000000E+00
  0.00000000E+00  0.00000000E+00  0.00000000E+00
