Au  C  H Br                             
    1.000000000000000     
    11.7981856999999994    0.0000000000000000    0.0000000000000000
     0.0000000000000000   16.6851543000000007    0.0000000000000000
     0.0000000000000000    0.0000000000000000   22.4243196299999994
   Au   C    H    Br
    64     6     4     2
Selective dynamics
Direct
  0.0000000016951773  0.2499999991010000  0.3344583079330619   F   F   F
  0.7500000012713812  0.7499999979023286  0.3344583079330619   F   F   F
  0.0000000016951773  0.4999999988013286  0.3344583079330619   F   F   F
  0.0000000016951773  0.7499999979023286  0.3344583079330619   F   F   F
  0.0000000016951773  0.0000000000000000  0.3344583079330619   F   F   F
  0.2500000004237961  0.2499999991010000  0.3344583079330619   F   F   F
  0.2500000004237961  0.4999999988013286  0.3344583079330619   F   F   F
  0.7500000012713812  0.0000000000000000  0.3344583079330619   F   F   F
  0.2500000004237961  0.7499999979023286  0.3344583079330619   F   F   F
  0.2500000004237961  0.0000000000000000  0.3344583079330619   F   F   F
  0.5000000008475851  0.2499999991010000  0.3344583079330619   F   F   F
  0.5000000008475851  0.4999999988013286  0.3344583079330619   F   F   F
  0.5000000008475851  0.7499999979023286  0.3344583079330619   F   F   F
  0.5000000008475851  0.0000000000000000  0.3344583079330619   F   F   F
  0.7500000012713812  0.2499999991010000  0.3344583079330619   F   F   F
  0.7500000012713812  0.4999999988013286  0.3344583079330619   F   F   F
  0.0007156307445077  0.2499487078242797  0.4701512380757298   T   T   T
  0.0007828923767721  0.5000075680243203  0.4702232157980475   T   T   T
 -0.0007659853082304  0.7500404891149165  0.4701574161701521   T   T   T
  0.0000295763240107 -0.0000154986349048  0.4700023549735883   T   T   T
  0.2496946815632841  0.2500033277479777  0.4699439941542303   T   T   T
  0.2507325972742159  0.4999926049196801  0.4701876457461598   T   T   T
  0.2493131745514480  0.7501303723544716  0.4701984921200169   T   T   T
  0.2507767651630736  0.0000293065995774  0.4701926932736212   T   T   T
  0.4992734020059553  0.2500391950795600  0.4701998433444471   T   T   T
  0.5002158730903028  0.5000009231644417  0.4700273844410153   T   T   T
  0.5007177331539234  0.7499793386768745  0.4701872221075270   T   T   T
  0.5001336054656259  0.0000597200745578  0.4699969488948639   T   T   T
  0.7492401672386979  0.2499362561911155  0.4702016148095550   T   T   T
  0.7508793417469416  0.4999553876185609  0.4702014185264891   T   T   T
  0.7502524780981200  0.7499860858359430  0.4699440106253874   T   T   T
  0.7492989491602126  0.0000094418798074  0.4701755334248932   T   T   T
  0.1250495690798872  0.1249579387684832  0.5287137361129856   T   T   T
  0.1232219988209484  0.3752888822844118  0.5287857535111711   T   T   T
  0.1261967950460114  0.6257367535379929  0.5289224461446066   T   T   T
  0.1250284260073122  0.8749946554858611  0.5287111370998590   T   T   T
  0.3749316959267718  0.1249973459906343  0.5286907462035657   T   T   T
  0.3736234633917271  0.3749552025826357  0.5285040837532231   T   T   T
  0.3740192499067762  0.6250032189375101  0.5287481167059769   T   T   T
  0.3757559001712838  0.8757341348227405  0.5287998121036195   T   T   T
  0.6250415196033988  0.1250214490542606  0.5287233788828299   T   T   T
  0.6257477963277289  0.3754087210829026  0.5287248244766698   T   T   T
  0.6261200808554857  0.6250404143475734  0.5284226347294975   T   T   T
  0.6250389214096557  0.8750180387755113  0.5286957182816624   T   T   T
  0.8750333949945681  0.1249831435354314  0.5286531197291524   T   T   T
  0.8741573969139458  0.3742662111336252  0.5288905771028306   T   T   T
  0.8767919693023225  0.6246598856509438  0.5288142401617117   T   T   T
  0.8749834763681450  0.8750308372675019  0.5287133942962227   T   T   T
  0.1250000006356942  0.1249999995504965  0.4002249949199452   F   F   F
  0.1250000006356942  0.3749999992508322  0.4002249949199452   F   F   F
  0.1250000006356942  0.6249999983518251  0.4002249949199452   F   F   F
  0.1250000006356942  0.8749999974528251  0.4002249949199452   F   F   F
  0.3750000002118981  0.1249999995504965  0.4002249949199452   F   F   F
  0.3750000002118981  0.3749999992508322  0.4002249949199452   F   F   F
  0.3750000010594832  0.6249999983518251  0.4002249949199452   F   F   F
  0.3750000010594832  0.8749999974528251  0.4002249949199452   F   F   F
  0.6250000006356942  0.1249999995504965  0.4002249949199452   F   F   F
  0.6250000006356942  0.3749999992508322  0.4002249949199452   F   F   F
  0.6250000014832793  0.6249999983518251  0.4002249949199452   F   F   F
  0.6250000006356942  0.8749999974528251  0.4002249949199452   F   F   F
  0.8750000010594832  0.1249999995504965  0.4002249949199452   F   F   F
  0.8750000010594832  0.3749999992508322  0.4002249949199452   F   F   F
  0.8750000019070754  0.6249999983518251  0.4002249949199452   F   F   F
  0.8750000010594832  0.8749999974528251  0.4002249949199452   F   F   F
  0.5674795274847171  0.5671986548928561  0.6637538285699398   T   T   T
  0.6185029836107472  0.4919660502208442  0.6634276202898081   T   T   T
  0.5499880707067490  0.4235700771975723  0.6634035585187366   T   T   T
  0.4323509855432018  0.4327762503402734  0.6637655011008412   T   T   T
  0.3813689711127725  0.5080177072008607  0.6634449520397168   T   T   T
  0.4498498844161506  0.5763824084563587  0.6633964607896171   T   T   T
  0.7104832473462271  0.4859960886722310  0.6623282882150001   T   T   T
  0.5884165084713947  0.3641169693539808  0.6635107136723599   T   T   T
  0.2894040329327883  0.5139638731190249  0.6623421223879381   T   T   T
  0.4114826835692506  0.6358422549241836  0.6634968755058844   T   T   T
  0.6607383991297047  0.6606514692687832  0.6606806632448571   T   T   T
  0.3382348964215744  0.3396790905664303  0.6606919332154528   T   T   T
 
  0.00000000E+00  0.00000000E+00  0.00000000E+00
  0.00000000E+00  0.00000000E+00  0.00000000E+00
  0.00000000E+00  0.00000000E+00  0.00000000E+00
  0.00000000E+00  0.00000000E+00  0.00000000E+00
  0.00000000E+00  0.00000000E+00  0.00000000E+00
  0.00000000E+00  0.00000000E+00  0.00000000E+00
  0.00000000E+00  0.00000000E+00  0.00000000E+00
  0.00000000E+00  0.00000000E+00  0.00000000E+00
  0.00000000E+00  0.00000000E+00  0.00000000E+00
  0.00000000E+00  0.00000000E+00  0.00000000E+00
  0.00000000E+00  0.00000000E+00  0.00000000E+00
  0.00000000E+00  0.00000000E+00  0.00000000E+00
  0.00000000E+00  0.00000000E+00  0.00000000E+00
  0.00000000E+00  0.00000000E+00  0.00000000E+00
  0.00000000E+00  0.00000000E+00  0.00000000E+00
  0.00000000E+00  0.00000000E+00  0.00000000E+00
  0.00000000E+00  0.00000000E+00  0.00000000E+00
  0.00000000E+00  0.00000000E+00  0.00000000E+00
  0.00000000E+00  0.00000000E+00  0.00000000E+00
  0.00000000E+00  0.00000000E+00  0.00000000E+00
  0.00000000E+00  0.00000000E+00  0.00000000E+00
  0.00000000E+00  0.00000000E+00  0.00000000E+00
  0.00000000E+00  0.00000000E+00  0.00000000E+00
  0.00000000E+00  0.00000000E+00  0.00000000E+00
  0.00000000E+00  0.00000000E+00  0.00000000E+00
  0.00000000E+00  0.00000000E+00  0.00000000E+00
  0.00000000E+00  0.00000000E+00  0.00000000E+00
  0.00000000E+00  0.00000000E+00  0.00000000E+00
  0.00000000E+00  0.00000000E+00  0.00000000E+00
  0.00000000E+00  0.00000000E+00  0.00000000E+00
  0.00000000E+00  0.00000000E+00  0.00000000E+00
  0.00000000E+00  0.00000000E+00  0.00000000E+00
  0.00000000E+00  0.00000000E+00  0.00000000E+00
  0.00000000E+00  0.00000000E+00  0.00000000E+00
  0.00000000E+00  0.00000000E+00  0.00000000E+00
  0.00000000E+00  0.00000000E+00  0.00000000E+00
  0.00000000E+00  0.00000000E+00  0.00000000E+00
  0.00000000E+00  0.00000000E+00  0.00000000E+00
  0.00000000E+00  0.00000000E+00  0.00000000E+00
  0.00000000E+00  0.00000000E+00  0.00000000E+00
  0.00000000E+00  0.00000000E+00  0.00000000E+00
  0.00000000E+00  0.00000000E+00  0.00000000E+00
  0.00000000E+00  0.00000000E+00  0.00000000E+00
  0.00000000E+00  0.00000000E+00  0.00000000E+00
  0.00000000E+00  0.00000000E+00  0.00000000E+00
  0.00000000E+00  0.00000000E+00  0.00000000E+00
  0.00000000E+00  0.00000000E+00  0.00000000E+00
  0.00000000E+00  0.00000000E+00  0.00000000E+00
  0.00000000E+00  0.00000000E+00  0.00000000E+00
  0.00000000E+00  0.00000000E+00  0.00000000E+00
  0.00000000E+00  0.00000000E+00  0.00000000E+00
  0.00000000E+00  0.00000000E+00  0.00000000E+00
  0.00000000E+00  0.00000000E+00  0.00000000E+00
  0.00000000E+00  0.00000000E+00  0.00000000E+00
  0.00000000E+00  0.00000000E+00  0.00000000E+00
  0.00000000E+00  0.00000000E+00  0.00000000E+00
  0.00000000E+00  0.00000000E+00  0.00000000E+00
  0.00000000E+00  0.00000000E+00  0.00000000E+00
  0.00000000E+00  0.00000000E+00  0.00000000E+00
  0.00000000E+00  0.00000000E+00  0.00000000E+00
  0.00000000E+00  0.00000000E+00  0.00000000E+00
  0.00000000E+00  0.00000000E+00  0.00000000E+00
  0.00000000E+00  0.00000000E+00  0.00000000E+00
  0.00000000E+00  0.00000000E+00  0.00000000E+00
  0.00000000E+00  0.00000000E+00  0.00000000E+00
  0.00000000E+00  0.00000000E+00  0.00000000E+00
  0.00000000E+00  0.00000000E+00  0.00000000E+00
  0.00000000E+00  0.00000000E+00  0.00000000E+00
  0.00000000E+00  0.00000000E+00  0.00000000E+00
  0.00000000E+00  0.00000000E+00  0.00000000E+00
  0.00000000E+00  0.00000000E+00  0.00000000E+00
  0.00000000E+00  0.00000000E+00  0.00000000E+00
  0.00000000E+00  0.00000000E+00  0.00000000E+00
  0.00000000E+00  0.00000000E+00  0.00000000E+00
  0.00000000E+00  0.00000000E+00  0.00000000E+00
  0.00000000E+00  0.00000000E+00  0.00000000E+00
