Ag48 C6 F2 H4                           
    1.000000000000000     
    11.7702790000000004    0.0000000000000000    0.0000000000000000
     0.0000000000000000   16.6456881000000010    0.0000000000000000
     0.0000000000000000    0.0000000000000000   15.7063741100000005
   Ag   C    F    H 
    48     6     2     4
Selective dynamics
Direct
  0.0000069276494088  0.2500097915551365  0.4044452922667645   T   T   T
  0.0000003227946550  0.4999996481449571  0.4044932448913627   T   T   T
  0.9999934962126460  0.7499905120773249  0.4044453430072608   T   T   T
  0.0000000769887478  0.9999999585713226  0.4044211185724862   T   T   T
  0.2500121819843883  0.2500018243844409  0.4044602660243157   T   T   T
  0.2500606913545340  0.4999902909415255  0.4045404195846274   T   T   T
  0.2500429135419893  0.7499661606991808  0.4045485168360230   T   T   T
  0.2499895464337811  0.0000049292316362  0.4044769168722411   T   T   T
  0.5000126758496606  0.2499939535677527  0.4044715897953424   T   T   T
  0.5000001718665175  0.4999999794974528  0.4043196051422484   T   T   T
  0.4999876858789918  0.7500058286779065  0.4044718837945993   T   T   T
  0.5000000917328293  0.0000000870486261  0.4044648347792972   T   T   T
  0.7499568997966364  0.2500339337338247  0.4045482800536320   T   T   T
  0.7499389106921157  0.5000093998292030  0.4045403946036288   T   T   T
  0.7499874910622992  0.7499981316643840  0.4044604947040256   T   T   T
  0.7500104431176666  0.9999951109265126  0.4044768460477073   T   T   T
  0.1249951639221720  0.1250111823717717  0.4905674299250506   T   T   T
  0.1249365646317173  0.3750229768630149  0.4905676919603010   T   T   T
  0.1250428736222844  0.6249865977619606  0.4905866479314440   T   T   T
  0.1250087920996563  0.8749954500894219  0.4905787234901666   T   T   T
  0.3750302262895104  0.1250319371362707  0.4905803440882508   T   T   T
  0.3748942752602957  0.3749549069931319  0.4902503018218383   T   T   T
  0.3750161808431187  0.6248268940914912  0.4907996088283326   T   T   T
  0.3750153571363839  0.8749615789632799  0.4905834513577645   T   T   T
  0.6249847251719132  0.1250383944899127  0.4905828841851232   T   T   T
  0.6249845966141407  0.3751729347496422  0.4907979015970199   T   T   T
  0.6251054753591276  0.6250443737191205  0.4902546924546840   T   T   T
  0.6249697934614460  0.8749680688031773  0.4905806585722061   T   T   T
  0.8749913692062776  0.1250044658581828  0.4905791284379077   T   T   T
  0.8749572469304283  0.3750133165054805  0.4905863145644958   T   T   T
  0.8750628792280608  0.6249769700344530  0.4905702218467169   T   T   T
  0.8750049056120233  0.8749888004365758  0.4905675130927065   T   T   T
  0.1249999995752020  0.1250000004505694  0.3183420925149463   F   F   F
  0.1249999995752020  0.3750000007509442  0.3183420925149463   F   F   F
  0.1249999995752020  0.6250000016520829  0.3183420925149463   F   F   F
  0.1249999995752020  0.8750000019524578  0.3183420925149463   F   F   F
  0.3749999987256061  0.1250000004505694  0.3183420925149463   F   F   F
  0.3749999987256061  0.3750000007509442  0.3183420925149463   F   F   F
  0.3749999987256061  0.6250000016520829  0.3183420925149463   F   F   F
  0.3749999987256061  0.8750000019524578  0.3183420925149463   F   F   F
  0.6249999978760030  0.1250000004505694  0.3183420925149463   F   F   F
  0.6249999978760030  0.3750000007509442  0.3183420925149463   F   F   F
  0.6249999978760030  0.6250000016520829  0.3183420925149463   F   F   F
  0.6249999978760030  0.8750000019524578  0.3183420925149463   F   F   F
  0.8749999970264071  0.1250000004505694  0.3183420925149463   F   F   F
  0.8749999970264071  0.3750000007509442  0.3183420925149463   F   F   F
  0.8749999970264071  0.6250000016520829  0.3183420925149463   F   F   F
  0.8749999970264071  0.8750000019524578  0.3183420925149463   F   F   F
  0.4329051681823657  0.4330829367178879  0.6817610785228965   T   T   T
  0.3809669855834699  0.5080401801679599  0.6816029341579792   T   T   T
  0.4495413925527671  0.5766023837375158  0.6810743316250054   T   T   T
  0.5671238794765756  0.5669404653494325  0.6818247801000297   T   T   T
  0.6190547572980947  0.4919817056200131  0.6816235782711573   T   T   T
  0.5504903000644532  0.4234116189846233  0.6810417279136942   T   T   T
  0.3658368928481934  0.3658865458901488  0.6817210226566104   T   T   T
  0.6341712625036067  0.6341547361173880  0.6818438485024174   T   T   T
  0.2886780615363875  0.5127349804454724  0.6813993991855725   T   T   T
  0.4126082559479372  0.6367183189282031  0.6818133839873965   T   T   T
  0.7113449976063606  0.4873119092605407  0.6814470772882828   T   T   T
  0.5874587082761948  0.3633084556274540  0.6817478288156735   T   T   T
 
  0.00000000E+00  0.00000000E+00  0.00000000E+00
  0.00000000E+00  0.00000000E+00  0.00000000E+00
  0.00000000E+00  0.00000000E+00  0.00000000E+00
  0.00000000E+00  0.00000000E+00  0.00000000E+00
  0.00000000E+00  0.00000000E+00  0.00000000E+00
  0.00000000E+00  0.00000000E+00  0.00000000E+00
  0.00000000E+00  0.00000000E+00  0.00000000E+00
  0.00000000E+00  0.00000000E+00  0.00000000E+00
  0.00000000E+00  0.00000000E+00  0.00000000E+00
  0.00000000E+00  0.00000000E+00  0.00000000E+00
  0.00000000E+00  0.00000000E+00  0.00000000E+00
  0.00000000E+00  0.00000000E+00  0.00000000E+00
  0.00000000E+00  0.00000000E+00  0.00000000E+00
  0.00000000E+00  0.00000000E+00  0.00000000E+00
  0.00000000E+00  0.00000000E+00  0.00000000E+00
  0.00000000E+00  0.00000000E+00  0.00000000E+00
  0.00000000E+00  0.00000000E+00  0.00000000E+00
  0.00000000E+00  0.00000000E+00  0.00000000E+00
  0.00000000E+00  0.00000000E+00  0.00000000E+00
  0.00000000E+00  0.00000000E+00  0.00000000E+00
  0.00000000E+00  0.00000000E+00  0.00000000E+00
  0.00000000E+00  0.00000000E+00  0.00000000E+00
  0.00000000E+00  0.00000000E+00  0.00000000E+00
  0.00000000E+00  0.00000000E+00  0.00000000E+00
  0.00000000E+00  0.00000000E+00  0.00000000E+00
  0.00000000E+00  0.00000000E+00  0.00000000E+00
  0.00000000E+00  0.00000000E+00  0.00000000E+00
  0.00000000E+00  0.00000000E+00  0.00000000E+00
  0.00000000E+00  0.00000000E+00  0.00000000E+00
  0.00000000E+00  0.00000000E+00  0.00000000E+00
  0.00000000E+00  0.00000000E+00  0.00000000E+00
  0.00000000E+00  0.00000000E+00  0.00000000E+00
  0.00000000E+00  0.00000000E+00  0.00000000E+00
  0.00000000E+00  0.00000000E+00  0.00000000E+00
  0.00000000E+00  0.00000000E+00  0.00000000E+00
  0.00000000E+00  0.00000000E+00  0.00000000E+00
  0.00000000E+00  0.00000000E+00  0.00000000E+00
  0.00000000E+00  0.00000000E+00  0.00000000E+00
  0.00000000E+00  0.00000000E+00  0.00000000E+00
  0.00000000E+00  0.00000000E+00  0.00000000E+00
  0.00000000E+00  0.00000000E+00  0.00000000E+00
  0.00000000E+00  0.00000000E+00  0.00000000E+00
  0.00000000E+00  0.00000000E+00  0.00000000E+00
  0.00000000E+00  0.00000000E+00  0.00000000E+00
  0.00000000E+00  0.00000000E+00  0.00000000E+00
  0.00000000E+00  0.00000000E+00  0.00000000E+00
  0.00000000E+00  0.00000000E+00  0.00000000E+00
  0.00000000E+00  0.00000000E+00  0.00000000E+00
  0.00000000E+00  0.00000000E+00  0.00000000E+00
  0.00000000E+00  0.00000000E+00  0.00000000E+00
  0.00000000E+00  0.00000000E+00  0.00000000E+00
  0.00000000E+00  0.00000000E+00  0.00000000E+00
  0.00000000E+00  0.00000000E+00  0.00000000E+00
  0.00000000E+00  0.00000000E+00  0.00000000E+00
  0.00000000E+00  0.00000000E+00  0.00000000E+00
  0.00000000E+00  0.00000000E+00  0.00000000E+00
  0.00000000E+00  0.00000000E+00  0.00000000E+00
  0.00000000E+00  0.00000000E+00  0.00000000E+00
  0.00000000E+00  0.00000000E+00  0.00000000E+00
  0.00000000E+00  0.00000000E+00  0.00000000E+00
