Pt48 C6 H2 Br4                          
    1.000000000000000     
    11.2480068000000006    0.0000000000000000    0.0000000000000000
     0.0000000000000000   11.2480068000000006    0.0000000000000000
     0.0000000000000000    0.0000000000000000   16.9193801700000002
   Pt   C    H    Br
    48     6     2     4
Selective dynamics
Direct
  0.2514902495440623  0.9947851632141607  0.4115863482071376   T   T   T
  0.2485839094124742  0.2485894617984670  0.4092354725401535   T   T   T
  0.2502103466367842  0.5006876369335771  0.4121933217591902   T   T   T
  0.2538252315334830  0.7461683976985469  0.4146383578352655   T   T   T
  0.5000017107875863  0.0000044429507042  0.4125588899360366   T   T   T
  0.5006882506090804  0.2502176092047463  0.4121928132279322   T   T   T
  0.5000057633745030  0.5000012746708720  0.4103240268915016   T   T   T
  0.4993130835548527  0.7497888879214827  0.4121951723093957   T   T   T
  0.7485078379795951  0.0052206555669585  0.4115914019065556   T   T   T
  0.7461679916473329  0.2538376202335968  0.4146397571501197   T   T   T
  0.7497866240847770  0.4993167546232016  0.4121958549797498   T   T   T
  0.7514137318367702  0.7514177568069300  0.4092448589195641   T   T   T
  0.9999940746868532  0.9999980167294709  0.4100181964856375   T   T   T
  0.9947812238064486  0.2515019431514034  0.4115880949541406   T   T   T
  0.9999939954148545  0.4999978609271452  0.4125637996917959   T   T   T
  0.0052085905885662  0.7485100089930867  0.4115959156240052   T   T   T
  0.1222211761316530  0.1222205781372026  0.5260338239010949   T   T   T
  0.1211579052179914  0.3693855092740677  0.5248330895816622   T   T   T
  0.1247098055286457  0.6231284131869685  0.5363057346617097   T   T   T
  0.1252334375784372  0.8747611317158288  0.5266267248544736   T   T   T
  0.3693814185548021  0.1211747054113133  0.5248345449954783   T   T   T
  0.3627695011238643  0.3627651600623736  0.5293912137885641   T   T   T
  0.3815275257478277  0.6184590730231889  0.5324530246186114   T   T   T
  0.3768581179864583  0.8752901516449327  0.5363130863784917   T   T   T
  0.6231246483495099  0.1247301641118597  0.5363238903192880   T   T   T
  0.6184591095609093  0.3815450396550872  0.5324611499272294   T   T   T
  0.6372294989213145  0.6372302213419445  0.5293849106366508   T   T   T
  0.6306093420130381  0.8788462100123198  0.5248510142383083   T   T   T
  0.8747604063833094  0.1252500482690380  0.5266455716815130   T   T   T
  0.8752807100808155  0.3768808425261838  0.5363137714113577   T   T   T
  0.8788359293991874  0.6306172314646474  0.5248357802359891   T   T   T
  0.8777783728616555  0.8777865566447147  0.5260448092335821   T   T   T
  0.1250000008890453  0.1250000000000000  0.2955190999765804   F   F   F
  0.1250000008890453  0.3750000008890453  0.2955190999765804   F   F   F
  0.1250000008890453  0.6250000026671358  0.2955190999765804   F   F   F
  0.1250000008890453  0.8750000026671358  0.2955190999765804   F   F   F
  0.3750000017780906  0.1250000000000000  0.2955190999765804   F   F   F
  0.3750000017780906  0.3750000008890453  0.2955190999765804   F   F   F
  0.3750000017780906  0.6250000026671358  0.2955190999765804   F   F   F
  0.3750000017780906  0.8750000026671358  0.2955190999765804   F   F   F
  0.6250000026671358  0.1250000000000000  0.2955190999765804   F   F   F
  0.6250000026671358  0.3750000008890453  0.2955190999765804   F   F   F
  0.6250000026671358  0.6250000026671358  0.2955190999765804   F   F   F
  0.6250000026671358  0.8750000026671358  0.2955190999765804   F   F   F
  0.8750000035561882  0.1250000000000000  0.2955190999765804   F   F   F
  0.8750000026671358  0.3750000008890453  0.2955190999765804   F   F   F
  0.8750000035561882  0.6250000026671358  0.2955190999765804   F   F   F
  0.8750000035561882  0.8750000026671358  0.2955190999765804   F   F   F
  0.4056041071618068  0.4056020584556990  0.6453677240742479   T   T   T
  0.3738364075844558  0.5348801501961873  0.6441727005756022   T   T   T
  0.4651330424959781  0.6261504653114969  0.6441670337231784   T   T   T
  0.5943667069141654  0.5944137717575870  0.6453640065726773   T   T   T
  0.6261605934699261  0.4651438398983672  0.6441765617002631   T   T   T
  0.5348532849983485  0.3738446859915285  0.6441782663376969   T   T   T
  0.3518900620284882  0.3518913716628802  0.6858221666078990   T   T   T
  0.6480952710518650  0.6481184689198969  0.6858152174668248   T   T   T
  0.2100610844456412  0.5680584565405411  0.6812436755888953   T   T   T
  0.4319102186650454  0.7899290706975748  0.6812357286741815   T   T   T
  0.7899342127357727  0.4319422907398902  0.6812462568016500   T   T   T
  0.5680669775117764  0.2100703553463177  0.6812578505843945   T   T   T
 
  0.00000000E+00  0.00000000E+00  0.00000000E+00
  0.00000000E+00  0.00000000E+00  0.00000000E+00
  0.00000000E+00  0.00000000E+00  0.00000000E+00
  0.00000000E+00  0.00000000E+00  0.00000000E+00
  0.00000000E+00  0.00000000E+00  0.00000000E+00
  0.00000000E+00  0.00000000E+00  0.00000000E+00
  0.00000000E+00  0.00000000E+00  0.00000000E+00
  0.00000000E+00  0.00000000E+00  0.00000000E+00
  0.00000000E+00  0.00000000E+00  0.00000000E+00
  0.00000000E+00  0.00000000E+00  0.00000000E+00
  0.00000000E+00  0.00000000E+00  0.00000000E+00
  0.00000000E+00  0.00000000E+00  0.00000000E+00
  0.00000000E+00  0.00000000E+00  0.00000000E+00
  0.00000000E+00  0.00000000E+00  0.00000000E+00
  0.00000000E+00  0.00000000E+00  0.00000000E+00
  0.00000000E+00  0.00000000E+00  0.00000000E+00
  0.00000000E+00  0.00000000E+00  0.00000000E+00
  0.00000000E+00  0.00000000E+00  0.00000000E+00
  0.00000000E+00  0.00000000E+00  0.00000000E+00
  0.00000000E+00  0.00000000E+00  0.00000000E+00
  0.00000000E+00  0.00000000E+00  0.00000000E+00
  0.00000000E+00  0.00000000E+00  0.00000000E+00
  0.00000000E+00  0.00000000E+00  0.00000000E+00
  0.00000000E+00  0.00000000E+00  0.00000000E+00
  0.00000000E+00  0.00000000E+00  0.00000000E+00
  0.00000000E+00  0.00000000E+00  0.00000000E+00
  0.00000000E+00  0.00000000E+00  0.00000000E+00
  0.00000000E+00  0.00000000E+00  0.00000000E+00
  0.00000000E+00  0.00000000E+00  0.00000000E+00
  0.00000000E+00  0.00000000E+00  0.00000000E+00
  0.00000000E+00  0.00000000E+00  0.00000000E+00
  0.00000000E+00  0.00000000E+00  0.00000000E+00
  0.00000000E+00  0.00000000E+00  0.00000000E+00
  0.00000000E+00  0.00000000E+00  0.00000000E+00
  0.00000000E+00  0.00000000E+00  0.00000000E+00
  0.00000000E+00  0.00000000E+00  0.00000000E+00
  0.00000000E+00  0.00000000E+00  0.00000000E+00
  0.00000000E+00  0.00000000E+00  0.00000000E+00
  0.00000000E+00  0.00000000E+00  0.00000000E+00
  0.00000000E+00  0.00000000E+00  0.00000000E+00
  0.00000000E+00  0.00000000E+00  0.00000000E+00
  0.00000000E+00  0.00000000E+00  0.00000000E+00
  0.00000000E+00  0.00000000E+00  0.00000000E+00
  0.00000000E+00  0.00000000E+00  0.00000000E+00
  0.00000000E+00  0.00000000E+00  0.00000000E+00
  0.00000000E+00  0.00000000E+00  0.00000000E+00
  0.00000000E+00  0.00000000E+00  0.00000000E+00
  0.00000000E+00  0.00000000E+00  0.00000000E+00
  0.00000000E+00  0.00000000E+00  0.00000000E+00
  0.00000000E+00  0.00000000E+00  0.00000000E+00
  0.00000000E+00  0.00000000E+00  0.00000000E+00
  0.00000000E+00  0.00000000E+00  0.00000000E+00
  0.00000000E+00  0.00000000E+00  0.00000000E+00
  0.00000000E+00  0.00000000E+00  0.00000000E+00
  0.00000000E+00  0.00000000E+00  0.00000000E+00
  0.00000000E+00  0.00000000E+00  0.00000000E+00
  0.00000000E+00  0.00000000E+00  0.00000000E+00
  0.00000000E+00  0.00000000E+00  0.00000000E+00
  0.00000000E+00  0.00000000E+00  0.00000000E+00
  0.00000000E+00  0.00000000E+00  0.00000000E+00
