Cu  C  N Br                             
    1.000000000000000     
    10.2424774999999997    0.0000000000000000    0.0000000000000000
     0.0000000000000000   10.2424774999999997    0.0000000000000000
     0.0000000000000000    0.0000000000000000   23.4318939600000000
   Cu   C    N    Br
    64     4     2     4
Selective dynamics
Direct
  0.2499999995118358  0.0000000000000000  0.3200765594451340   F   F   F
  0.0000000000000000  0.4999999990236716  0.3200765594451340   F   F   F
  0.2499999995118358  0.2499999995118358  0.3200765594451340   F   F   F
  0.2499999995118358  0.4999999990236716  0.3200765594451340   F   F   F
  0.2499999995118358  0.7499999985355075  0.3200765594451340   F   F   F
  0.4999999990236716  0.0000000000000000  0.3200765594451340   F   F   F
  0.4999999990236716  0.2499999995118358  0.3200765594451340   F   F   F
  0.0000000000000000  0.7499999985355075  0.3200765594451340   F   F   F
  0.4999999990236716  0.4999999990236716  0.3200765594451340   F   F   F
  0.4999999990236716  0.7499999985355075  0.3200765594451340   F   F   F
  0.7499999985355075  0.0000000000000000  0.3200765594451340   F   F   F
  0.7499999985355075  0.2499999995118358  0.3200765594451340   F   F   F
  0.7499999985355075  0.4999999990236716  0.3200765594451340   F   F   F
  0.7499999985355075  0.7499999985355075  0.3200765594451340   F   F   F
  0.0000000000000000  0.0000000000000000  0.3200765594451340   F   F   F
  0.0000000000000000  0.2499999995118358  0.3200765594451340   F   F   F
  0.2500136712461924  0.9985777135283536  0.4741463573388657   T   T   T
  0.2492948125503252  0.2492970193170075  0.4736659489988483   T   T   T
  0.2506789300817299  0.4995843863031899  0.4744243157151601   T   T   T
  0.2513468658739038  0.7486570311354857  0.4748714302796370   T   T   T
  0.4999974881361413  0.0000002658943136  0.4741434548219801   T   T   T
  0.4995741073204103  0.2506762030902868  0.4744231514059217   T   T   T
  0.4999965095320217  0.5000001691551835  0.4750321078904415   T   T   T
  0.5004163574883249  0.7493241191616592  0.4744240330082214   T   T   T
  0.7499783439934919  0.0014182831971562  0.4741478044039186   T   T   T
  0.7486496324166645  0.2513429238232215  0.4748727147434998   T   T   T
  0.7493174912111581  0.5004171588515186  0.4744230819730860   T   T   T
  0.7506959579365441  0.7507027501809419  0.4736676054155733   T   T   T
 -0.0000040939745415 -0.0000029290146960  0.4739680611790560   T   T   T
  0.9985799750790124  0.2500145060637189  0.4741477159815318   T   T   T
 -0.0000007956313802  0.4999942690049756  0.4741431883647536   T   T   T
  0.0014128644953594  0.7499832153145881  0.4741469877263370   T   T   T
  0.1247629474463413  0.1247645686658160  0.5491716457213558   T   T   T
  0.1217215250429718  0.3740121870139412  0.5490022934873307   T   T   T
  0.1250991173504968  0.6247454394663207  0.5505738722194097   T   T   T
  0.1248229284306685  0.8751686771603311  0.5495929576971625   T   T   T
  0.3740066700385195  0.1217190329510495  0.5490029266936252   T   T   T
  0.3680430201591956  0.3680579530854817  0.5499339511017031   T   T   T
  0.3753505873517778  0.6246885375257389  0.5505812414490056   T   T   T
  0.3752536843745068  0.8749040201906118  0.5505784179534386   T   T   T
  0.6247331098834084  0.1251027364672533  0.5505831148468953   T   T   T
  0.6246566897932829  0.3753271574136547  0.5505787394950858   T   T   T
  0.6319469167698801  0.6319458135519324  0.5499281450871267   T   T   T
  0.6259810617546779  0.8782780713909122  0.5490033837298098   T   T   T
  0.8751628939191081  0.1248215442452311  0.5495910165620965   T   T   T
  0.8749002678512527  0.3752470508192894  0.5505750432271201   T   T   T
  0.8782772101525559  0.6259883926867346  0.5490020033383209   T   T   T
  0.8752254401181957  0.8752269093561591  0.5491725568626971   T   T   T
  0.1250000002440785  0.1249999992677573  0.3973486452223582   F   F   F
  0.1250000002440785  0.3749999997559215  0.3973486452223582   F   F   F
  0.1250000002440785  0.6249999982914289  0.3973486452223582   F   F   F
  0.1250000002440785  0.8749999987795931  0.3973486452223582   F   F   F
  0.3749999997559215  0.1249999992677573  0.3973486452223582   F   F   F
  0.3749999997559215  0.3749999997559215  0.3973486452223582   F   F   F
  0.3749999997559215  0.6249999982914289  0.3973486452223582   F   F   F
  0.3749999997559215  0.8749999987795931  0.3973486452223582   F   F   F
  0.6249999982914289  0.1249999992677573  0.3973486452223582   F   F   F
  0.6249999982914289  0.3749999997559215  0.3973486452223582   F   F   F
  0.6249999992677573  0.6249999982914289  0.3973486452223582   F   F   F
  0.6249999992677573  0.8749999987795931  0.3973486452223582   F   F   F
  0.8749999987795931  0.1249999992677573  0.3973486452223582   F   F   F
  0.8749999978032648  0.3749999997559215  0.3973486452223582   F   F   F
  0.8749999987795931  0.6249999982914289  0.3973486452223582   F   F   F
  0.8749999987795931  0.8749999987795931  0.3973486452223582   F   F   F
  0.5320382318063831  0.3723688153312052  0.6430940977089524   T   T   T
  0.6276051306400664  0.4679670537272805  0.6431250351144676   T   T   T
  0.4680934669854215  0.6276556778789142  0.6431153372431031   T   T   T
  0.3724796592649499  0.5319626517473467  0.6431281447811177   T   T   T
  0.5963719345027079  0.5962642336159999  0.6317914684250231   T   T   T
  0.4037120539346844  0.4037253794804035  0.6317817234361978   T   T   T
  0.1932270196133921  0.5637489538733276  0.6661116633935934   T   T   T
  0.4363605959295251  0.8069070355532812  0.6661212941586470   T   T   T
  0.5635336497343871  0.1931426532496391  0.6660839020499909   T   T   T
  0.8069672128962775  0.4361927706882175  0.6660777983729648   T   T   T
 
  0.00000000E+00  0.00000000E+00  0.00000000E+00
  0.00000000E+00  0.00000000E+00  0.00000000E+00
  0.00000000E+00  0.00000000E+00  0.00000000E+00
  0.00000000E+00  0.00000000E+00  0.00000000E+00
  0.00000000E+00  0.00000000E+00  0.00000000E+00
  0.00000000E+00  0.00000000E+00  0.00000000E+00
  0.00000000E+00  0.00000000E+00  0.00000000E+00
  0.00000000E+00  0.00000000E+00  0.00000000E+00
  0.00000000E+00  0.00000000E+00  0.00000000E+00
  0.00000000E+00  0.00000000E+00  0.00000000E+00
  0.00000000E+00  0.00000000E+00  0.00000000E+00
  0.00000000E+00  0.00000000E+00  0.00000000E+00
  0.00000000E+00  0.00000000E+00  0.00000000E+00
  0.00000000E+00  0.00000000E+00  0.00000000E+00
  0.00000000E+00  0.00000000E+00  0.00000000E+00
  0.00000000E+00  0.00000000E+00  0.00000000E+00
  0.00000000E+00  0.00000000E+00  0.00000000E+00
  0.00000000E+00  0.00000000E+00  0.00000000E+00
  0.00000000E+00  0.00000000E+00  0.00000000E+00
  0.00000000E+00  0.00000000E+00  0.00000000E+00
  0.00000000E+00  0.00000000E+00  0.00000000E+00
  0.00000000E+00  0.00000000E+00  0.00000000E+00
  0.00000000E+00  0.00000000E+00  0.00000000E+00
  0.00000000E+00  0.00000000E+00  0.00000000E+00
  0.00000000E+00  0.00000000E+00  0.00000000E+00
  0.00000000E+00  0.00000000E+00  0.00000000E+00
  0.00000000E+00  0.00000000E+00  0.00000000E+00
  0.00000000E+00  0.00000000E+00  0.00000000E+00
  0.00000000E+00  0.00000000E+00  0.00000000E+00
  0.00000000E+00  0.00000000E+00  0.00000000E+00
  0.00000000E+00  0.00000000E+00  0.00000000E+00
  0.00000000E+00  0.00000000E+00  0.00000000E+00
  0.00000000E+00  0.00000000E+00  0.00000000E+00
  0.00000000E+00  0.00000000E+00  0.00000000E+00
  0.00000000E+00  0.00000000E+00  0.00000000E+00
  0.00000000E+00  0.00000000E+00  0.00000000E+00
  0.00000000E+00  0.00000000E+00  0.00000000E+00
  0.00000000E+00  0.00000000E+00  0.00000000E+00
  0.00000000E+00  0.00000000E+00  0.00000000E+00
  0.00000000E+00  0.00000000E+00  0.00000000E+00
  0.00000000E+00  0.00000000E+00  0.00000000E+00
  0.00000000E+00  0.00000000E+00  0.00000000E+00
  0.00000000E+00  0.00000000E+00  0.00000000E+00
  0.00000000E+00  0.00000000E+00  0.00000000E+00
  0.00000000E+00  0.00000000E+00  0.00000000E+00
  0.00000000E+00  0.00000000E+00  0.00000000E+00
  0.00000000E+00  0.00000000E+00  0.00000000E+00
  0.00000000E+00  0.00000000E+00  0.00000000E+00
  0.00000000E+00  0.00000000E+00  0.00000000E+00
  0.00000000E+00  0.00000000E+00  0.00000000E+00
  0.00000000E+00  0.00000000E+00  0.00000000E+00
  0.00000000E+00  0.00000000E+00  0.00000000E+00
  0.00000000E+00  0.00000000E+00  0.00000000E+00
  0.00000000E+00  0.00000000E+00  0.00000000E+00
  0.00000000E+00  0.00000000E+00  0.00000000E+00
  0.00000000E+00  0.00000000E+00  0.00000000E+00
  0.00000000E+00  0.00000000E+00  0.00000000E+00
  0.00000000E+00  0.00000000E+00  0.00000000E+00
  0.00000000E+00  0.00000000E+00  0.00000000E+00
  0.00000000E+00  0.00000000E+00  0.00000000E+00
  0.00000000E+00  0.00000000E+00  0.00000000E+00
  0.00000000E+00  0.00000000E+00  0.00000000E+00
  0.00000000E+00  0.00000000E+00  0.00000000E+00
  0.00000000E+00  0.00000000E+00  0.00000000E+00
  0.00000000E+00  0.00000000E+00  0.00000000E+00
  0.00000000E+00  0.00000000E+00  0.00000000E+00
  0.00000000E+00  0.00000000E+00  0.00000000E+00
  0.00000000E+00  0.00000000E+00  0.00000000E+00
  0.00000000E+00  0.00000000E+00  0.00000000E+00
  0.00000000E+00  0.00000000E+00  0.00000000E+00
  0.00000000E+00  0.00000000E+00  0.00000000E+00
  0.00000000E+00  0.00000000E+00  0.00000000E+00
  0.00000000E+00  0.00000000E+00  0.00000000E+00
  0.00000000E+00  0.00000000E+00  0.00000000E+00
