Pt  C  N  F                             
    1.000000000000000     
    11.2480068000000006    0.0000000000000000    0.0000000000000000
     0.0000000000000000   15.9070838000000006    0.0000000000000000
     0.0000000000000000    0.0000000000000000   22.2180025631249976
   Pt   C    N    F 
    64     4     2     4
Selective dynamics
Direct
  0.2500000008890453  0.2500000006286527  0.3375640982438100   F   F   F
  0.2500000008890453  0.5000000006286527  0.3375640982438100   F   F   F
  0.2500000008890453  0.7500000012572983  0.3375640982438100   F   F   F
  0.2500000008890453  0.0000000000000000  0.3375640982438100   F   F   F
  0.5000000017780906  0.5000000006286527  0.3375640982438100   F   F   F
  0.0000000035561882  0.0000000000000000  0.3375640982438100   F   F   F
  0.5000000017780906  0.7500000012572983  0.3375640982438100   F   F   F
  0.5000000017780906  0.0000000000000000  0.3375640982438100   F   F   F
  0.7500000026671358  0.0000000000000000  0.3375640982438100   F   F   F
  0.0000000035561882  0.7500000012572983  0.3375640982438100   F   F   F
  0.5000000017780906  0.2500000006286527  0.3375640982438100   F   F   F
  0.7500000026671358  0.2500000006286527  0.3375640982438100   F   F   F
  0.7500000026671358  0.5000000006286527  0.3375640982438100   F   F   F
  0.7500000026671358  0.7500000012572983  0.3375640982438100   F   F   F
  0.0000000035561882  0.2500000006286527  0.3375640982438100   F   F   F
  0.0000000035561882  0.5000000006286527  0.3375640982438100   F   F   F
  0.2480539613873280  0.2493119130221937  0.4676082443061038   T   T   T
  0.2488491427093254  0.4999712820253815  0.4673775698566970   T   T   T
  0.2518184422410603  0.7482078865751532  0.4686704775095832   T   T   T
  0.2499244348407592  0.0000676666814545  0.4679935943696017   T   T   T
  0.5000907818711007  0.2482619743363497  0.4670200424133332   T   T   T
  0.4999975074612376  0.5000094443301483  0.4643240287023168   T   T   T
  0.4999038819797311  0.7517321401698118  0.4670236466159414   T   T   T
  0.5000040856728789  0.0000018317461185  0.4678866986863315   T   T   T
  0.7481979977850991  0.2517872591582063  0.4686728408608656   T   T   T
  0.7511403262655715  0.5000374495546893  0.4673764853330466   T   T   T
  0.7519554566003955  0.7506779415142354  0.4676094618818588   T   T   T
  0.7500961303393285  0.9999488970959710  0.4680050424583767   T   T   T
  0.9979765914318511  0.2499411832482117  0.4676458508691192   T   T   T
 -0.0000023386471374  0.4999942141847055  0.4682923211513318   T   T   T
  0.0020249839618643  0.7500453397210592  0.4676418015874680   T   T   T
  0.0000039719755086  0.0000098937194080  0.4681376801552144   T   T   T
  0.1239419358959745  0.1253184563225954  0.5256640191648000   T   T   T
  0.1218732229685783  0.3742804377441770  0.5256930232833742   T   T   T
  0.1276604053807602  0.6248582433146892  0.5261250109814627   T   T   T
  0.1268578016926240  0.8744319261350798  0.5255281676711137   T   T   T
  0.3745776254985206  0.1249596603019960  0.5259790203493577   T   T   T
  0.3697739631784204  0.3706553027418561  0.5260112236514971   T   T   T
  0.3822579613045696  0.6216002192897020  0.5280021412653612   T   T   T
  0.3754079006401463  0.8750831510624456  0.5260765835096515   T   T   T
  0.6245933816697986  0.1249261478296266  0.5260674260672284   T   T   T
  0.6177432416776895  0.3783992725731407  0.5279901835603865   T   T   T
  0.6302366383841802  0.6293512982878776  0.5260212100164776   T   T   T
  0.6254191232515937  0.8750386300325299  0.5259853530742675   T   T   T
  0.8731705853398396  0.1255739591874638  0.5255444001040580   T   T   T
  0.8723529240550314  0.3751406239165673  0.5261273219534635   T   T   T
  0.8781375379160886  0.6257161316362432  0.5257011282146631   T   T   T
  0.8760647270641174  0.8746804248770569  0.5256644456182101   T   T   T
  0.1250000000000000  0.1250000003143228  0.4008461529820977   F   F   F
  0.1250000000000000  0.3750000003143228  0.4008461529820977   F   F   F
  0.1250000008890453  0.6250000009429755  0.4008461529820977   F   F   F
  0.1250000008890453  0.8750000009429755  0.4008461529820977   F   F   F
  0.3750000008890453  0.1250000003143228  0.4008461529820977   F   F   F
  0.3750000008890453  0.3750000003143228  0.4008461529820977   F   F   F
  0.3750000008890453  0.6250000009429755  0.4008461529820977   F   F   F
  0.3750000008890453  0.8750000009429755  0.4008461529820977   F   F   F
  0.6250000017780906  0.1250000003143228  0.4008461529820977   F   F   F
  0.6250000017780906  0.3750000003143228  0.4008461529820977   F   F   F
  0.6250000017780906  0.6250000009429755  0.4008461529820977   F   F   F
  0.6250000026671358  0.8750000009429755  0.4008461529820977   F   F   F
  0.8750000026671358  0.1250000003143228  0.4008461529820977   F   F   F
  0.8750000026671358  0.3750000003143228  0.4008461529820977   F   F   F
  0.8750000035561882  0.6250000009429755  0.4008461529820977   F   F   F
  0.8750000026671358  0.8750000009429755  0.4008461529820977   F   F   F
  0.4475485149930708  0.5822217676775725  0.6103724527017387   T   T   T
  0.3810476880432934  0.5034655259422172  0.6158285850101017   T   T   T
  0.5524123064290937  0.4177843258554385  0.6103647120857517   T   T   T
  0.6189177345918533  0.4965547983373866  0.6158412462812052   T   T   T
  0.4256773351778477  0.4285753535245886  0.6057677084766515   T   T   T
  0.5743166544038015  0.5714041760957032  0.6057807102335819   T   T   T
  0.7348863981869775  0.4915874383390041  0.6290003629508537   T   T   T
  0.5772658176265519  0.3592412173643969  0.6550812417719111   T   T   T
  0.4226913114703292  0.6407356080942203  0.6550923197655657   T   T   T
  0.2650710097965151  0.5084089728161492  0.6290029999980971   T   T   T
 
  0.00000000E+00  0.00000000E+00  0.00000000E+00
  0.00000000E+00  0.00000000E+00  0.00000000E+00
  0.00000000E+00  0.00000000E+00  0.00000000E+00
  0.00000000E+00  0.00000000E+00  0.00000000E+00
  0.00000000E+00  0.00000000E+00  0.00000000E+00
  0.00000000E+00  0.00000000E+00  0.00000000E+00
  0.00000000E+00  0.00000000E+00  0.00000000E+00
  0.00000000E+00  0.00000000E+00  0.00000000E+00
  0.00000000E+00  0.00000000E+00  0.00000000E+00
  0.00000000E+00  0.00000000E+00  0.00000000E+00
  0.00000000E+00  0.00000000E+00  0.00000000E+00
  0.00000000E+00  0.00000000E+00  0.00000000E+00
  0.00000000E+00  0.00000000E+00  0.00000000E+00
  0.00000000E+00  0.00000000E+00  0.00000000E+00
  0.00000000E+00  0.00000000E+00  0.00000000E+00
  0.00000000E+00  0.00000000E+00  0.00000000E+00
  0.00000000E+00  0.00000000E+00  0.00000000E+00
  0.00000000E+00  0.00000000E+00  0.00000000E+00
  0.00000000E+00  0.00000000E+00  0.00000000E+00
  0.00000000E+00  0.00000000E+00  0.00000000E+00
  0.00000000E+00  0.00000000E+00  0.00000000E+00
  0.00000000E+00  0.00000000E+00  0.00000000E+00
  0.00000000E+00  0.00000000E+00  0.00000000E+00
  0.00000000E+00  0.00000000E+00  0.00000000E+00
  0.00000000E+00  0.00000000E+00  0.00000000E+00
  0.00000000E+00  0.00000000E+00  0.00000000E+00
  0.00000000E+00  0.00000000E+00  0.00000000E+00
  0.00000000E+00  0.00000000E+00  0.00000000E+00
  0.00000000E+00  0.00000000E+00  0.00000000E+00
  0.00000000E+00  0.00000000E+00  0.00000000E+00
  0.00000000E+00  0.00000000E+00  0.00000000E+00
  0.00000000E+00  0.00000000E+00  0.00000000E+00
  0.00000000E+00  0.00000000E+00  0.00000000E+00
  0.00000000E+00  0.00000000E+00  0.00000000E+00
  0.00000000E+00  0.00000000E+00  0.00000000E+00
  0.00000000E+00  0.00000000E+00  0.00000000E+00
  0.00000000E+00  0.00000000E+00  0.00000000E+00
  0.00000000E+00  0.00000000E+00  0.00000000E+00
  0.00000000E+00  0.00000000E+00  0.00000000E+00
  0.00000000E+00  0.00000000E+00  0.00000000E+00
  0.00000000E+00  0.00000000E+00  0.00000000E+00
  0.00000000E+00  0.00000000E+00  0.00000000E+00
  0.00000000E+00  0.00000000E+00  0.00000000E+00
  0.00000000E+00  0.00000000E+00  0.00000000E+00
  0.00000000E+00  0.00000000E+00  0.00000000E+00
  0.00000000E+00  0.00000000E+00  0.00000000E+00
  0.00000000E+00  0.00000000E+00  0.00000000E+00
  0.00000000E+00  0.00000000E+00  0.00000000E+00
  0.00000000E+00  0.00000000E+00  0.00000000E+00
  0.00000000E+00  0.00000000E+00  0.00000000E+00
  0.00000000E+00  0.00000000E+00  0.00000000E+00
  0.00000000E+00  0.00000000E+00  0.00000000E+00
  0.00000000E+00  0.00000000E+00  0.00000000E+00
  0.00000000E+00  0.00000000E+00  0.00000000E+00
  0.00000000E+00  0.00000000E+00  0.00000000E+00
  0.00000000E+00  0.00000000E+00  0.00000000E+00
  0.00000000E+00  0.00000000E+00  0.00000000E+00
  0.00000000E+00  0.00000000E+00  0.00000000E+00
  0.00000000E+00  0.00000000E+00  0.00000000E+00
  0.00000000E+00  0.00000000E+00  0.00000000E+00
  0.00000000E+00  0.00000000E+00  0.00000000E+00
  0.00000000E+00  0.00000000E+00  0.00000000E+00
  0.00000000E+00  0.00000000E+00  0.00000000E+00
  0.00000000E+00  0.00000000E+00  0.00000000E+00
  0.00000000E+00  0.00000000E+00  0.00000000E+00
  0.00000000E+00  0.00000000E+00  0.00000000E+00
  0.00000000E+00  0.00000000E+00  0.00000000E+00
  0.00000000E+00  0.00000000E+00  0.00000000E+00
  0.00000000E+00  0.00000000E+00  0.00000000E+00
  0.00000000E+00  0.00000000E+00  0.00000000E+00
  0.00000000E+00  0.00000000E+00  0.00000000E+00
  0.00000000E+00  0.00000000E+00  0.00000000E+00
  0.00000000E+00  0.00000000E+00  0.00000000E+00
  0.00000000E+00  0.00000000E+00  0.00000000E+00
