H4 Rh48 C6 Cl2                          
    1.000000000000000     
    10.8721879999999995    0.0000000000000000    0.0000000000000000
    -5.4360939999999998    9.4155909999999992    0.0000000000000000
     0.0000000000000000    0.0000000000000000   16.4403460000000017
   H    Rh   C    Cl
     4    48     6     2
Selective dynamics
Direct
  0.5068095290315000  0.6365125879870206  0.7708327071456225   T   T   T
  0.6380070323172831  0.5056836311701147  0.7701399324530556   T   T   T
  0.2442095606035082  0.1118476060725229  0.7700960385530635   T   T   T
  0.1133474466513462  0.2430203704142784  0.7707940477551887   T   T   T
  0.0833330000000032  0.1666669999999968  0.3649559999999994   F   F   F
  0.0833330000000032  0.4166669999999968  0.3649559999999994   F   F   F
  0.0833330000000032  0.6666669999999968  0.3649559999999994   F   F   F
  0.0833330000000032  0.9166669999999968  0.3649559999999994   F   F   F
  0.3333330000000032  0.1666669999999968  0.3649559999999994   F   F   F
  0.3333330000000032  0.4166669999999968  0.3649559999999994   F   F   F
  0.3333330000000032  0.6666669999999968  0.3649559999999994   F   F   F
  0.3333330000000032  0.9166669999999968  0.3649559999999994   F   F   F
  0.5833330000000032  0.1666669999999968  0.3649559999999994   F   F   F
  0.5833330000000032  0.4166669999999968  0.3649559999999994   F   F   F
  0.5833330000000032  0.6666669999999968  0.3649559999999994   F   F   F
  0.5833330000000032  0.9166669999999968  0.3649559999999994   F   F   F
  0.8333330000000032  0.1666669999999968  0.3649559999999994   F   F   F
  0.8333330000000032  0.4166669999999968  0.3649559999999994   F   F   F
  0.8333330000000032  0.6666669999999968  0.3649559999999994   F   F   F
  0.8333330000000032  0.9166669999999968  0.3649559999999994   F   F   F
  0.9970766891569909  0.9965282900307812  0.6192948212552096   T   T   T
  0.9958045630467467  0.2486584042979487  0.6197128228299107   T   T   T
  0.0002154041324189  0.4995431622381616  0.6204065197140380   T   T   T
  0.0008593542484761  0.7491250708125676  0.6197603762344315   T   T   T
  0.2473214941358179  0.9952352196494019  0.6196423855586630   T   T   T
  0.2427194365755341  0.2424212587907135  0.6249593095747770   T   T   T
  0.2519607770003773  0.4980529717422897  0.6248294443229341   T   T   T
  0.2504592997520021  0.7497818414093942  0.6203984436408803   T   T   T
  0.4999293146951302  0.0005525636820281  0.6202853855777306   T   T   T
  0.4983138608143420  0.2517178703450540  0.6250573001529389   T   T   T
  0.5075955912644119  0.5072977996059080  0.6249824180075336   T   T   T
  0.5013553073534780  0.7542127948712363  0.6197053547637665   T   T   T
  0.7499248359995505  0.0000847994628757  0.6195066657359192   T   T   T
  0.7494560097297907  0.2500763314226759  0.6202872167148925   T   T   T
  0.7547677518731675  0.5026662690673902  0.6196552939049909   T   T   T
  0.7535019219830090  0.7529599930371020  0.6192908774885240   T   T   T
  0.1676758987076425  0.0853644079662033  0.4925691935887357   T   T   T
  0.1683483915628656  0.3339011515449286  0.4932857982835372   T   T   T
  0.1685602827807386  0.5814139194615393  0.4938038014542414   T   T   T
  0.1677169635264022  0.8330610620424750  0.4921796542052306   T   T   T
  0.4174536407957561  0.0861991364688564  0.4935417599316025   T   T   T
  0.4156765133856055  0.3343270409637356  0.4941300344861830   T   T   T
  0.4160930260739590  0.5816342511060739  0.4932909754004342   T   T   T
  0.4168138531069729  0.8336876738706707  0.4925139218692962   T   T   T
  0.6662532556596119  0.0837598647671385  0.4925938858781720   T   T   T
  0.6638278847299119  0.3325670145807891  0.4935445485266570   T   T   T
  0.6646523451711275  0.5823286803693932  0.4925788405282603   T   T   T
  0.6662039029553881  0.8329033920046172  0.4922386471119111   T   T   T
  0.9171060786411331  0.0838142569640681  0.4922387850684089   T   T   T
  0.9163124093348145  0.3331830757031966  0.4925183531701762   T   T   T
  0.9169340836113236  0.5822740599528018  0.4921836831789435   T   T   T
  0.9172454734928408  0.8327665609325905  0.4918292925450132   T   T   T
  0.2954545308184748  0.4544025960407083  0.7461572231860814   T   T   T
  0.4517228457955369  0.5265236978145609  0.7492246390116080   T   T   T
  0.5277573352145524  0.4503022239233161  0.7488257125184106   T   T   T
  0.4559327042530512  0.2939631397216687  0.7460864979405812   T   T   T
  0.2995924275960533  0.2221219801993755  0.7487975800305335   T   T   T
  0.2233340793127994  0.2981219523389953  0.7492026782484871   T   T   T
  0.2199549411502559  0.5299056817807255  0.8120462717682955   T   T   T
  0.5305554327636912  0.2193702395354293  0.8131862004314527   T   T   T
 
  0.00000000E+00  0.00000000E+00  0.00000000E+00
  0.00000000E+00  0.00000000E+00  0.00000000E+00
  0.00000000E+00  0.00000000E+00  0.00000000E+00
  0.00000000E+00  0.00000000E+00  0.00000000E+00
  0.00000000E+00  0.00000000E+00  0.00000000E+00
  0.00000000E+00  0.00000000E+00  0.00000000E+00
  0.00000000E+00  0.00000000E+00  0.00000000E+00
  0.00000000E+00  0.00000000E+00  0.00000000E+00
  0.00000000E+00  0.00000000E+00  0.00000000E+00
  0.00000000E+00  0.00000000E+00  0.00000000E+00
  0.00000000E+00  0.00000000E+00  0.00000000E+00
  0.00000000E+00  0.00000000E+00  0.00000000E+00
  0.00000000E+00  0.00000000E+00  0.00000000E+00
  0.00000000E+00  0.00000000E+00  0.00000000E+00
  0.00000000E+00  0.00000000E+00  0.00000000E+00
  0.00000000E+00  0.00000000E+00  0.00000000E+00
  0.00000000E+00  0.00000000E+00  0.00000000E+00
  0.00000000E+00  0.00000000E+00  0.00000000E+00
  0.00000000E+00  0.00000000E+00  0.00000000E+00
  0.00000000E+00  0.00000000E+00  0.00000000E+00
  0.00000000E+00  0.00000000E+00  0.00000000E+00
  0.00000000E+00  0.00000000E+00  0.00000000E+00
  0.00000000E+00  0.00000000E+00  0.00000000E+00
  0.00000000E+00  0.00000000E+00  0.00000000E+00
  0.00000000E+00  0.00000000E+00  0.00000000E+00
  0.00000000E+00  0.00000000E+00  0.00000000E+00
  0.00000000E+00  0.00000000E+00  0.00000000E+00
  0.00000000E+00  0.00000000E+00  0.00000000E+00
  0.00000000E+00  0.00000000E+00  0.00000000E+00
  0.00000000E+00  0.00000000E+00  0.00000000E+00
  0.00000000E+00  0.00000000E+00  0.00000000E+00
  0.00000000E+00  0.00000000E+00  0.00000000E+00
  0.00000000E+00  0.00000000E+00  0.00000000E+00
  0.00000000E+00  0.00000000E+00  0.00000000E+00
  0.00000000E+00  0.00000000E+00  0.00000000E+00
  0.00000000E+00  0.00000000E+00  0.00000000E+00
  0.00000000E+00  0.00000000E+00  0.00000000E+00
  0.00000000E+00  0.00000000E+00  0.00000000E+00
  0.00000000E+00  0.00000000E+00  0.00000000E+00
  0.00000000E+00  0.00000000E+00  0.00000000E+00
  0.00000000E+00  0.00000000E+00  0.00000000E+00
  0.00000000E+00  0.00000000E+00  0.00000000E+00
  0.00000000E+00  0.00000000E+00  0.00000000E+00
  0.00000000E+00  0.00000000E+00  0.00000000E+00
  0.00000000E+00  0.00000000E+00  0.00000000E+00
  0.00000000E+00  0.00000000E+00  0.00000000E+00
  0.00000000E+00  0.00000000E+00  0.00000000E+00
  0.00000000E+00  0.00000000E+00  0.00000000E+00
  0.00000000E+00  0.00000000E+00  0.00000000E+00
  0.00000000E+00  0.00000000E+00  0.00000000E+00
  0.00000000E+00  0.00000000E+00  0.00000000E+00
  0.00000000E+00  0.00000000E+00  0.00000000E+00
  0.00000000E+00  0.00000000E+00  0.00000000E+00
  0.00000000E+00  0.00000000E+00  0.00000000E+00
  0.00000000E+00  0.00000000E+00  0.00000000E+00
  0.00000000E+00  0.00000000E+00  0.00000000E+00
  0.00000000E+00  0.00000000E+00  0.00000000E+00
  0.00000000E+00  0.00000000E+00  0.00000000E+00
  0.00000000E+00  0.00000000E+00  0.00000000E+00
  0.00000000E+00  0.00000000E+00  0.00000000E+00
