Cu48 C4 N2 F4                           
    1.000000000000000     
    10.2424774999999997    0.0000000000000000    0.0000000000000000
     0.0000000000000000   10.2424774999999997    0.0000000000000000
     0.0000000000000000    0.0000000000000000   16.5484553599999984
   Cu   C    N    F 
    48     4     2     4
Selective dynamics
Direct
  0.2490350754802719  0.9990055513632683  0.4089463312437331   T   T   T
  0.2490008219019302  0.2490039737450402  0.4088130160851193   T   T   T
  0.2508936936087736  0.4988580565850214  0.4093158661218155   T   T   T
  0.2510696591289019  0.7489339279963545  0.4092897947732155   T   T   T
  0.4999978817979098  0.0000007440658862  0.4088021020893393   T   T   T
  0.4988596530170426  0.2508965994629833  0.4093223101339660   T   T   T
  0.5000003906560124  0.4999998876851848  0.4102455857029881   T   T   T
  0.5011357688891849  0.7491058058150060  0.4093216091703056   T   T   T
  0.7509604199038620  0.0009984160876471  0.4089452542009937   T   T   T
  0.7489333336281945  0.2510699872938815  0.4092857522961211   T   T   T
  0.7491086067003465  0.5011346521017757  0.4093177378616275   T   T   T
  0.7509971469908976  0.7509960499353383  0.4088154573533060   T   T   T
  0.0000037716339563  0.0000024848866289  0.4092587433452763   T   T   T
  0.9990069041769516  0.2490414699204635  0.4089388513207766   T   T   T
  0.0000001758831800  0.4999933356168569  0.4087955870879014   T   T   T
  0.0009973850769427  0.7509630743386211  0.4089453988748346   T   T   T
  0.1244032293816701  0.1243955976143027  0.5163902436675016   T   T   T
  0.1215204031663717  0.3738198106316162  0.5151064991685956   T   T   T
  0.1258177682130466  0.6250863152247845  0.5153468731395989   T   T   T
  0.1252227908505432  0.8747736807649318  0.5167306227081596   T   T   T
  0.3738194985454371  0.1215182984165679  0.5151028851291457   T   T   T
  0.3686476413829780  0.3686477886332469  0.5176935071307511   T   T   T
  0.3754440308062712  0.6245661042785144  0.5176793044434049   T   T   T
  0.3749189250137590  0.8741802585425944  0.5153500431214084   T   T   T
  0.6250785808058623  0.1258157729375569  0.5153514747502683   T   T   T
  0.6245569914501345  0.3754435848943771  0.5176879516454633   T   T   T
  0.6313556593290954  0.6313555713092214  0.5176939408612071   T   T   T
  0.6261816032445608  0.8784814169106525  0.5151061621298680   T   T   T
  0.8747735536798302  0.1252181112470581  0.5167380164292155   T   T   T
  0.8741808039206518  0.3749233428316074  0.5153528231017432   T   T   T
  0.8784829606098867  0.6261870793059785  0.5151023668580166   T   T   T
  0.8755987112692836  0.8755970091675849  0.5163855177747720   T   T   T
  0.1250000002440785  0.1249999992677573  0.3021430031521675   F   F   F
  0.1250000002440785  0.3749999997559215  0.3021430031521675   F   F   F
  0.1250000002440785  0.6249999982914289  0.3021430031521675   F   F   F
  0.1250000002440785  0.8749999987795931  0.3021430031521675   F   F   F
  0.3749999997559215  0.1249999992677573  0.3021430031521675   F   F   F
  0.3749999997559215  0.3749999997559215  0.3021430031521675   F   F   F
  0.3749999997559215  0.6249999982914289  0.3021430031521675   F   F   F
  0.3749999997559215  0.8749999987795931  0.3021430031521675   F   F   F
  0.6249999982914289  0.1249999992677573  0.3021430031521675   F   F   F
  0.6249999982914289  0.3749999997559215  0.3021430031521675   F   F   F
  0.6249999992677573  0.6249999982914289  0.3021430031521675   F   F   F
  0.6249999992677573  0.8749999987795931  0.3021430031521675   F   F   F
  0.8749999987795931  0.1249999992677573  0.3021430031521675   F   F   F
  0.8749999978032648  0.3749999997559215  0.3021430031521675   F   F   F
  0.8749999987795931  0.6249999982914289  0.3021430031521675   F   F   F
  0.8749999987795931  0.8749999987795931  0.3021430031521675   F   F   F
  0.5311211345968658  0.3725505237412960  0.6477994023648108   T   T   T
  0.6274386421523630  0.4688512964242619  0.6478057805963147   T   T   T
  0.4689484277565157  0.6274525721618431  0.6477979175656401   T   T   T
  0.3725666706403672  0.5310870159980610  0.6477885740052756   T   T   T
  0.5979792338674841  0.5979166799691811  0.6382866084775358   T   T   T
  0.4020898493147342  0.4020241967756206  0.6382849024137087   T   T   T
  0.2495296519003318  0.5577571302474453  0.6741196079829734   T   T   T
  0.4422824964691330  0.7504719174789898  0.6741249972548999   T   T   T
  0.5576852712486300  0.2496129461023600  0.6740991121442335   T   T   T
  0.7503893454708148  0.4422766065347901  0.6741085883158320   T   T   T
 
  0.00000000E+00  0.00000000E+00  0.00000000E+00
  0.00000000E+00  0.00000000E+00  0.00000000E+00
  0.00000000E+00  0.00000000E+00  0.00000000E+00
  0.00000000E+00  0.00000000E+00  0.00000000E+00
  0.00000000E+00  0.00000000E+00  0.00000000E+00
  0.00000000E+00  0.00000000E+00  0.00000000E+00
  0.00000000E+00  0.00000000E+00  0.00000000E+00
  0.00000000E+00  0.00000000E+00  0.00000000E+00
  0.00000000E+00  0.00000000E+00  0.00000000E+00
  0.00000000E+00  0.00000000E+00  0.00000000E+00
  0.00000000E+00  0.00000000E+00  0.00000000E+00
  0.00000000E+00  0.00000000E+00  0.00000000E+00
  0.00000000E+00  0.00000000E+00  0.00000000E+00
  0.00000000E+00  0.00000000E+00  0.00000000E+00
  0.00000000E+00  0.00000000E+00  0.00000000E+00
  0.00000000E+00  0.00000000E+00  0.00000000E+00
  0.00000000E+00  0.00000000E+00  0.00000000E+00
  0.00000000E+00  0.00000000E+00  0.00000000E+00
  0.00000000E+00  0.00000000E+00  0.00000000E+00
  0.00000000E+00  0.00000000E+00  0.00000000E+00
  0.00000000E+00  0.00000000E+00  0.00000000E+00
  0.00000000E+00  0.00000000E+00  0.00000000E+00
  0.00000000E+00  0.00000000E+00  0.00000000E+00
  0.00000000E+00  0.00000000E+00  0.00000000E+00
  0.00000000E+00  0.00000000E+00  0.00000000E+00
  0.00000000E+00  0.00000000E+00  0.00000000E+00
  0.00000000E+00  0.00000000E+00  0.00000000E+00
  0.00000000E+00  0.00000000E+00  0.00000000E+00
  0.00000000E+00  0.00000000E+00  0.00000000E+00
  0.00000000E+00  0.00000000E+00  0.00000000E+00
  0.00000000E+00  0.00000000E+00  0.00000000E+00
  0.00000000E+00  0.00000000E+00  0.00000000E+00
  0.00000000E+00  0.00000000E+00  0.00000000E+00
  0.00000000E+00  0.00000000E+00  0.00000000E+00
  0.00000000E+00  0.00000000E+00  0.00000000E+00
  0.00000000E+00  0.00000000E+00  0.00000000E+00
  0.00000000E+00  0.00000000E+00  0.00000000E+00
  0.00000000E+00  0.00000000E+00  0.00000000E+00
  0.00000000E+00  0.00000000E+00  0.00000000E+00
  0.00000000E+00  0.00000000E+00  0.00000000E+00
  0.00000000E+00  0.00000000E+00  0.00000000E+00
  0.00000000E+00  0.00000000E+00  0.00000000E+00
  0.00000000E+00  0.00000000E+00  0.00000000E+00
  0.00000000E+00  0.00000000E+00  0.00000000E+00
  0.00000000E+00  0.00000000E+00  0.00000000E+00
  0.00000000E+00  0.00000000E+00  0.00000000E+00
  0.00000000E+00  0.00000000E+00  0.00000000E+00
  0.00000000E+00  0.00000000E+00  0.00000000E+00
  0.00000000E+00  0.00000000E+00  0.00000000E+00
  0.00000000E+00  0.00000000E+00  0.00000000E+00
  0.00000000E+00  0.00000000E+00  0.00000000E+00
  0.00000000E+00  0.00000000E+00  0.00000000E+00
  0.00000000E+00  0.00000000E+00  0.00000000E+00
  0.00000000E+00  0.00000000E+00  0.00000000E+00
  0.00000000E+00  0.00000000E+00  0.00000000E+00
  0.00000000E+00  0.00000000E+00  0.00000000E+00
  0.00000000E+00  0.00000000E+00  0.00000000E+00
  0.00000000E+00  0.00000000E+00  0.00000000E+00
