Pd  C  H Cl                             
    1.000000000000000     
    11.1817229999999999    0.0000000000000000    0.0000000000000000
     0.0000000000000000   15.8133443000000007    0.0000000000000000
     0.0000000000000000    0.0000000000000000   22.1931461100000007
   Pd   C    H    Cl
    64     6     2     4
Selective dynamics
Direct
  0.2499999991056825  0.0000000000000000  0.3379421720033022   F   F   F
  0.9999999964227371  0.4999999987352481  0.3379421720033022   F   F   F
  0.2499999991056825  0.2499999996838085  0.3379421720033022   F   F   F
  0.2499999991056825  0.4999999987352481  0.3379421720033022   F   F   F
  0.2499999991056825  0.7499999984190566  0.3379421720033022   F   F   F
  0.4999999982113650  0.0000000000000000  0.3379421720033022   F   F   F
  0.4999999982113650  0.2499999996838085  0.3379421720033022   F   F   F
  0.9999999964227371  0.7499999984190566  0.3379421720033022   F   F   F
  0.4999999982113650  0.4999999987352481  0.3379421720033022   F   F   F
  0.4999999982113650  0.7499999984190566  0.3379421720033022   F   F   F
  0.7499999973170475  0.0000000000000000  0.3379421720033022   F   F   F
  0.7499999973170475  0.2499999996838085  0.3379421720033022   F   F   F
  0.7499999973170475  0.4999999987352481  0.3379421720033022   F   F   F
  0.7499999973170475  0.7499999984190566  0.3379421720033022   F   F   F
  0.0000000000000000  0.0000000000000000  0.3379421720033022   F   F   F
  0.9999999964227371  0.2499999996838085  0.3379421720033022   F   F   F
  0.2495422006219812  0.0004067161145632  0.4652994637508722   T   T   T
  0.2469792098327737  0.2509031112985309  0.4653063980077216   T   T   T
  0.2467580550273644  0.4993411254292286  0.4625014790703582   T   T   T
  0.2531804884878639  0.7471860286529481  0.4659418861917346   T   T   T
  0.5000194835204694 -0.0000285177553493  0.4655221413084857   T   T   T
  0.4989808592815094  0.2509998039879119  0.4649449044189841   T   T   T
  0.4999163854639165  0.5000107336622758  0.4586283596744617   T   T   T
  0.5010204696092293  0.7490382569918617  0.4649438831069113   T   T   T
  0.7504616987063792  0.9996010881860014  0.4653163982229123   T   T   T
  0.7468098373062173  0.2528347865031245  0.4659581161742197   T   T   T
  0.7532073813387967  0.5006436262377945  0.4625032239919141   T   T   T
  0.7530606956310312  0.7490849501509073  0.4653063429932811   T   T   T
  0.0000416959661181  0.0000102763468462  0.4655401729984365   T   T   T
  0.9957544375637234  0.2525848467431295  0.4662436249892968   T   T   T
  0.9999580859881972  0.4999992474129276  0.4652575124315797   T   T   T
  0.0042918171619328  0.7473945338675166  0.4662411953270627   T   T   T
  0.1214275422533394  0.1266867865691414  0.5232958738746678   T   T   T
  0.1192965223028172  0.3752001344379254  0.5248179525102303   T   T   T
  0.1355356734721274  0.6222815644219494  0.5275462195232606   T   T   T
  0.1289668463611513  0.8737624702296922  0.5233645106374639   T   T   T
  0.3728358851344459  0.1259808774908197  0.5234304568081685   T   T   T
  0.3671585829911855  0.3780341558121788  0.5233140580246737   T   T   T
  0.3881013137319619  0.6139863634286160  0.5267372124561318   T   T   T
  0.3775835827391290  0.8743141978533004  0.5236916462665649   T   T   T
  0.6224693484167448  0.1256979312144977  0.5236815345202351   T   T   T
  0.6119049708157697  0.3861516581806031  0.5267227120265223   T   T   T
  0.6328337980180176  0.6219444081802985  0.5233346773387274   T   T   T
  0.6272323142702469  0.8740092157691792  0.5234481211550922   T   T   T
  0.8710556768284765  0.1262683645709783  0.5233580299831517   T   T   T
  0.8644957357153731  0.3777198619662386  0.5275435827042707   T   T   T
  0.8807005872504685  0.6247910727017199  0.5248173072951111   T   T   T
  0.8786371776075029  0.8733313676093588  0.5232944576761454   T   T   T
  0.1249999995528412  0.1249999995257198  0.4009217677339905   F   F   F
  0.1249999995528412  0.3749999992095283  0.4009217677339905   F   F   F
  0.1249999995528412  0.6249999982609609  0.4009217677339905   F   F   F
  0.1249999995528412  0.8749999979447765  0.4009217677339905   F   F   F
  0.3749999986585237  0.1249999995257198  0.4009217677339905   F   F   F
  0.3749999986585237  0.3749999992095283  0.4009217677339905   F   F   F
  0.3749999986585237  0.6249999982609609  0.4009217677339905   F   F   F
  0.3749999986585237  0.8749999979447765  0.4009217677339905   F   F   F
  0.6249999977642062  0.1249999995257198  0.4009217677339905   F   F   F
  0.6249999977642062  0.3749999992095283  0.4009217677339905   F   F   F
  0.6249999977642062  0.6249999982609609  0.4009217677339905   F   F   F
  0.6249999977642062  0.8749999979447765  0.4009217677339905   F   F   F
  0.8749999968698887  0.1249999995257198  0.4009217677339905   F   F   F
  0.8749999968698887  0.3749999992095283  0.4009217677339905   F   F   F
  0.8749999968698887  0.6249999982609609  0.4009217677339905   F   F   F
  0.8749999968698887  0.8749999979447765  0.4009217677339905   F   F   F
  0.5988001043228162  0.5609836259093423  0.6044285455057262   T   T   T
  0.6227692859912765  0.4690545286253157  0.6044099610939881   T   T   T
  0.5253691149202709  0.4095411489552809  0.6115882461452571   T   T   T
  0.4011104566516141  0.4390560342272229  0.6044049921766259   T   T   T
  0.3771715284639411  0.5309564837642158  0.6044019780079680   T   T   T
  0.4745676904581815  0.5904891275849765  0.6115989235160318   T   T   T
  0.6637321880910440  0.5962800898306178  0.6317084029890147   T   T   T
  0.3361833334699474  0.4037440143553452  0.6316834779348258   T   T   T
  0.7679933013288930  0.4437478784340243  0.6301641822956158   T   T   T
  0.5429804761572756  0.3188892333496590  0.6558003752100883   T   T   T
  0.2318575627820402  0.5564052312869362  0.6301268106471102   T   T   T
  0.4570920342137713  0.6810842719031546  0.6558862393567820   T   T   T
 
  0.00000000E+00  0.00000000E+00  0.00000000E+00
  0.00000000E+00  0.00000000E+00  0.00000000E+00
  0.00000000E+00  0.00000000E+00  0.00000000E+00
  0.00000000E+00  0.00000000E+00  0.00000000E+00
  0.00000000E+00  0.00000000E+00  0.00000000E+00
  0.00000000E+00  0.00000000E+00  0.00000000E+00
  0.00000000E+00  0.00000000E+00  0.00000000E+00
  0.00000000E+00  0.00000000E+00  0.00000000E+00
  0.00000000E+00  0.00000000E+00  0.00000000E+00
  0.00000000E+00  0.00000000E+00  0.00000000E+00
  0.00000000E+00  0.00000000E+00  0.00000000E+00
  0.00000000E+00  0.00000000E+00  0.00000000E+00
  0.00000000E+00  0.00000000E+00  0.00000000E+00
  0.00000000E+00  0.00000000E+00  0.00000000E+00
  0.00000000E+00  0.00000000E+00  0.00000000E+00
  0.00000000E+00  0.00000000E+00  0.00000000E+00
  0.00000000E+00  0.00000000E+00  0.00000000E+00
  0.00000000E+00  0.00000000E+00  0.00000000E+00
  0.00000000E+00  0.00000000E+00  0.00000000E+00
  0.00000000E+00  0.00000000E+00  0.00000000E+00
  0.00000000E+00  0.00000000E+00  0.00000000E+00
  0.00000000E+00  0.00000000E+00  0.00000000E+00
  0.00000000E+00  0.00000000E+00  0.00000000E+00
  0.00000000E+00  0.00000000E+00  0.00000000E+00
  0.00000000E+00  0.00000000E+00  0.00000000E+00
  0.00000000E+00  0.00000000E+00  0.00000000E+00
  0.00000000E+00  0.00000000E+00  0.00000000E+00
  0.00000000E+00  0.00000000E+00  0.00000000E+00
  0.00000000E+00  0.00000000E+00  0.00000000E+00
  0.00000000E+00  0.00000000E+00  0.00000000E+00
  0.00000000E+00  0.00000000E+00  0.00000000E+00
  0.00000000E+00  0.00000000E+00  0.00000000E+00
  0.00000000E+00  0.00000000E+00  0.00000000E+00
  0.00000000E+00  0.00000000E+00  0.00000000E+00
  0.00000000E+00  0.00000000E+00  0.00000000E+00
  0.00000000E+00  0.00000000E+00  0.00000000E+00
  0.00000000E+00  0.00000000E+00  0.00000000E+00
  0.00000000E+00  0.00000000E+00  0.00000000E+00
  0.00000000E+00  0.00000000E+00  0.00000000E+00
  0.00000000E+00  0.00000000E+00  0.00000000E+00
  0.00000000E+00  0.00000000E+00  0.00000000E+00
  0.00000000E+00  0.00000000E+00  0.00000000E+00
  0.00000000E+00  0.00000000E+00  0.00000000E+00
  0.00000000E+00  0.00000000E+00  0.00000000E+00
  0.00000000E+00  0.00000000E+00  0.00000000E+00
  0.00000000E+00  0.00000000E+00  0.00000000E+00
  0.00000000E+00  0.00000000E+00  0.00000000E+00
  0.00000000E+00  0.00000000E+00  0.00000000E+00
  0.00000000E+00  0.00000000E+00  0.00000000E+00
  0.00000000E+00  0.00000000E+00  0.00000000E+00
  0.00000000E+00  0.00000000E+00  0.00000000E+00
  0.00000000E+00  0.00000000E+00  0.00000000E+00
  0.00000000E+00  0.00000000E+00  0.00000000E+00
  0.00000000E+00  0.00000000E+00  0.00000000E+00
  0.00000000E+00  0.00000000E+00  0.00000000E+00
  0.00000000E+00  0.00000000E+00  0.00000000E+00
  0.00000000E+00  0.00000000E+00  0.00000000E+00
  0.00000000E+00  0.00000000E+00  0.00000000E+00
  0.00000000E+00  0.00000000E+00  0.00000000E+00
  0.00000000E+00  0.00000000E+00  0.00000000E+00
  0.00000000E+00  0.00000000E+00  0.00000000E+00
  0.00000000E+00  0.00000000E+00  0.00000000E+00
  0.00000000E+00  0.00000000E+00  0.00000000E+00
  0.00000000E+00  0.00000000E+00  0.00000000E+00
  0.00000000E+00  0.00000000E+00  0.00000000E+00
  0.00000000E+00  0.00000000E+00  0.00000000E+00
  0.00000000E+00  0.00000000E+00  0.00000000E+00
  0.00000000E+00  0.00000000E+00  0.00000000E+00
  0.00000000E+00  0.00000000E+00  0.00000000E+00
  0.00000000E+00  0.00000000E+00  0.00000000E+00
  0.00000000E+00  0.00000000E+00  0.00000000E+00
  0.00000000E+00  0.00000000E+00  0.00000000E+00
  0.00000000E+00  0.00000000E+00  0.00000000E+00
  0.00000000E+00  0.00000000E+00  0.00000000E+00
  0.00000000E+00  0.00000000E+00  0.00000000E+00
  0.00000000E+00  0.00000000E+00  0.00000000E+00
