Pd48 C6 Cl2 H4                          
    1.000000000000000     
    11.1817229999999999    0.0000000000000000    0.0000000000000000
     0.0000000000000000   15.8133443000000007    0.0000000000000000
     0.0000000000000000    0.0000000000000000   15.6574578500000001
   Pd   C    Cl   H 
    48     6     2     4
Selective dynamics
Direct
  0.2496672090354153  0.9998949077271888  0.4034242480780605   T   T   T
  0.2524142723329348  0.2526385674966107  0.4038854454526088   T   T   T
  0.2451421305392927  0.5009123174962582  0.3957025807882388   T   T   T
  0.2524419210742508  0.7461795923268255  0.4063894475368741   T   T   T
  0.4999992184659092  0.0000055722816654  0.4042955923263136   T   T   T
  0.5006925510257929  0.2533400194495528  0.4055082894871802   T   T   T
  0.5000004797806525  0.4999984285309154  0.3849907052357082   T   T   T
  0.4993088292286743  0.7466320881673241  0.4055132340048502   T   T   T
  0.7503316685401415  0.0001264961257235  0.4034137600551162   T   T   T
  0.7475675041849357  0.2537968547422835  0.4063831726652154   T   T   T
  0.7548474014960007  0.4990806434631523  0.3957069698223847   T   T   T
  0.7475731829920917  0.7473385806251045  0.4038757023490334   T   T   T
  0.0000064417244445  0.0000147516924542  0.4030079575576266   T   T   T
  0.0002776562862721  0.2525928263482839  0.4053180380291934   T   T   T
  0.9999953156281833  0.5000054397747249  0.4050203873661644   T   T   T
  0.9997229365103166  0.7473719111348132  0.4053015217705536   T   T   T
  0.1258276755485639  0.1267420567489737  0.4872905000325147   T   T   T
  0.1303174431106342  0.3769390479512893  0.4904155881174432   T   T   T
  0.1267638640084527  0.6232117907710091  0.4897750902598332   T   T   T
  0.1254295790865712  0.8727953757816280  0.4870870670949685   T   T   T
  0.3754796238144991  0.1262477108924287  0.4877196467164495   T   T   T
  0.3786809259097978  0.3924315043756081  0.4887895500089954   T   T   T
  0.3767232288889417  0.6077389417234329  0.4947134473943180   T   T   T
  0.3752983851058076  0.8739432357638037  0.4880040692737069   T   T   T
  0.6246682828471251  0.1260495148865175  0.4880276747116170   T   T   T
  0.6232829341789525  0.3922215660058228  0.4946805091444233   T   T   T
  0.6213047672179357  0.6075389062612473  0.4888098062245945   T   T   T
  0.6245163847626216  0.8737517790407239  0.4877092584601499   T   T   T
  0.8745751713636807  0.1271915472210310  0.4871261918068868   T   T   T
  0.8732463713378635  0.3767833598155974  0.4897837314293980   T   T   T
  0.8696668821304954  0.6230436102030552  0.4904092506020419   T   T   T
  0.8742081414896745  0.8732457538049232  0.4872661241779781   T   T   T
  0.1249999995528412  0.1249999995257198  0.3193366412287659   F   F   F
  0.1249999995528412  0.3749999992095283  0.3193366412287659   F   F   F
  0.1249999995528412  0.6249999982609609  0.3193366412287659   F   F   F
  0.1249999995528412  0.8749999979447765  0.3193366412287659   F   F   F
  0.3749999986585237  0.1249999995257198  0.3193366412287659   F   F   F
  0.3749999986585237  0.3749999992095283  0.3193366412287659   F   F   F
  0.3749999986585237  0.6249999982609609  0.3193366412287659   F   F   F
  0.3749999986585237  0.8749999979447765  0.3193366412287659   F   F   F
  0.6249999977642062  0.1249999995257198  0.3193366412287659   F   F   F
  0.6249999977642062  0.3749999992095283  0.3193366412287659   F   F   F
  0.6249999977642062  0.6249999982609609  0.3193366412287659   F   F   F
  0.6249999977642062  0.8749999979447765  0.3193366412287659   F   F   F
  0.8749999968698887  0.1249999995257198  0.3193366412287659   F   F   F
  0.8749999968698887  0.3749999992095283  0.3193366412287659   F   F   F
  0.8749999968698887  0.6249999982609609  0.3193366412287659   F   F   F
  0.8749999968698887  0.8749999979447765  0.3193366412287659   F   F   F
  0.6052074216955816  0.5543496124651739  0.6089388845252088   T   T   T
  0.6181742654122573  0.4616482437000684  0.6131887394976943   T   T   T
  0.5139836277826006  0.4091595830945494  0.6174275641980884   T   T   T
  0.3947976875065677  0.4455774568297173  0.6089416579218394   T   T   T
  0.3818580382811803  0.5382617163249748  0.6132005505011477   T   T   T
  0.4859909509564133  0.5907743716049580  0.6174489184450209   T   T   T
  0.7228405821020232  0.6097881096560371  0.6625689273381212   T   T   T
  0.2771630788050814  0.3901207934136579  0.6625662046233316   T   T   T
  0.7006451342628566  0.4389702732351495  0.6428451016486179   T   T   T
  0.5211642532413734  0.3467242918015998  0.6467712157000918   T   T   T
  0.2993510219423214  0.5609511700927925  0.6428657192555178   T   T   T
  0.4788466777137472  0.6531770524097666  0.6467994423141192   T   T   T
 
  0.00000000E+00  0.00000000E+00  0.00000000E+00
  0.00000000E+00  0.00000000E+00  0.00000000E+00
  0.00000000E+00  0.00000000E+00  0.00000000E+00
  0.00000000E+00  0.00000000E+00  0.00000000E+00
  0.00000000E+00  0.00000000E+00  0.00000000E+00
  0.00000000E+00  0.00000000E+00  0.00000000E+00
  0.00000000E+00  0.00000000E+00  0.00000000E+00
  0.00000000E+00  0.00000000E+00  0.00000000E+00
  0.00000000E+00  0.00000000E+00  0.00000000E+00
  0.00000000E+00  0.00000000E+00  0.00000000E+00
  0.00000000E+00  0.00000000E+00  0.00000000E+00
  0.00000000E+00  0.00000000E+00  0.00000000E+00
  0.00000000E+00  0.00000000E+00  0.00000000E+00
  0.00000000E+00  0.00000000E+00  0.00000000E+00
  0.00000000E+00  0.00000000E+00  0.00000000E+00
  0.00000000E+00  0.00000000E+00  0.00000000E+00
  0.00000000E+00  0.00000000E+00  0.00000000E+00
  0.00000000E+00  0.00000000E+00  0.00000000E+00
  0.00000000E+00  0.00000000E+00  0.00000000E+00
  0.00000000E+00  0.00000000E+00  0.00000000E+00
  0.00000000E+00  0.00000000E+00  0.00000000E+00
  0.00000000E+00  0.00000000E+00  0.00000000E+00
  0.00000000E+00  0.00000000E+00  0.00000000E+00
  0.00000000E+00  0.00000000E+00  0.00000000E+00
  0.00000000E+00  0.00000000E+00  0.00000000E+00
  0.00000000E+00  0.00000000E+00  0.00000000E+00
  0.00000000E+00  0.00000000E+00  0.00000000E+00
  0.00000000E+00  0.00000000E+00  0.00000000E+00
  0.00000000E+00  0.00000000E+00  0.00000000E+00
  0.00000000E+00  0.00000000E+00  0.00000000E+00
  0.00000000E+00  0.00000000E+00  0.00000000E+00
  0.00000000E+00  0.00000000E+00  0.00000000E+00
  0.00000000E+00  0.00000000E+00  0.00000000E+00
  0.00000000E+00  0.00000000E+00  0.00000000E+00
  0.00000000E+00  0.00000000E+00  0.00000000E+00
  0.00000000E+00  0.00000000E+00  0.00000000E+00
  0.00000000E+00  0.00000000E+00  0.00000000E+00
  0.00000000E+00  0.00000000E+00  0.00000000E+00
  0.00000000E+00  0.00000000E+00  0.00000000E+00
  0.00000000E+00  0.00000000E+00  0.00000000E+00
  0.00000000E+00  0.00000000E+00  0.00000000E+00
  0.00000000E+00  0.00000000E+00  0.00000000E+00
  0.00000000E+00  0.00000000E+00  0.00000000E+00
  0.00000000E+00  0.00000000E+00  0.00000000E+00
  0.00000000E+00  0.00000000E+00  0.00000000E+00
  0.00000000E+00  0.00000000E+00  0.00000000E+00
  0.00000000E+00  0.00000000E+00  0.00000000E+00
  0.00000000E+00  0.00000000E+00  0.00000000E+00
  0.00000000E+00  0.00000000E+00  0.00000000E+00
  0.00000000E+00  0.00000000E+00  0.00000000E+00
  0.00000000E+00  0.00000000E+00  0.00000000E+00
  0.00000000E+00  0.00000000E+00  0.00000000E+00
  0.00000000E+00  0.00000000E+00  0.00000000E+00
  0.00000000E+00  0.00000000E+00  0.00000000E+00
  0.00000000E+00  0.00000000E+00  0.00000000E+00
  0.00000000E+00  0.00000000E+00  0.00000000E+00
  0.00000000E+00  0.00000000E+00  0.00000000E+00
  0.00000000E+00  0.00000000E+00  0.00000000E+00
  0.00000000E+00  0.00000000E+00  0.00000000E+00
  0.00000000E+00  0.00000000E+00  0.00000000E+00
