Pt  C  H  F                             
   1.00000000000000     
    11.2480069999999994    0.0000000000000000    0.0000000000000000
    -5.6240030000000001    9.7410599999999992    0.0000000000000000
     0.0000000000000000    0.0000000000000000   24.8879693399999979
   Pt   C    H    F 
    64     6     4     2
Selective dynamics
Direct
  0.9999999587182344  0.7499999743354451  0.3013504194553178   F   F   F
  0.2499999964438118  0.0000000000000000  0.3013504194553178   F   F   F
  0.2499999825579735  0.2499999917873410  0.3013504194553178   F   F   F
  0.2499999690478916  0.4999999825481041  0.3013504194553178   F   F   F
  0.2499999551620533  0.7499999743354451  0.3013504194553178   F   F   F
  0.4999999928876306  0.0000000000000000  0.3013504194553178   F   F   F
  0.4999999790017924  0.2499999917873410  0.3013504194553178   F   F   F
  0.4999999654917033  0.4999999825481041  0.3013504194553178   F   F   F
  0.7499999893314424  0.0000000000000000  0.3013504194553178   F   F   F
  0.7499999754456042  0.2499999917873410  0.3013504194553178   F   F   F
  0.7499999619355222  0.4999999825481041  0.3013504194553178   F   F   F
  0.7499999480496840  0.7499999743354451  0.3013504194553178   F   F   F
  0.0000000000000000  0.0000000000000000  0.3013504194553178   F   F   F
  0.9999999861141617  0.2499999917873410  0.3013504194553178   F   F   F
  0.9999999583793340  0.4999999825481041  0.3013504194553178   F   F   F
  0.4999999516058651  0.7499999743354451  0.3013504194553178   F   F   F
  0.0833330000000032  0.1666669999999968  0.3936034172243978   F   F   F
  0.0833330000000032  0.4166669999999968  0.3936034172243978   F   F   F
  0.0833330000000032  0.6666669999999968  0.3936034172243978   F   F   F
  0.0833330000000032  0.9166669999999968  0.3936034172243978   F   F   F
  0.3333330000000032  0.1666669999999968  0.3936034172243978   F   F   F
  0.3333330000000032  0.4166669999999968  0.3936034172243978   F   F   F
  0.3333330000000032  0.6666669999999968  0.3936034172243978   F   F   F
  0.3333330000000032  0.9166669999999968  0.3936034172243978   F   F   F
  0.5833330000000032  0.1666669999999968  0.3936034172243978   F   F   F
  0.5833330000000032  0.4166669999999968  0.3936034172243978   F   F   F
  0.5833330000000032  0.6666669999999968  0.3936034172243978   F   F   F
  0.5833330000000032  0.9166669999999968  0.3936034172243978   F   F   F
  0.8333330000000032  0.1666669999999968  0.3936034172243978   F   F   F
  0.8333330000000032  0.4166669999999968  0.3936034172243978   F   F   F
  0.8333330000000032  0.6666669999999968  0.3936034172243978   F   F   F
  0.8333330000000032  0.9166669999999968  0.3936034172243978   F   F   F
  0.2456165742648422  0.2445975758264468  0.5778042201073271   T   T   T
  0.2435650135021104  0.4973295181582547  0.5772592938782040   T   T   T
  0.2513856588383563  0.7488460156811070  0.5787392602461731   T   T   T
  0.2516303457053719  0.9982141778593349  0.5783575409546295   T   T   T
  0.4981084191740962  0.2426874086253704  0.5772637100268431   T   T   T
  0.4894891130165638  0.4897509806273468  0.5816980918223775   T   T   T
  0.5003227775673027  0.7495615966202692  0.5850570541641865   T   T   T
  0.5010098426572251  0.9984498521052499  0.5787448319411107   T   T   T
  0.7498878447860579  0.2508209342307229  0.5786398763184205   T   T   T
  0.7493264395369265  0.5005712695040236  0.5842233667713309   T   T   T
  0.7601223338767765  0.7603792405250899  0.5817106020669459   T   T   T
  0.7525233658821661  0.0062761601450447  0.5772707348324764   T   T   T
  0.9993561471261613  0.2504971279795251  0.5782845202506086   T   T   T
  0.9990527104003905  0.5000025159739234  0.5786265730875110   T   T   T
  0.0071666672794690  0.7517719878618025  0.5772612510467535   T   T   T
  0.0052602679250501  0.0042222622967254  0.5778133959058531   T   T   T
  0.1679339821117029  0.0819540994622922  0.4843715440127678   T   T   T
  0.1665853208568838  0.3325781031666225  0.4847323127925300   T   T   T
  0.1660012822451430  0.5830555603761828  0.4847338078739211   T   T   T
  0.1678263306876472  0.8321374074946539  0.4844703531723782   T   T   T
  0.4177693726544695  0.0820857640706233  0.4844748226685959   T   T   T
  0.4178419630886432  0.3351587369770573  0.4858640802271877   T   T   T
  0.4180638485150491  0.5827119470776080  0.4871566339662293   T   T   T
  0.4198406419539624  0.8300578109450764  0.4870123017552070   T   T   T
  0.6668629611517956  0.0839050488055976  0.4847385601576850   T   T   T
  0.6675644090342309  0.3362940106286557  0.4864609625879469   T   T   T
  0.6660111904452578  0.5839325715001070  0.4877209517179541   T   T   T
  0.6672191806002622  0.8318648041893931  0.4871594660403618   T   T   T
  0.9173393648959675  0.0833256578967273  0.4847347612787086   T   T   T
  0.9163205646750621  0.3335928805586958  0.4851430463865299   T   T   T
  0.9136245330249775  0.5823603071732490  0.4864565726481143   T   T   T
  0.9147640376081024  0.8320796347779313  0.4858576585638001   T   T   T
  0.7035539789011976  0.5462016556219754  0.6609747564265758   T   T   T
  0.5509295418658804  0.4763929734955747  0.6627877264548094   T   T   T
  0.4773888321117074  0.5501723700292314  0.6630611810853692   T   T   T
  0.5471525781693015  0.7026549792788016  0.6615207998141652   T   T   T
  0.6996843121081714  0.7724452563410068  0.6630732811367783   T   T   T
  0.7734136606397112  0.6988400059308750  0.6627973788995972   T   T   T
  0.5000843502075412  0.3713793543949088  0.6782163266185167   T   T   T
  0.3723136589260460  0.4991658866393868  0.6784689469605971   T   T   T
  0.7507008279724371  0.8774993115958957  0.6784982416715877   T   T   T
  0.8784417765302591  0.7496729168863216  0.6782454595675736   T   T   T
  0.7538453913287974  0.4958642567191635  0.7009840591632560   T   T   T
  0.4970831768494082  0.7527866914867883  0.7017599589984796   T   T   T
 
  0.00000000E+00  0.00000000E+00  0.00000000E+00
  0.00000000E+00  0.00000000E+00  0.00000000E+00
  0.00000000E+00  0.00000000E+00  0.00000000E+00
  0.00000000E+00  0.00000000E+00  0.00000000E+00
  0.00000000E+00  0.00000000E+00  0.00000000E+00
  0.00000000E+00  0.00000000E+00  0.00000000E+00
  0.00000000E+00  0.00000000E+00  0.00000000E+00
  0.00000000E+00  0.00000000E+00  0.00000000E+00
  0.00000000E+00  0.00000000E+00  0.00000000E+00
  0.00000000E+00  0.00000000E+00  0.00000000E+00
  0.00000000E+00  0.00000000E+00  0.00000000E+00
  0.00000000E+00  0.00000000E+00  0.00000000E+00
  0.00000000E+00  0.00000000E+00  0.00000000E+00
  0.00000000E+00  0.00000000E+00  0.00000000E+00
  0.00000000E+00  0.00000000E+00  0.00000000E+00
  0.00000000E+00  0.00000000E+00  0.00000000E+00
  0.00000000E+00  0.00000000E+00  0.00000000E+00
  0.00000000E+00  0.00000000E+00  0.00000000E+00
  0.00000000E+00  0.00000000E+00  0.00000000E+00
  0.00000000E+00  0.00000000E+00  0.00000000E+00
  0.00000000E+00  0.00000000E+00  0.00000000E+00
  0.00000000E+00  0.00000000E+00  0.00000000E+00
  0.00000000E+00  0.00000000E+00  0.00000000E+00
  0.00000000E+00  0.00000000E+00  0.00000000E+00
  0.00000000E+00  0.00000000E+00  0.00000000E+00
  0.00000000E+00  0.00000000E+00  0.00000000E+00
  0.00000000E+00  0.00000000E+00  0.00000000E+00
  0.00000000E+00  0.00000000E+00  0.00000000E+00
  0.00000000E+00  0.00000000E+00  0.00000000E+00
  0.00000000E+00  0.00000000E+00  0.00000000E+00
  0.00000000E+00  0.00000000E+00  0.00000000E+00
  0.00000000E+00  0.00000000E+00  0.00000000E+00
  0.00000000E+00  0.00000000E+00  0.00000000E+00
  0.00000000E+00  0.00000000E+00  0.00000000E+00
  0.00000000E+00  0.00000000E+00  0.00000000E+00
  0.00000000E+00  0.00000000E+00  0.00000000E+00
  0.00000000E+00  0.00000000E+00  0.00000000E+00
  0.00000000E+00  0.00000000E+00  0.00000000E+00
  0.00000000E+00  0.00000000E+00  0.00000000E+00
  0.00000000E+00  0.00000000E+00  0.00000000E+00
  0.00000000E+00  0.00000000E+00  0.00000000E+00
  0.00000000E+00  0.00000000E+00  0.00000000E+00
  0.00000000E+00  0.00000000E+00  0.00000000E+00
  0.00000000E+00  0.00000000E+00  0.00000000E+00
  0.00000000E+00  0.00000000E+00  0.00000000E+00
  0.00000000E+00  0.00000000E+00  0.00000000E+00
  0.00000000E+00  0.00000000E+00  0.00000000E+00
  0.00000000E+00  0.00000000E+00  0.00000000E+00
  0.00000000E+00  0.00000000E+00  0.00000000E+00
  0.00000000E+00  0.00000000E+00  0.00000000E+00
  0.00000000E+00  0.00000000E+00  0.00000000E+00
  0.00000000E+00  0.00000000E+00  0.00000000E+00
  0.00000000E+00  0.00000000E+00  0.00000000E+00
  0.00000000E+00  0.00000000E+00  0.00000000E+00
  0.00000000E+00  0.00000000E+00  0.00000000E+00
  0.00000000E+00  0.00000000E+00  0.00000000E+00
  0.00000000E+00  0.00000000E+00  0.00000000E+00
  0.00000000E+00  0.00000000E+00  0.00000000E+00
  0.00000000E+00  0.00000000E+00  0.00000000E+00
  0.00000000E+00  0.00000000E+00  0.00000000E+00
  0.00000000E+00  0.00000000E+00  0.00000000E+00
  0.00000000E+00  0.00000000E+00  0.00000000E+00
  0.00000000E+00  0.00000000E+00  0.00000000E+00
  0.00000000E+00  0.00000000E+00  0.00000000E+00
  0.00000000E+00  0.00000000E+00  0.00000000E+00
  0.00000000E+00  0.00000000E+00  0.00000000E+00
  0.00000000E+00  0.00000000E+00  0.00000000E+00
  0.00000000E+00  0.00000000E+00  0.00000000E+00
  0.00000000E+00  0.00000000E+00  0.00000000E+00
  0.00000000E+00  0.00000000E+00  0.00000000E+00
  0.00000000E+00  0.00000000E+00  0.00000000E+00
  0.00000000E+00  0.00000000E+00  0.00000000E+00
  0.00000000E+00  0.00000000E+00  0.00000000E+00
  0.00000000E+00  0.00000000E+00  0.00000000E+00
  0.00000000E+00  0.00000000E+00  0.00000000E+00
  0.00000000E+00  0.00000000E+00  0.00000000E+00
