Au48 C6 Cl6                             
    1.000000000000000     
    11.7981859999999994    0.0000000000000000    0.0000000000000000
    -5.8990929999999997   10.2175279999999997    0.0000000000000000
     0.0000000000000000    0.0000000000000000   17.8177309999999984
   Au   C    Cl
    48     6     6
Selective dynamics
Direct
  0.0833330000000032  0.1666669999999968  0.3367429999999985   F   F   F
  0.0833330000000032  0.4166669999999968  0.3367429999999985   F   F   F
  0.0833330000000032  0.6666669999999968  0.3367429999999985   F   F   F
  0.0833330000000032  0.9166669999999968  0.3367429999999985   F   F   F
  0.3333330000000032  0.1666669999999968  0.3367429999999985   F   F   F
  0.3333330000000032  0.4166669999999968  0.3367429999999985   F   F   F
  0.3333330000000032  0.6666669999999968  0.3367429999999985   F   F   F
  0.3333330000000032  0.9166669999999968  0.3367429999999985   F   F   F
  0.5833330000000032  0.1666669999999968  0.3367429999999985   F   F   F
  0.5833330000000032  0.4166669999999968  0.3367429999999985   F   F   F
  0.5833330000000032  0.6666669999999968  0.3367429999999985   F   F   F
  0.5833330000000032  0.9166669999999968  0.3367429999999985   F   F   F
  0.8333330000000032  0.1666669999999968  0.3367429999999985   F   F   F
  0.8333330000000032  0.4166669999999968  0.3367429999999985   F   F   F
  0.8333330000000032  0.6666669999999968  0.3367429999999985   F   F   F
  0.8333330000000032  0.9166669999999968  0.3367429999999985   F   F   F
  0.2501111195322210  0.2500366171469892  0.6125564267201185   T   T   T
  0.2500516584357939  0.5001313761614057  0.6120846420350219   T   T   T
  0.2499590649212635  0.7501147260790404  0.6124545741045040   T   T   T
  0.2501192413757209  0.0000602352248222  0.6128427103321030   T   T   T
  0.5001870212863651  0.2499135028562307  0.6120704236889054   T   T   T
  0.5004949071071536  0.5003868815963557  0.6105676347634130   T   T   T
  0.5001057095415362  0.7500810619250657  0.6104408658055078   T   T   T
  0.5000640089225996  0.0002212140716367  0.6124625098694736   T   T   T
  0.7502614907881693  0.2499057809261487  0.6124879232625489   T   T   T
  0.7501541307216968  0.5000359187398544  0.6104029032614875   T   T   T
  0.7498131855287795  0.7497061710467676  0.6105624938472616   T   T   T
  0.7500501760719729  0.0001314157593413  0.6120887893831437   T   T   T
  0.0001272503119907  0.2500479663274859  0.6128591482900987   T   T   T
  0.0002726921226071  0.4999169679918083  0.6124942810557528   T   T   T
  0.0002726539482083  0.7499985669645284  0.6120747713334822   T   T   T
  0.0001469989140830  0.0000736711810987  0.6125618803728727   T   T   T
  0.1668030709227963  0.0833198238658071  0.4746580403804117   T   T   T
  0.1665178246498726  0.3331719149463694  0.4746068208721184   T   T   T
  0.1668091722904563  0.5834746002665199  0.4745352220112480   T   T   T
  0.1668504870854690  0.8336368924081654  0.4745351327615381   T   T   T
  0.4164796003252320  0.0832682365890918  0.4745343570135461   T   T   T
  0.4164125575409585  0.3328939365326988  0.4743299335202877   T   T   T
  0.4162641928935784  0.5831528471061063  0.4739212413855469   T   T   T
  0.4164094377280350  0.8337108370489617  0.4742264107481091   T   T   T
  0.6666481487583908  0.0833149550090795  0.4745353630076679   T   T   T
  0.6666537058436575  0.3328270682614161  0.4742275983096036   T   T   T
  0.6667920282471016  0.5833268940901917  0.4734978096407332   T   T   T
  0.6669622318248329  0.8338523743872770  0.4739200677066222   T   T   T
  0.9169413694477200  0.0835966856380495  0.4746033647588845   T   T   T
  0.9167928401582799  0.3333240523817338  0.4745834224114205   T   T   T
  0.9172949999423139  0.5834667292820939  0.4742249966141046   T   T   T
  0.9172234242833639  0.8337039979398426  0.4743247274242250   T   T   T
  0.6932781254818465  0.7624133614184601  0.7986107309105606   T   T   T
  0.7622559083902303  0.6934992646056983  0.7985867192438150   T   T   T
  0.6933637644230402  0.5558278611865504  0.7988377463532998   T   T   T
  0.5556239469294866  0.4868231483194450  0.7985823695916778   T   T   T
  0.4866777046903223  0.5557501043932902  0.7986097089374482   T   T   T
  0.5555336030624431  0.6934629625584208  0.7988784586365725   T   T   T
  0.7770708019287085  0.9298594907499194  0.7998996872018935   T   T   T
  0.9295985095748946  0.7770947861299362  0.7998099976639637   T   T   T
  0.7769625576905597  0.4720098384339764  0.8000090632692505   T   T   T
  0.4718733442448055  0.3194344210387428  0.7997978765642415   T   T   T
  0.3191976295091337  0.4721026307272780  0.7998872227294100   T   T   T
  0.4719775245886950  0.7771856960663683  0.8001285551960891   T   T   T
 
  0.00000000E+00  0.00000000E+00  0.00000000E+00
  0.00000000E+00  0.00000000E+00  0.00000000E+00
  0.00000000E+00  0.00000000E+00  0.00000000E+00
  0.00000000E+00  0.00000000E+00  0.00000000E+00
  0.00000000E+00  0.00000000E+00  0.00000000E+00
  0.00000000E+00  0.00000000E+00  0.00000000E+00
  0.00000000E+00  0.00000000E+00  0.00000000E+00
  0.00000000E+00  0.00000000E+00  0.00000000E+00
  0.00000000E+00  0.00000000E+00  0.00000000E+00
  0.00000000E+00  0.00000000E+00  0.00000000E+00
  0.00000000E+00  0.00000000E+00  0.00000000E+00
  0.00000000E+00  0.00000000E+00  0.00000000E+00
  0.00000000E+00  0.00000000E+00  0.00000000E+00
  0.00000000E+00  0.00000000E+00  0.00000000E+00
  0.00000000E+00  0.00000000E+00  0.00000000E+00
  0.00000000E+00  0.00000000E+00  0.00000000E+00
  0.00000000E+00  0.00000000E+00  0.00000000E+00
  0.00000000E+00  0.00000000E+00  0.00000000E+00
  0.00000000E+00  0.00000000E+00  0.00000000E+00
  0.00000000E+00  0.00000000E+00  0.00000000E+00
  0.00000000E+00  0.00000000E+00  0.00000000E+00
  0.00000000E+00  0.00000000E+00  0.00000000E+00
  0.00000000E+00  0.00000000E+00  0.00000000E+00
  0.00000000E+00  0.00000000E+00  0.00000000E+00
  0.00000000E+00  0.00000000E+00  0.00000000E+00
  0.00000000E+00  0.00000000E+00  0.00000000E+00
  0.00000000E+00  0.00000000E+00  0.00000000E+00
  0.00000000E+00  0.00000000E+00  0.00000000E+00
  0.00000000E+00  0.00000000E+00  0.00000000E+00
  0.00000000E+00  0.00000000E+00  0.00000000E+00
  0.00000000E+00  0.00000000E+00  0.00000000E+00
  0.00000000E+00  0.00000000E+00  0.00000000E+00
  0.00000000E+00  0.00000000E+00  0.00000000E+00
  0.00000000E+00  0.00000000E+00  0.00000000E+00
  0.00000000E+00  0.00000000E+00  0.00000000E+00
  0.00000000E+00  0.00000000E+00  0.00000000E+00
  0.00000000E+00  0.00000000E+00  0.00000000E+00
  0.00000000E+00  0.00000000E+00  0.00000000E+00
  0.00000000E+00  0.00000000E+00  0.00000000E+00
  0.00000000E+00  0.00000000E+00  0.00000000E+00
  0.00000000E+00  0.00000000E+00  0.00000000E+00
  0.00000000E+00  0.00000000E+00  0.00000000E+00
  0.00000000E+00  0.00000000E+00  0.00000000E+00
  0.00000000E+00  0.00000000E+00  0.00000000E+00
  0.00000000E+00  0.00000000E+00  0.00000000E+00
  0.00000000E+00  0.00000000E+00  0.00000000E+00
  0.00000000E+00  0.00000000E+00  0.00000000E+00
  0.00000000E+00  0.00000000E+00  0.00000000E+00
  0.00000000E+00  0.00000000E+00  0.00000000E+00
  0.00000000E+00  0.00000000E+00  0.00000000E+00
  0.00000000E+00  0.00000000E+00  0.00000000E+00
  0.00000000E+00  0.00000000E+00  0.00000000E+00
  0.00000000E+00  0.00000000E+00  0.00000000E+00
  0.00000000E+00  0.00000000E+00  0.00000000E+00
  0.00000000E+00  0.00000000E+00  0.00000000E+00
  0.00000000E+00  0.00000000E+00  0.00000000E+00
  0.00000000E+00  0.00000000E+00  0.00000000E+00
  0.00000000E+00  0.00000000E+00  0.00000000E+00
  0.00000000E+00  0.00000000E+00  0.00000000E+00
  0.00000000E+00  0.00000000E+00  0.00000000E+00
