H4 Pt48 C6 Br2                          
    1.000000000000000     
    11.2480069999999994    0.0000000000000000    0.0000000000000000
    -5.6240030000000001    9.7410599999999992    0.0000000000000000
     0.0000000000000000    0.0000000000000000   16.5952680000000008
   H    Pt   C    Br
     4    48     6     2
Selective dynamics
Direct
  0.4996697469498415  0.3711475352461449  0.7860303496845233   T   T   T
  0.3702550895640755  0.5004413463961299  0.7860764750925213   T   T   T
  0.7495703202000712  0.8797627282388589  0.7860685564147261   T   T   T
  0.8788875327897401  0.7503593526658889  0.7860241218462747   T   T   T
  0.0833330000000032  0.1666669999999968  0.3615489999999966   F   F   F
  0.0833330000000032  0.4166669999999968  0.3615489999999966   F   F   F
  0.0833330000000032  0.6666669999999968  0.3615489999999966   F   F   F
  0.0833330000000032  0.9166669999999968  0.3615489999999966   F   F   F
  0.3333330000000032  0.1666669999999968  0.3615489999999966   F   F   F
  0.3333330000000032  0.4166669999999968  0.3615489999999966   F   F   F
  0.3333330000000032  0.6666669999999968  0.3615489999999966   F   F   F
  0.3333330000000032  0.9166669999999968  0.3615489999999966   F   F   F
  0.5833330000000032  0.1666669999999968  0.3615489999999966   F   F   F
  0.5833330000000032  0.4166669999999968  0.3615489999999966   F   F   F
  0.5833330000000032  0.6666669999999968  0.3615489999999966   F   F   F
  0.5833330000000032  0.9166669999999968  0.3615489999999966   F   F   F
  0.8333330000000032  0.1666669999999968  0.3615489999999966   F   F   F
  0.8333330000000032  0.4166669999999968  0.3615489999999966   F   F   F
  0.8333330000000032  0.6666669999999968  0.3615489999999966   F   F   F
  0.8333330000000032  0.9166669999999968  0.3615489999999966   F   F   F
  0.2434888344437809  0.2432833350644259  0.6368814795529119   T   T   T
  0.2401660959304905  0.4964095105214668  0.6352941468107076   T   T   T
  0.2509778102264590  0.7487689126296360  0.6386254976074426   T   T   T
  0.2517668880515558  0.9982265376715986  0.6380384393441929   T   T   T
  0.4968969953085036  0.2409989355498823  0.6349925008551267   T   T   T
  0.4853640938557078  0.4868204636484350  0.6429553416868288   T   T   T
  0.4998212585485788  0.7501734353956095  0.6482761430561510   T   T   T
  0.5012134223761819  0.9990026551835669  0.6386235548742434   T   T   T
  0.7494727585903078  0.2520798051277922  0.6386731400433092   T   T   T
  0.7481584979005760  0.5018417871928662  0.6470548356863546   T   T   T
  0.7631785198808814  0.7646411206792934  0.6429508173114584   T   T   T
  0.7535818878409586  0.0098273736824908  0.6352942204378280   T   T   T
  0.9982481073249048  0.2517547317828175  0.6381453087155506   T   T   T
  0.9979233087245731  0.5005269552206855  0.6386878336577055   T   T   T
  0.0090023041397487  0.7531001213708919  0.6350073296903673   T   T   T
  0.0067181544601240  0.0065105037317394  0.6368805761509861   T   T   T
  0.1684936036500986  0.0815186328746549  0.4977116178570427   T   T   T
  0.1667513653716099  0.3324461646324295  0.4985010406630437   T   T   T
  0.1658475584702046  0.5839170911403855  0.4982321321224106   T   T   T
  0.1684521383280710  0.8323519438400595  0.4978927245720826   T   T   T
  0.4176470973543402  0.0815424020997355  0.4978849575341044   T   T   T
  0.4175005691043268  0.3350212821939351  0.5009180411886547   T   T   T
  0.4176913015734698  0.5837843215845098  0.5027285388035949   T   T   T
  0.4196735309366915  0.8303208685936525  0.5033001719729171   T   T   T
  0.6660812291284088  0.0841523843120839  0.4982238280244857   T   T   T
  0.6674496086160104  0.3368385107450891  0.5016070879086456   T   T   T
  0.6658386111006536  0.5841536344396943  0.5031753254268239   T   T   T
  0.6662082881205578  0.8323069173267967  0.5027240187690509   T   T   T
  0.9175566797851431  0.0832528916836495  0.4984969599751352   T   T   T
  0.9160787086072091  0.3339305732222186  0.4992658999081030   T   T   T
  0.9131663831169448  0.5825548720358142  0.5016214150449017   T   T   T
  0.9149785333320324  0.8324892716972840  0.5009203479751605   T   T   T
  0.7024573387158526  0.5475606055529241  0.7612725802354987   T   T   T
  0.5503510747267200  0.4772946001134173  0.7645010103670842   T   T   T
  0.4766391974086304  0.5512666988008590  0.7647542421795990   T   T   T
  0.5467336736946606  0.7032900688759298  0.7619671399238328   T   T   T
  0.6987571395401915  0.7733935065083060  0.7647524392989098   T   T   T
  0.7727254578719567  0.6996756774712267  0.7644944364372250   T   T   T
  0.7750617332179814  0.4749610396012471  0.8440089662206418   T   T   T
  0.4745984316107013  0.7754081189294268  0.8452949276247494   T   T   T
 
  0.00000000E+00  0.00000000E+00  0.00000000E+00
  0.00000000E+00  0.00000000E+00  0.00000000E+00
  0.00000000E+00  0.00000000E+00  0.00000000E+00
  0.00000000E+00  0.00000000E+00  0.00000000E+00
  0.00000000E+00  0.00000000E+00  0.00000000E+00
  0.00000000E+00  0.00000000E+00  0.00000000E+00
  0.00000000E+00  0.00000000E+00  0.00000000E+00
  0.00000000E+00  0.00000000E+00  0.00000000E+00
  0.00000000E+00  0.00000000E+00  0.00000000E+00
  0.00000000E+00  0.00000000E+00  0.00000000E+00
  0.00000000E+00  0.00000000E+00  0.00000000E+00
  0.00000000E+00  0.00000000E+00  0.00000000E+00
  0.00000000E+00  0.00000000E+00  0.00000000E+00
  0.00000000E+00  0.00000000E+00  0.00000000E+00
  0.00000000E+00  0.00000000E+00  0.00000000E+00
  0.00000000E+00  0.00000000E+00  0.00000000E+00
  0.00000000E+00  0.00000000E+00  0.00000000E+00
  0.00000000E+00  0.00000000E+00  0.00000000E+00
  0.00000000E+00  0.00000000E+00  0.00000000E+00
  0.00000000E+00  0.00000000E+00  0.00000000E+00
  0.00000000E+00  0.00000000E+00  0.00000000E+00
  0.00000000E+00  0.00000000E+00  0.00000000E+00
  0.00000000E+00  0.00000000E+00  0.00000000E+00
  0.00000000E+00  0.00000000E+00  0.00000000E+00
  0.00000000E+00  0.00000000E+00  0.00000000E+00
  0.00000000E+00  0.00000000E+00  0.00000000E+00
  0.00000000E+00  0.00000000E+00  0.00000000E+00
  0.00000000E+00  0.00000000E+00  0.00000000E+00
  0.00000000E+00  0.00000000E+00  0.00000000E+00
  0.00000000E+00  0.00000000E+00  0.00000000E+00
  0.00000000E+00  0.00000000E+00  0.00000000E+00
  0.00000000E+00  0.00000000E+00  0.00000000E+00
  0.00000000E+00  0.00000000E+00  0.00000000E+00
  0.00000000E+00  0.00000000E+00  0.00000000E+00
  0.00000000E+00  0.00000000E+00  0.00000000E+00
  0.00000000E+00  0.00000000E+00  0.00000000E+00
  0.00000000E+00  0.00000000E+00  0.00000000E+00
  0.00000000E+00  0.00000000E+00  0.00000000E+00
  0.00000000E+00  0.00000000E+00  0.00000000E+00
  0.00000000E+00  0.00000000E+00  0.00000000E+00
  0.00000000E+00  0.00000000E+00  0.00000000E+00
  0.00000000E+00  0.00000000E+00  0.00000000E+00
  0.00000000E+00  0.00000000E+00  0.00000000E+00
  0.00000000E+00  0.00000000E+00  0.00000000E+00
  0.00000000E+00  0.00000000E+00  0.00000000E+00
  0.00000000E+00  0.00000000E+00  0.00000000E+00
  0.00000000E+00  0.00000000E+00  0.00000000E+00
  0.00000000E+00  0.00000000E+00  0.00000000E+00
  0.00000000E+00  0.00000000E+00  0.00000000E+00
  0.00000000E+00  0.00000000E+00  0.00000000E+00
  0.00000000E+00  0.00000000E+00  0.00000000E+00
  0.00000000E+00  0.00000000E+00  0.00000000E+00
  0.00000000E+00  0.00000000E+00  0.00000000E+00
  0.00000000E+00  0.00000000E+00  0.00000000E+00
  0.00000000E+00  0.00000000E+00  0.00000000E+00
  0.00000000E+00  0.00000000E+00  0.00000000E+00
  0.00000000E+00  0.00000000E+00  0.00000000E+00
  0.00000000E+00  0.00000000E+00  0.00000000E+00
  0.00000000E+00  0.00000000E+00  0.00000000E+00
  0.00000000E+00  0.00000000E+00  0.00000000E+00
