Pd48 C6 H2 Br4                          
    1.000000000000000     
    11.1817229999999999    0.0000000000000000    0.0000000000000000
     0.0000000000000000   15.8133443000000007    0.0000000000000000
     0.0000000000000000    0.0000000000000000   15.6613826500000002
   Pd   C    H    Br
    48     6     2     4
Selective dynamics
Direct
  0.2500707125946633  0.0000032404977546  0.4034972316345460   T   T   T
  0.2484200091173818  0.2524981516338940  0.4044805787622892   T   T   T
  0.2465969689182330  0.4988597808056809  0.3939535450213185   T   T   T
  0.2534434245111754  0.7468453791640357  0.4033390697547148   T   T   T
  0.5000004252767027  0.9999809998832347  0.4043241454728630   T   T   T
  0.4985627141592985  0.2525454683025430  0.4035174328205784   T   T   T
  0.5000243248571650  0.5000017233913567  0.3824341431978198   T   T   T
  0.5014354790354858  0.7474487373113021  0.4035559617245568   T   T   T
  0.7499275500349114  0.9999760303007292  0.4035305155110436   T   T   T
  0.7465742073441390  0.2531554780694947  0.4033518813456638   T   T   T
  0.7534374711769445  0.5011332766659109  0.3939687506551195   T   T   T
  0.7515639375714684  0.7474964216865061  0.4045060278479511   T   T   T
  0.9999992485665459  0.0000019289310913  0.4025165496451848   T   T   T
  0.9965730668488177  0.2533761843188742  0.4057540792056500   T   T   T
  0.0000088192691123  0.4999916426880944  0.4021589311699998   T   T   T
  0.0034483201139892  0.7466219502090254  0.4057474144477382   T   T   T
  0.1222303075417841  0.1270670215865479  0.4870543287050921   T   T   T
  0.1198818233493242  0.3769365995265730  0.4899200256426539   T   T   T
  0.1392934434469666  0.6183784568255248  0.4927812139193648   T   T   T
  0.1282108920103724  0.8732504347237438  0.4873709122224597   T   T   T
  0.3732847977259226  0.1269625865254653  0.4876245085477819   T   T   T
  0.3683043202799183  0.3850611575941869  0.4882128323277755   T   T   T
  0.3900141899841287  0.6063417043673525  0.4913181382707776   T   T   T
  0.3773820951948750  0.8726895231035527  0.4881387027016899   T   T   T
  0.6226555978161343  0.1272909590507965  0.4881227649278443   T   T   T
  0.6100273141209982  0.3936108514177619  0.4912805004400198   T   T   T
  0.6317183019440336  0.6149027399961895  0.4882508570212565   T   T   T
  0.6266956355910196  0.8730272988004302  0.4876470721163884   T   T   T
  0.8717876303344880  0.1267332672551760  0.4873786508887861   T   T   T
  0.8607365726084097  0.3815930790597406  0.4927614857583151   T   T   T
  0.8801525614987540  0.6230552217134928  0.4899219143539426   T   T   T
  0.8777219250559796  0.8729329916970983  0.4870231135769600   T   T   T
  0.1249999995528412  0.1249999995257198  0.3192566142938844   F   F   F
  0.1249999995528412  0.3749999992095283  0.3192566142938844   F   F   F
  0.1249999995528412  0.6249999982609609  0.3192566142938844   F   F   F
  0.1249999995528412  0.8749999979447765  0.3192566142938844   F   F   F
  0.3749999986585237  0.1249999995257198  0.3192566142938844   F   F   F
  0.3749999986585237  0.3749999992095283  0.3192566142938844   F   F   F
  0.3749999986585237  0.6249999982609609  0.3192566142938844   F   F   F
  0.3749999986585237  0.8749999979447765  0.3192566142938844   F   F   F
  0.6249999977642062  0.1249999995257198  0.3192566142938844   F   F   F
  0.6249999977642062  0.3749999992095283  0.3192566142938844   F   F   F
  0.6249999977642062  0.6249999982609609  0.3192566142938844   F   F   F
  0.6249999977642062  0.8749999979447765  0.3192566142938844   F   F   F
  0.8749999968698887  0.1249999995257198  0.3192566142938844   F   F   F
  0.8749999968698887  0.3749999992095283  0.3192566142938844   F   F   F
  0.8749999968698887  0.6249999982609609  0.3192566142938844   F   F   F
  0.8749999968698887  0.8749999979447765  0.3192566142938844   F   F   F
  0.6000557316060480  0.5606209996410669  0.6071926578242994   T   T   T
  0.6212993359222310  0.4685024032509588  0.6039835105199955   T   T   T
  0.5241809778146731  0.4093721893135438  0.6141061983570566   T   T   T
  0.4000085311582282  0.4392818069082409  0.6071828683436706   T   T   T
  0.3787071585557200  0.5313915840227068  0.6039695919698431   T   T   T
  0.4758309884105145  0.5905165275951489  0.6141028930719727   T   T   T
  0.6646885596317702  0.5957465426363555  0.6460475268019366   T   T   T
  0.3353160004793025  0.4041307719512872  0.6460485585083617   T   T   T
  0.7877541696850088  0.4386227877884750  0.6364619982595059   T   T   T
  0.5432880918851239  0.3055320254559817  0.6781154215515315   T   T   T
  0.2122493622127379  0.5612708781710936  0.6364546063190630   T   T   T
  0.4566950750417931  0.6942959595322051  0.6782302860563689   T   T   T
 
  0.00000000E+00  0.00000000E+00  0.00000000E+00
  0.00000000E+00  0.00000000E+00  0.00000000E+00
  0.00000000E+00  0.00000000E+00  0.00000000E+00
  0.00000000E+00  0.00000000E+00  0.00000000E+00
  0.00000000E+00  0.00000000E+00  0.00000000E+00
  0.00000000E+00  0.00000000E+00  0.00000000E+00
  0.00000000E+00  0.00000000E+00  0.00000000E+00
  0.00000000E+00  0.00000000E+00  0.00000000E+00
  0.00000000E+00  0.00000000E+00  0.00000000E+00
  0.00000000E+00  0.00000000E+00  0.00000000E+00
  0.00000000E+00  0.00000000E+00  0.00000000E+00
  0.00000000E+00  0.00000000E+00  0.00000000E+00
  0.00000000E+00  0.00000000E+00  0.00000000E+00
  0.00000000E+00  0.00000000E+00  0.00000000E+00
  0.00000000E+00  0.00000000E+00  0.00000000E+00
  0.00000000E+00  0.00000000E+00  0.00000000E+00
  0.00000000E+00  0.00000000E+00  0.00000000E+00
  0.00000000E+00  0.00000000E+00  0.00000000E+00
  0.00000000E+00  0.00000000E+00  0.00000000E+00
  0.00000000E+00  0.00000000E+00  0.00000000E+00
  0.00000000E+00  0.00000000E+00  0.00000000E+00
  0.00000000E+00  0.00000000E+00  0.00000000E+00
  0.00000000E+00  0.00000000E+00  0.00000000E+00
  0.00000000E+00  0.00000000E+00  0.00000000E+00
  0.00000000E+00  0.00000000E+00  0.00000000E+00
  0.00000000E+00  0.00000000E+00  0.00000000E+00
  0.00000000E+00  0.00000000E+00  0.00000000E+00
  0.00000000E+00  0.00000000E+00  0.00000000E+00
  0.00000000E+00  0.00000000E+00  0.00000000E+00
  0.00000000E+00  0.00000000E+00  0.00000000E+00
  0.00000000E+00  0.00000000E+00  0.00000000E+00
  0.00000000E+00  0.00000000E+00  0.00000000E+00
  0.00000000E+00  0.00000000E+00  0.00000000E+00
  0.00000000E+00  0.00000000E+00  0.00000000E+00
  0.00000000E+00  0.00000000E+00  0.00000000E+00
  0.00000000E+00  0.00000000E+00  0.00000000E+00
  0.00000000E+00  0.00000000E+00  0.00000000E+00
  0.00000000E+00  0.00000000E+00  0.00000000E+00
  0.00000000E+00  0.00000000E+00  0.00000000E+00
  0.00000000E+00  0.00000000E+00  0.00000000E+00
  0.00000000E+00  0.00000000E+00  0.00000000E+00
  0.00000000E+00  0.00000000E+00  0.00000000E+00
  0.00000000E+00  0.00000000E+00  0.00000000E+00
  0.00000000E+00  0.00000000E+00  0.00000000E+00
  0.00000000E+00  0.00000000E+00  0.00000000E+00
  0.00000000E+00  0.00000000E+00  0.00000000E+00
  0.00000000E+00  0.00000000E+00  0.00000000E+00
  0.00000000E+00  0.00000000E+00  0.00000000E+00
  0.00000000E+00  0.00000000E+00  0.00000000E+00
  0.00000000E+00  0.00000000E+00  0.00000000E+00
  0.00000000E+00  0.00000000E+00  0.00000000E+00
  0.00000000E+00  0.00000000E+00  0.00000000E+00
  0.00000000E+00  0.00000000E+00  0.00000000E+00
  0.00000000E+00  0.00000000E+00  0.00000000E+00
  0.00000000E+00  0.00000000E+00  0.00000000E+00
  0.00000000E+00  0.00000000E+00  0.00000000E+00
  0.00000000E+00  0.00000000E+00  0.00000000E+00
  0.00000000E+00  0.00000000E+00  0.00000000E+00
  0.00000000E+00  0.00000000E+00  0.00000000E+00
  0.00000000E+00  0.00000000E+00  0.00000000E+00
