Ir48 C4 N2 F4                           
    1.000000000000000     
    10.9622135000000007    0.0000000000000000    0.0000000000000000
     0.0000000000000000   10.9622135000000007    0.0000000000000000
     0.0000000000000000    0.0000000000000000   16.7325000400000015
   Ir   C    N    F 
    48     4     2     4
Selective dynamics
Direct
 -0.0008772064894361  0.2494557182027250  0.4094855680146620   T   T   T
 -0.0000008687568497  0.4999995047982972  0.4094627677216089   T   T   T
  0.0008760574006932  0.7505421398158563  0.4094826705804689   T   T   T
 -0.0000013136989188  0.0000021413499563  0.4094736159984353   T   T   T
  0.2505648419326835  0.2505668867995708  0.4102573517572556   T   T   T
  0.2508037620306218  0.4998261809435165  0.4102905777387413   T   T   T
  0.2526998706671990  0.7473013297443677  0.4118985941329816   T   T   T
  0.2494555624340652 -0.0008761289307976  0.4094826758831918   T   T   T
  0.4998263910708359  0.2508064242905048  0.4102892619182117   T   T   T
  0.5000012249343938  0.5000004115184803  0.4111889910463893   T   T   T
  0.5001743062279771  0.7491957171960285  0.4102923840435370   T   T   T
  0.5000008007059938 -0.0000010172589152  0.4094627214728037   T   T   T
  0.7473032903312936  0.2526972222144946  0.4118981242584280   T   T   T
  0.7491971145178834  0.5001739484180966  0.4102895489462872   T   T   T
  0.7494342950316638  0.7494346608679920  0.4102584339888205   T   T   T
  0.7505446299143260  0.0008770105724253  0.4094853427698701   T   T   T
  0.1249500089049900  0.1249506239287808  0.5211315712577025   T   T   T
  0.1225679675271805  0.3745430878544047  0.5210557091541530   T   T   T
  0.1233572400386939  0.6246922319459766  0.5219505663740595   T   T   T
  0.1248535015875474  0.8751469160030710  0.5212634339964483   T   T   T
  0.3745450028296446  0.1225691282022932  0.5210573435950860   T   T   T
  0.3718835043500948  0.3718828540183132  0.5229183315447485   T   T   T
  0.3740744052881366  0.6259280817902652  0.5313304038513438   T   T   T
  0.3753102001342503  0.8766408601310366  0.5219525121741372   T   T   T
  0.6246918368274392  0.1233577164310883  0.5219551266073603   T   T   T
  0.6259281512760474  0.3740756192021052  0.5313291353340609   T   T   T
  0.6281198170261424  0.6281205862894751  0.5229171156851374   T   T   T
  0.6254553501377675  0.8774311514636790  0.5210576659612345   T   T   T
  0.8751470411725966  0.1248527847036187  0.5212652979924706   T   T   T
  0.8766407762155772  0.3753086932279461  0.5219533231442710   T   T   T
  0.8774296114583884  0.6254555082058271  0.5210553486998644   T   T   T
  0.8750473466378151  0.8750476773076650  0.5211289442395715   T   T   T
  0.1250000002280558  0.1250000002280558  0.2988196616194330   F   F   F
  0.1250000002280558  0.3749999997719442  0.2988196616194330   F   F   F
  0.1250000002280558  0.6249999993158326  0.2988196616194330   F   F   F
  0.1250000002280558  0.8749999988597210  0.2988196616194330   F   F   F
  0.3749999997719442  0.1250000002280558  0.2988196616194330   F   F   F
  0.3749999997719442  0.3749999997719442  0.2988196616194330   F   F   F
  0.3749999997719442  0.6249999993158326  0.2988196616194330   F   F   F
  0.3749999997719442  0.8749999988597210  0.2988196616194330   F   F   F
  0.6249999993158326  0.1250000002280558  0.2988196616194330   F   F   F
  0.6249999993158326  0.3749999997719442  0.2988196616194330   F   F   F
  0.6249999993158326  0.6249999993158326  0.2988196616194330   F   F   F
  0.6249999993158326  0.8749999988597210  0.2988196616194330   F   F   F
  0.8749999988597210  0.1250000002280558  0.2988196616194330   F   F   F
  0.8749999988597210  0.3749999997719442  0.2988196616194330   F   F   F
  0.8749999988597210  0.6249999993158326  0.2988196616194330   F   F   F
  0.8749999988597210  0.8749999988597210  0.2988196616194330   F   F   F
  0.5301105430385761  0.3764290135401711  0.6471331228849632   T   T   T
  0.6235764080290044  0.4698819864108649  0.6471324632698543   T   T   T
  0.4699017748035277  0.6235779512916385  0.6471345847659284   T   T   T
  0.3764245518759763  0.5301183724207803  0.6471352006884963   T   T   T
  0.5937021968408519  0.5936819446154193  0.6425977520397831   T   T   T
  0.4063022115612538  0.4063117481222467  0.6425971579501676   T   T   T
  0.2727277848822308  0.5512542579350291  0.6905161126628552   T   T   T
  0.4487756920796063  0.7272833150476088  0.6905087448764332   T   T   T
  0.5512284246515469  0.2727219919452201  0.6905056194891379   T   T   T
  0.7272677700222893  0.4487501847890439  0.6905108503047198   T   T   T
 
  0.00000000E+00  0.00000000E+00  0.00000000E+00
  0.00000000E+00  0.00000000E+00  0.00000000E+00
  0.00000000E+00  0.00000000E+00  0.00000000E+00
  0.00000000E+00  0.00000000E+00  0.00000000E+00
  0.00000000E+00  0.00000000E+00  0.00000000E+00
  0.00000000E+00  0.00000000E+00  0.00000000E+00
  0.00000000E+00  0.00000000E+00  0.00000000E+00
  0.00000000E+00  0.00000000E+00  0.00000000E+00
  0.00000000E+00  0.00000000E+00  0.00000000E+00
  0.00000000E+00  0.00000000E+00  0.00000000E+00
  0.00000000E+00  0.00000000E+00  0.00000000E+00
  0.00000000E+00  0.00000000E+00  0.00000000E+00
  0.00000000E+00  0.00000000E+00  0.00000000E+00
  0.00000000E+00  0.00000000E+00  0.00000000E+00
  0.00000000E+00  0.00000000E+00  0.00000000E+00
  0.00000000E+00  0.00000000E+00  0.00000000E+00
  0.00000000E+00  0.00000000E+00  0.00000000E+00
  0.00000000E+00  0.00000000E+00  0.00000000E+00
  0.00000000E+00  0.00000000E+00  0.00000000E+00
  0.00000000E+00  0.00000000E+00  0.00000000E+00
  0.00000000E+00  0.00000000E+00  0.00000000E+00
  0.00000000E+00  0.00000000E+00  0.00000000E+00
  0.00000000E+00  0.00000000E+00  0.00000000E+00
  0.00000000E+00  0.00000000E+00  0.00000000E+00
  0.00000000E+00  0.00000000E+00  0.00000000E+00
  0.00000000E+00  0.00000000E+00  0.00000000E+00
  0.00000000E+00  0.00000000E+00  0.00000000E+00
  0.00000000E+00  0.00000000E+00  0.00000000E+00
  0.00000000E+00  0.00000000E+00  0.00000000E+00
  0.00000000E+00  0.00000000E+00  0.00000000E+00
  0.00000000E+00  0.00000000E+00  0.00000000E+00
  0.00000000E+00  0.00000000E+00  0.00000000E+00
  0.00000000E+00  0.00000000E+00  0.00000000E+00
  0.00000000E+00  0.00000000E+00  0.00000000E+00
  0.00000000E+00  0.00000000E+00  0.00000000E+00
  0.00000000E+00  0.00000000E+00  0.00000000E+00
  0.00000000E+00  0.00000000E+00  0.00000000E+00
  0.00000000E+00  0.00000000E+00  0.00000000E+00
  0.00000000E+00  0.00000000E+00  0.00000000E+00
  0.00000000E+00  0.00000000E+00  0.00000000E+00
  0.00000000E+00  0.00000000E+00  0.00000000E+00
  0.00000000E+00  0.00000000E+00  0.00000000E+00
  0.00000000E+00  0.00000000E+00  0.00000000E+00
  0.00000000E+00  0.00000000E+00  0.00000000E+00
  0.00000000E+00  0.00000000E+00  0.00000000E+00
  0.00000000E+00  0.00000000E+00  0.00000000E+00
  0.00000000E+00  0.00000000E+00  0.00000000E+00
  0.00000000E+00  0.00000000E+00  0.00000000E+00
  0.00000000E+00  0.00000000E+00  0.00000000E+00
  0.00000000E+00  0.00000000E+00  0.00000000E+00
  0.00000000E+00  0.00000000E+00  0.00000000E+00
  0.00000000E+00  0.00000000E+00  0.00000000E+00
  0.00000000E+00  0.00000000E+00  0.00000000E+00
  0.00000000E+00  0.00000000E+00  0.00000000E+00
  0.00000000E+00  0.00000000E+00  0.00000000E+00
  0.00000000E+00  0.00000000E+00  0.00000000E+00
  0.00000000E+00  0.00000000E+00  0.00000000E+00
  0.00000000E+00  0.00000000E+00  0.00000000E+00
