H2 Au48 C6 F4                           
    1.000000000000000     
    11.7981859999999994    0.0000000000000000    0.0000000000000000
    -5.8990929999999997   10.2175279999999997    0.0000000000000000
     0.0000000000000000    0.0000000000000000   18.0408960000000000
   H    Au   C    F 
     2    48     6     4
Selective dynamics
Direct
  0.7459987136128845  0.5018770419504790  0.7832463199344559   T   T   T
  0.5024174207474914  0.7473844395543381  0.7847353674703044   T   T   T
  0.0833330000000032  0.1666669999999968  0.3325779999999980   F   F   F
  0.0833330000000032  0.4166669999999968  0.3325779999999980   F   F   F
  0.0833330000000032  0.6666669999999968  0.3325779999999980   F   F   F
  0.0833330000000032  0.9166669999999968  0.3325779999999980   F   F   F
  0.3333330000000032  0.1666669999999968  0.3325779999999980   F   F   F
  0.3333330000000032  0.4166669999999968  0.3325779999999980   F   F   F
  0.3333330000000032  0.6666669999999968  0.3325779999999980   F   F   F
  0.3333330000000032  0.9166669999999968  0.3325779999999980   F   F   F
  0.5833330000000032  0.1666669999999968  0.3325779999999980   F   F   F
  0.5833330000000032  0.4166669999999968  0.3325779999999980   F   F   F
  0.5833330000000032  0.6666669999999968  0.3325779999999980   F   F   F
  0.5833330000000032  0.9166669999999968  0.3325779999999980   F   F   F
  0.8333330000000032  0.1666669999999968  0.3325779999999980   F   F   F
  0.8333330000000032  0.4166669999999968  0.3325779999999980   F   F   F
  0.8333330000000032  0.6666669999999968  0.3325779999999980   F   F   F
  0.8333330000000032  0.9166669999999968  0.3325779999999980   F   F   F
  0.2500107598401797  0.2499277547134966  0.6053143466609257   T   T   T
  0.2499006372982109  0.4999489392555176  0.6052129951642797   T   T   T
  0.2503111475178201  0.7499548419053070  0.6053383896819753   T   T   T
  0.2500972502401240  0.9999653061694360  0.6051801154276930   T   T   T
  0.5000287269697878  0.2498370968701451  0.6052994651811545   T   T   T
  0.4996808679523070  0.4996069522003026  0.6036170422227443   T   T   T
  0.5001814211055233  0.7498638904118948  0.6049441742385184   T   T   T
  0.5001539694605412  0.9997824634032995  0.6053561146967184   T   T   T
  0.7499491290870068  0.2501968102379735  0.6053728364048681   T   T   T
  0.7499480099723215  0.5000756258076038  0.6048959971393089   T   T   T
  0.7503249333246274  0.7502894579730395  0.6032577073797611   T   T   T
  0.7501042449077318  0.0001463462697799  0.6050612870413659   T   T   T
  0.0000327106172406  0.2500261211784007  0.6051840179637438   T   T   T
  0.9998805478258532  0.5001321499445481  0.6053729798723069   T   T   T
  0.0002183851140245  0.7500360854464105  0.6050755446610410   T   T   T
  0.0000842036829241  0.0000021379252360  0.6051421983504000   T   T   T
  0.1667700689232419  0.0833465556084647  0.4689544153942435   T   T   T
  0.1667321000559525  0.3333293993721753  0.4689648048741972   T   T   T
  0.1665539573215540  0.5832985677499423  0.4689642188018297   T   T   T
  0.1669271468349720  0.8333409893654604  0.4688832021270386   T   T   T
  0.4167377667694296  0.0831769804148763  0.4689516110164007   T   T   T
  0.4164022289504388  0.3327590846074031  0.4687681575587916   T   T   T
  0.4164564856495403  0.5834649864462236  0.4686724518024690   T   T   T
  0.4166010070133339  0.8334549442876451  0.4689182652126007   T   T   T
  0.6667639543186894  0.0835482796078395  0.4689408657180678   T   T   T
  0.6665891900211065  0.3331846440510020  0.4689166897036401   T   T   T
  0.6667641711441661  0.5831483880938890  0.4683842493781540   T   T   T
  0.6665223200406203  0.8335746131929227  0.4685544673812103   T   T   T
  0.9167434092152646  0.0833755410257098  0.4688997334290335   T   T   T
  0.9167119887029642  0.3333593507973660  0.4689416176801373   T   T   T
  0.9168244344722183  0.5833976287320510  0.4688642267919292   T   T   T
  0.9172733096513497  0.8336268836102789  0.4685927458032566   T   T   T
  0.6926967291422486  0.5553405375005553  0.7841081985046046   T   T   T
  0.5564825696441460  0.4888415469442862  0.7849673659745733   T   T   T
  0.4884158786758022  0.5575656742514354  0.7850467585792558   T   T   T
  0.5555791603493105  0.6937761813872783  0.7846486998255315   T   T   T
  0.6917480841726231  0.7602104926762294  0.7846100302094570   T   T   T
  0.7598311214798699  0.6915252317092424  0.7842283714652467   T   T   T
  0.4892242352279794  0.3563663183012551  0.7861601872695800   T   T   T
  0.3559775458337668  0.4908114104323431  0.7859361979382982   T   T   T
  0.7591835632682731  0.8927234551309056  0.7852897811575943   T   T   T
  0.8922987336166699  0.7585902294351143  0.7844468563177855   T   T   T
 
  0.00000000E+00  0.00000000E+00  0.00000000E+00
  0.00000000E+00  0.00000000E+00  0.00000000E+00
  0.00000000E+00  0.00000000E+00  0.00000000E+00
  0.00000000E+00  0.00000000E+00  0.00000000E+00
  0.00000000E+00  0.00000000E+00  0.00000000E+00
  0.00000000E+00  0.00000000E+00  0.00000000E+00
  0.00000000E+00  0.00000000E+00  0.00000000E+00
  0.00000000E+00  0.00000000E+00  0.00000000E+00
  0.00000000E+00  0.00000000E+00  0.00000000E+00
  0.00000000E+00  0.00000000E+00  0.00000000E+00
  0.00000000E+00  0.00000000E+00  0.00000000E+00
  0.00000000E+00  0.00000000E+00  0.00000000E+00
  0.00000000E+00  0.00000000E+00  0.00000000E+00
  0.00000000E+00  0.00000000E+00  0.00000000E+00
  0.00000000E+00  0.00000000E+00  0.00000000E+00
  0.00000000E+00  0.00000000E+00  0.00000000E+00
  0.00000000E+00  0.00000000E+00  0.00000000E+00
  0.00000000E+00  0.00000000E+00  0.00000000E+00
  0.00000000E+00  0.00000000E+00  0.00000000E+00
  0.00000000E+00  0.00000000E+00  0.00000000E+00
  0.00000000E+00  0.00000000E+00  0.00000000E+00
  0.00000000E+00  0.00000000E+00  0.00000000E+00
  0.00000000E+00  0.00000000E+00  0.00000000E+00
  0.00000000E+00  0.00000000E+00  0.00000000E+00
  0.00000000E+00  0.00000000E+00  0.00000000E+00
  0.00000000E+00  0.00000000E+00  0.00000000E+00
  0.00000000E+00  0.00000000E+00  0.00000000E+00
  0.00000000E+00  0.00000000E+00  0.00000000E+00
  0.00000000E+00  0.00000000E+00  0.00000000E+00
  0.00000000E+00  0.00000000E+00  0.00000000E+00
  0.00000000E+00  0.00000000E+00  0.00000000E+00
  0.00000000E+00  0.00000000E+00  0.00000000E+00
  0.00000000E+00  0.00000000E+00  0.00000000E+00
  0.00000000E+00  0.00000000E+00  0.00000000E+00
  0.00000000E+00  0.00000000E+00  0.00000000E+00
  0.00000000E+00  0.00000000E+00  0.00000000E+00
  0.00000000E+00  0.00000000E+00  0.00000000E+00
  0.00000000E+00  0.00000000E+00  0.00000000E+00
  0.00000000E+00  0.00000000E+00  0.00000000E+00
  0.00000000E+00  0.00000000E+00  0.00000000E+00
  0.00000000E+00  0.00000000E+00  0.00000000E+00
  0.00000000E+00  0.00000000E+00  0.00000000E+00
  0.00000000E+00  0.00000000E+00  0.00000000E+00
  0.00000000E+00  0.00000000E+00  0.00000000E+00
  0.00000000E+00  0.00000000E+00  0.00000000E+00
  0.00000000E+00  0.00000000E+00  0.00000000E+00
  0.00000000E+00  0.00000000E+00  0.00000000E+00
  0.00000000E+00  0.00000000E+00  0.00000000E+00
  0.00000000E+00  0.00000000E+00  0.00000000E+00
  0.00000000E+00  0.00000000E+00  0.00000000E+00
  0.00000000E+00  0.00000000E+00  0.00000000E+00
  0.00000000E+00  0.00000000E+00  0.00000000E+00
  0.00000000E+00  0.00000000E+00  0.00000000E+00
  0.00000000E+00  0.00000000E+00  0.00000000E+00
  0.00000000E+00  0.00000000E+00  0.00000000E+00
  0.00000000E+00  0.00000000E+00  0.00000000E+00
  0.00000000E+00  0.00000000E+00  0.00000000E+00
  0.00000000E+00  0.00000000E+00  0.00000000E+00
  0.00000000E+00  0.00000000E+00  0.00000000E+00
  0.00000000E+00  0.00000000E+00  0.00000000E+00
