Pt48 C6 H2 Br4                          
    1.000000000000000     
    11.2480068000000006    0.0000000000000000    0.0000000000000000
     0.0000000000000000   11.2480068000000006    0.0000000000000000
     0.0000000000000000    0.0000000000000000   16.9193801700000002
   Pt   C    H    Br
    48     6     2     4
Selective dynamics
Direct
  0.2503729367183141  0.9997334714471862  0.4113394996452371   T   T   T
  0.2499143415775009  0.2499273726151827  0.4111486549083025   T   T   T
  0.2489093905088424  0.4994528505880353  0.4107954036303951   T   T   T
  0.2494907534249293  0.7505079560893719  0.4109142267352865   T   T   T
  0.4999996076842166  0.9999979225481042  0.4116403661838675   T   T   T
  0.4994397163414277  0.2489118949663052  0.4107817360927442   T   T   T
  0.4999874811690219  0.5000083053897271  0.4102290418743237   T   T   T
  0.5005429741217000  0.7510893649839332  0.4107964009455358   T   T   T
  0.7496179885679268  0.0002709702449764  0.4113428950130071   T   T   T
  0.7505154363196596  0.2494832191972591  0.4109061494441164   T   T   T
  0.7510863310541893  0.5005549400590183  0.4107866012784811   T   T   T
  0.7500723026126082  0.7500802892850089  0.4111472118399178   T   T   T
  0.9999994734792921  0.0000049808951985  0.4110032638204117   T   T   T
  0.9997317247388295  0.2503809393107659  0.4113493622449624   T   T   T
  0.0000035544906609  0.4999944422347724  0.4116438305381322   T   T   T
  0.0002702418337321  0.7496252994347259  0.4113353196390506   T   T   T
  0.1248433041513763  0.1248523923570204  0.5271238696038623   T   T   T
  0.1253880295325445  0.3741496152917847  0.5270792512833964   T   T   T
  0.1245328978492637  0.6253710424983083  0.5288078601263493   T   T   T
  0.1246679519458596  0.8753277398577382  0.5268211181130340   T   T   T
  0.3741432488158694  0.1253898367560211  0.5270833619266568   T   T   T
  0.3750633743432559  0.3750772191745995  0.5276039077212147   T   T   T
  0.3754462200705717  0.6245605655032023  0.5232716131459654   T   T   T
  0.3746314622770086  0.8754611513601134  0.5288035431243898   T   T   T
  0.6253710658712848  0.1245321803791199  0.5288133319616648   T   T   T
  0.6245373118408182  0.3754565584213267  0.5232266254056199   T   T   T
  0.6249261430044015  0.6249374143748767  0.5275921033589483   T   T   T
  0.6258501798751652  0.8746061240842735  0.5270699488475827   T   T   T
  0.8753297817127503  0.1246666048059524  0.5268150098819149   T   T   T
  0.8754649141012152  0.3746286199174023  0.5288156458402753   T   T   T
  0.8746042210275959  0.6258619077892007  0.5270624750773152   T   T   T
  0.8751447943859034  0.8751500201020406  0.5271074030774656   T   T   T
  0.1250000008890453  0.1250000000000000  0.2955190999765804   F   F   F
  0.1250000008890453  0.3750000008890453  0.2955190999765804   F   F   F
  0.1250000008890453  0.6250000026671358  0.2955190999765804   F   F   F
  0.1250000008890453  0.8750000026671358  0.2955190999765804   F   F   F
  0.3750000017780906  0.1250000000000000  0.2955190999765804   F   F   F
  0.3750000017780906  0.3750000008890453  0.2955190999765804   F   F   F
  0.3750000017780906  0.6250000026671358  0.2955190999765804   F   F   F
  0.3750000017780906  0.8750000026671358  0.2955190999765804   F   F   F
  0.6250000026671358  0.1250000000000000  0.2955190999765804   F   F   F
  0.6250000026671358  0.3750000008890453  0.2955190999765804   F   F   F
  0.6250000026671358  0.6250000026671358  0.2955190999765804   F   F   F
  0.6250000026671358  0.8750000026671358  0.2955190999765804   F   F   F
  0.8750000035561882  0.1250000000000000  0.2955190999765804   F   F   F
  0.8750000026671358  0.3750000008890453  0.2955190999765804   F   F   F
  0.8750000035561882  0.6250000026671358  0.2955190999765804   F   F   F
  0.8750000035561882  0.8750000026671358  0.2955190999765804   F   F   F
  0.4120033205162059  0.4119788308914494  0.7024814689002312   T   T   T
  0.3794945854381666  0.5323454648030932  0.7043516238639640   T   T   T
  0.4676684971873470  0.6205461081719790  0.7043604749629395   T   T   T
  0.5879971845275449  0.5880352107479965  0.7024844359599456   T   T   T
  0.6205032197906064  0.4676625877890643  0.7042422680740970   T   T   T
  0.5323293964280609  0.3794529937513076  0.7042594854043784   T   T   T
  0.3435627531326446  0.3435497637973697  0.7041088567451226   T   T   T
  0.6564547470261246  0.6564523864419201  0.7041115756549061   T   T   T
  0.2151988472519264  0.5697160703671287  0.7068521136771295   T   T   T
  0.4302955050642225  0.7847617082942833  0.7069247064249353   T   T   T
  0.7848637725043019  0.4302685599683329  0.7065946742772553   T   T   T
  0.5697383043169424  0.2151970870991633  0.7066872941938627   T   T   T
 
  0.00000000E+00  0.00000000E+00  0.00000000E+00
  0.00000000E+00  0.00000000E+00  0.00000000E+00
  0.00000000E+00  0.00000000E+00  0.00000000E+00
  0.00000000E+00  0.00000000E+00  0.00000000E+00
  0.00000000E+00  0.00000000E+00  0.00000000E+00
  0.00000000E+00  0.00000000E+00  0.00000000E+00
  0.00000000E+00  0.00000000E+00  0.00000000E+00
  0.00000000E+00  0.00000000E+00  0.00000000E+00
  0.00000000E+00  0.00000000E+00  0.00000000E+00
  0.00000000E+00  0.00000000E+00  0.00000000E+00
  0.00000000E+00  0.00000000E+00  0.00000000E+00
  0.00000000E+00  0.00000000E+00  0.00000000E+00
  0.00000000E+00  0.00000000E+00  0.00000000E+00
  0.00000000E+00  0.00000000E+00  0.00000000E+00
  0.00000000E+00  0.00000000E+00  0.00000000E+00
  0.00000000E+00  0.00000000E+00  0.00000000E+00
  0.00000000E+00  0.00000000E+00  0.00000000E+00
  0.00000000E+00  0.00000000E+00  0.00000000E+00
  0.00000000E+00  0.00000000E+00  0.00000000E+00
  0.00000000E+00  0.00000000E+00  0.00000000E+00
  0.00000000E+00  0.00000000E+00  0.00000000E+00
  0.00000000E+00  0.00000000E+00  0.00000000E+00
  0.00000000E+00  0.00000000E+00  0.00000000E+00
  0.00000000E+00  0.00000000E+00  0.00000000E+00
  0.00000000E+00  0.00000000E+00  0.00000000E+00
  0.00000000E+00  0.00000000E+00  0.00000000E+00
  0.00000000E+00  0.00000000E+00  0.00000000E+00
  0.00000000E+00  0.00000000E+00  0.00000000E+00
  0.00000000E+00  0.00000000E+00  0.00000000E+00
  0.00000000E+00  0.00000000E+00  0.00000000E+00
  0.00000000E+00  0.00000000E+00  0.00000000E+00
  0.00000000E+00  0.00000000E+00  0.00000000E+00
  0.00000000E+00  0.00000000E+00  0.00000000E+00
  0.00000000E+00  0.00000000E+00  0.00000000E+00
  0.00000000E+00  0.00000000E+00  0.00000000E+00
  0.00000000E+00  0.00000000E+00  0.00000000E+00
  0.00000000E+00  0.00000000E+00  0.00000000E+00
  0.00000000E+00  0.00000000E+00  0.00000000E+00
  0.00000000E+00  0.00000000E+00  0.00000000E+00
  0.00000000E+00  0.00000000E+00  0.00000000E+00
  0.00000000E+00  0.00000000E+00  0.00000000E+00
  0.00000000E+00  0.00000000E+00  0.00000000E+00
  0.00000000E+00  0.00000000E+00  0.00000000E+00
  0.00000000E+00  0.00000000E+00  0.00000000E+00
  0.00000000E+00  0.00000000E+00  0.00000000E+00
  0.00000000E+00  0.00000000E+00  0.00000000E+00
  0.00000000E+00  0.00000000E+00  0.00000000E+00
  0.00000000E+00  0.00000000E+00  0.00000000E+00
  0.00000000E+00  0.00000000E+00  0.00000000E+00
  0.00000000E+00  0.00000000E+00  0.00000000E+00
  0.00000000E+00  0.00000000E+00  0.00000000E+00
  0.00000000E+00  0.00000000E+00  0.00000000E+00
  0.00000000E+00  0.00000000E+00  0.00000000E+00
  0.00000000E+00  0.00000000E+00  0.00000000E+00
  0.00000000E+00  0.00000000E+00  0.00000000E+00
  0.00000000E+00  0.00000000E+00  0.00000000E+00
  0.00000000E+00  0.00000000E+00  0.00000000E+00
  0.00000000E+00  0.00000000E+00  0.00000000E+00
  0.00000000E+00  0.00000000E+00  0.00000000E+00
  0.00000000E+00  0.00000000E+00  0.00000000E+00
