Cu  C  H Cl                             
    1.000000000000000     
    10.2424774999999997    0.0000000000000000    0.0000000000000000
     0.0000000000000000   10.2424774999999997    0.0000000000000000
     0.0000000000000000    0.0000000000000000   23.4318939600000000
   Cu   C    H    Cl
    64     6     4     2
Selective dynamics
Direct
  0.2499999995118358  0.0000000000000000  0.3200765594451340   F   F   F
  0.0000000000000000  0.4999999990236716  0.3200765594451340   F   F   F
  0.2499999995118358  0.2499999995118358  0.3200765594451340   F   F   F
  0.2499999995118358  0.4999999990236716  0.3200765594451340   F   F   F
  0.2499999995118358  0.7499999985355075  0.3200765594451340   F   F   F
  0.4999999990236716  0.0000000000000000  0.3200765594451340   F   F   F
  0.4999999990236716  0.2499999995118358  0.3200765594451340   F   F   F
  0.0000000000000000  0.7499999985355075  0.3200765594451340   F   F   F
  0.4999999990236716  0.4999999990236716  0.3200765594451340   F   F   F
  0.4999999990236716  0.7499999985355075  0.3200765594451340   F   F   F
  0.7499999985355075  0.0000000000000000  0.3200765594451340   F   F   F
  0.7499999985355075  0.2499999995118358  0.3200765594451340   F   F   F
  0.7499999985355075  0.4999999990236716  0.3200765594451340   F   F   F
  0.7499999985355075  0.7499999985355075  0.3200765594451340   F   F   F
  0.0000000000000000  0.0000000000000000  0.3200765594451340   F   F   F
  0.0000000000000000  0.2499999995118358  0.3200765594451340   F   F   F
  0.2496420846489361  0.9997921985348620  0.4737791090323826   T   T   T
  0.2502699483600742  0.2502852852765002  0.4740472992302199   T   T   T
  0.2511969625500691  0.5004142846865561  0.4744679310480028   T   T   T
  0.2508783393262182  0.7491311026892471  0.4743406413111196   T   T   T
  0.5000063895022906  0.0000080324238738  0.4735295465596009   T   T   T
  0.5004159429205919  0.2512017289671530  0.4744657507159190   T   T   T
  0.5000064356337743  0.4999992161367933  0.4745966174532196   T   T   T
  0.4995955586225900  0.7488127982765034  0.4744591640069315   T   T   T
  0.7503682282967218  0.0002181200631869  0.4737741834022696   T   T   T
  0.7491302545425877  0.2508839673052520  0.4743384222816092   T   T   T
  0.7488111991064887  0.4995908399830971  0.4744612449710886   T   T   T
  0.7497393675284161  0.7497390678717706  0.4740396292749884   T   T   T
  0.0000077829597884  0.0000032190512963  0.4740562943133425   T   T   T
  0.9997972090325825  0.2496474574413047  0.4737794337699419   T   T   T
  0.0000138651820576  0.5000043966423774  0.4735336672670097   T   T   T
  0.0002211590852022  0.7503642114755118  0.4737779803631720   T   T   T
  0.1248095803026113  0.1248170778798007  0.5491490246857088   T   T   T
  0.1236537810127548  0.3752365743510870  0.5489402722924571   T   T   T
  0.1244274531297002  0.6249176298702172  0.5490804678708984   T   T   T
  0.1255823231004817  0.8744354050814663  0.5495145658423550   T   T   T
  0.3752359826447993  0.1236609528689718  0.5489483214866432   T   T   T
  0.3745176053755009  0.3745231113041037  0.5497738595244198   T   T   T
  0.3741760689486486  0.6258352229965800  0.5522848939352781   T   T   T
  0.3751027541560789  0.8756017755962149  0.5490817876726457   T   T   T
  0.6249213032492573  0.1244265912815146  0.5490847234269900   T   T   T
  0.6258388193296198  0.3741759179644926  0.5522870910707189   T   T   T
  0.6255059894324935  0.6254946689440477  0.5497606061414549   T   T   T
  0.6247833627498723  0.8763573835333976  0.5489494236872616   T   T   T
  0.8744317075012968  0.1255898509095489  0.5495164394566849   T   T   T
  0.8756028482843373  0.3751075890983395  0.5490804673571221   T   T   T
  0.8763597429007490  0.6247772936927242  0.5489480807685991   T   T   T
  0.8752148957839460  0.8752041199145927  0.5491489126314893   T   T   T
  0.1250000002440785  0.1249999992677573  0.3973486452223582   F   F   F
  0.1250000002440785  0.3749999997559215  0.3973486452223582   F   F   F
  0.1250000002440785  0.6249999982914289  0.3973486452223582   F   F   F
  0.1250000002440785  0.8749999987795931  0.3973486452223582   F   F   F
  0.3749999997559215  0.1249999992677573  0.3973486452223582   F   F   F
  0.3749999997559215  0.3749999997559215  0.3973486452223582   F   F   F
  0.3749999997559215  0.6249999982914289  0.3973486452223582   F   F   F
  0.3749999997559215  0.8749999987795931  0.3973486452223582   F   F   F
  0.6249999982914289  0.1249999992677573  0.3973486452223582   F   F   F
  0.6249999982914289  0.3749999997559215  0.3973486452223582   F   F   F
  0.6249999992677573  0.6249999982914289  0.3973486452223582   F   F   F
  0.6249999992677573  0.8749999987795931  0.3973486452223582   F   F   F
  0.8749999987795931  0.1249999992677573  0.3973486452223582   F   F   F
  0.8749999978032648  0.3749999997559215  0.3973486452223582   F   F   F
  0.8749999987795931  0.6249999982914289  0.3973486452223582   F   F   F
  0.8749999987795931  0.8749999987795931  0.3973486452223582   F   F   F
  0.5967659755415776  0.5967836520276444  0.6461364216963571   T   T   T
  0.6343175213588897  0.4634078095049626  0.6450236267391795   T   T   T
  0.5363250370579056  0.3654707821566829  0.6450226394243207   T   T   T
  0.4029631470846493  0.4029427352596722  0.6461155118475853   T   T   T
  0.3654916544874939  0.5363403832303240  0.6450371914604267   T   T   T
  0.4634318301653371  0.6343422260030334  0.6450145957741783   T   T   T
  0.7357462171730701  0.4374932995714212  0.6532625519039484   T   T   T
  0.5622661763840929  0.2640594075772527  0.6532605927617470   T   T   T
  0.2640388679602548  0.5622789483991779  0.6532680598759621   T   T   T
  0.4375180484143003  0.7357266910507188  0.6532709794492306   T   T   T
  0.7116372946262521  0.7116436658547800  0.6677430698034496   T   T   T
  0.2881236582326957  0.2881231352282429  0.6678360153601957   T   T   T
 
  0.00000000E+00  0.00000000E+00  0.00000000E+00
  0.00000000E+00  0.00000000E+00  0.00000000E+00
  0.00000000E+00  0.00000000E+00  0.00000000E+00
  0.00000000E+00  0.00000000E+00  0.00000000E+00
  0.00000000E+00  0.00000000E+00  0.00000000E+00
  0.00000000E+00  0.00000000E+00  0.00000000E+00
  0.00000000E+00  0.00000000E+00  0.00000000E+00
  0.00000000E+00  0.00000000E+00  0.00000000E+00
  0.00000000E+00  0.00000000E+00  0.00000000E+00
  0.00000000E+00  0.00000000E+00  0.00000000E+00
  0.00000000E+00  0.00000000E+00  0.00000000E+00
  0.00000000E+00  0.00000000E+00  0.00000000E+00
  0.00000000E+00  0.00000000E+00  0.00000000E+00
  0.00000000E+00  0.00000000E+00  0.00000000E+00
  0.00000000E+00  0.00000000E+00  0.00000000E+00
  0.00000000E+00  0.00000000E+00  0.00000000E+00
  0.00000000E+00  0.00000000E+00  0.00000000E+00
  0.00000000E+00  0.00000000E+00  0.00000000E+00
  0.00000000E+00  0.00000000E+00  0.00000000E+00
  0.00000000E+00  0.00000000E+00  0.00000000E+00
  0.00000000E+00  0.00000000E+00  0.00000000E+00
  0.00000000E+00  0.00000000E+00  0.00000000E+00
  0.00000000E+00  0.00000000E+00  0.00000000E+00
  0.00000000E+00  0.00000000E+00  0.00000000E+00
  0.00000000E+00  0.00000000E+00  0.00000000E+00
  0.00000000E+00  0.00000000E+00  0.00000000E+00
  0.00000000E+00  0.00000000E+00  0.00000000E+00
  0.00000000E+00  0.00000000E+00  0.00000000E+00
  0.00000000E+00  0.00000000E+00  0.00000000E+00
  0.00000000E+00  0.00000000E+00  0.00000000E+00
  0.00000000E+00  0.00000000E+00  0.00000000E+00
  0.00000000E+00  0.00000000E+00  0.00000000E+00
  0.00000000E+00  0.00000000E+00  0.00000000E+00
  0.00000000E+00  0.00000000E+00  0.00000000E+00
  0.00000000E+00  0.00000000E+00  0.00000000E+00
  0.00000000E+00  0.00000000E+00  0.00000000E+00
  0.00000000E+00  0.00000000E+00  0.00000000E+00
  0.00000000E+00  0.00000000E+00  0.00000000E+00
  0.00000000E+00  0.00000000E+00  0.00000000E+00
  0.00000000E+00  0.00000000E+00  0.00000000E+00
  0.00000000E+00  0.00000000E+00  0.00000000E+00
  0.00000000E+00  0.00000000E+00  0.00000000E+00
  0.00000000E+00  0.00000000E+00  0.00000000E+00
  0.00000000E+00  0.00000000E+00  0.00000000E+00
  0.00000000E+00  0.00000000E+00  0.00000000E+00
  0.00000000E+00  0.00000000E+00  0.00000000E+00
  0.00000000E+00  0.00000000E+00  0.00000000E+00
  0.00000000E+00  0.00000000E+00  0.00000000E+00
  0.00000000E+00  0.00000000E+00  0.00000000E+00
  0.00000000E+00  0.00000000E+00  0.00000000E+00
  0.00000000E+00  0.00000000E+00  0.00000000E+00
  0.00000000E+00  0.00000000E+00  0.00000000E+00
  0.00000000E+00  0.00000000E+00  0.00000000E+00
  0.00000000E+00  0.00000000E+00  0.00000000E+00
  0.00000000E+00  0.00000000E+00  0.00000000E+00
  0.00000000E+00  0.00000000E+00  0.00000000E+00
  0.00000000E+00  0.00000000E+00  0.00000000E+00
  0.00000000E+00  0.00000000E+00  0.00000000E+00
  0.00000000E+00  0.00000000E+00  0.00000000E+00
  0.00000000E+00  0.00000000E+00  0.00000000E+00
  0.00000000E+00  0.00000000E+00  0.00000000E+00
  0.00000000E+00  0.00000000E+00  0.00000000E+00
  0.00000000E+00  0.00000000E+00  0.00000000E+00
  0.00000000E+00  0.00000000E+00  0.00000000E+00
  0.00000000E+00  0.00000000E+00  0.00000000E+00
  0.00000000E+00  0.00000000E+00  0.00000000E+00
  0.00000000E+00  0.00000000E+00  0.00000000E+00
  0.00000000E+00  0.00000000E+00  0.00000000E+00
  0.00000000E+00  0.00000000E+00  0.00000000E+00
  0.00000000E+00  0.00000000E+00  0.00000000E+00
  0.00000000E+00  0.00000000E+00  0.00000000E+00
  0.00000000E+00  0.00000000E+00  0.00000000E+00
  0.00000000E+00  0.00000000E+00  0.00000000E+00
  0.00000000E+00  0.00000000E+00  0.00000000E+00
  0.00000000E+00  0.00000000E+00  0.00000000E+00
  0.00000000E+00  0.00000000E+00  0.00000000E+00
