Au  C  N Br                             
    1.000000000000000     
    11.7981856999999994    0.0000000000000000    0.0000000000000000
     0.0000000000000000   16.6851543000000007    0.0000000000000000
     0.0000000000000000    0.0000000000000000   22.4243196299999994
   Au   C    N    Br
    64     4     2     4
Selective dynamics
Direct
  0.0000000016951773  0.2499999991010000  0.3344583079330619   F   F   F
  0.7500000012713812  0.7499999979023286  0.3344583079330619   F   F   F
  0.0000000016951773  0.4999999988013286  0.3344583079330619   F   F   F
  0.0000000016951773  0.7499999979023286  0.3344583079330619   F   F   F
  0.0000000016951773  0.0000000000000000  0.3344583079330619   F   F   F
  0.2500000004237961  0.2499999991010000  0.3344583079330619   F   F   F
  0.2500000004237961  0.4999999988013286  0.3344583079330619   F   F   F
  0.7500000012713812  0.0000000000000000  0.3344583079330619   F   F   F
  0.2500000004237961  0.7499999979023286  0.3344583079330619   F   F   F
  0.2500000004237961  0.0000000000000000  0.3344583079330619   F   F   F
  0.5000000008475851  0.2499999991010000  0.3344583079330619   F   F   F
  0.5000000008475851  0.4999999988013286  0.3344583079330619   F   F   F
  0.5000000008475851  0.7499999979023286  0.3344583079330619   F   F   F
  0.5000000008475851  0.0000000000000000  0.3344583079330619   F   F   F
  0.7500000012713812  0.2499999991010000  0.3344583079330619   F   F   F
  0.7500000012713812  0.4999999988013286  0.3344583079330619   F   F   F
  0.0008848735614245  0.2499544703410854  0.4702101016340517   T   T   T
  0.0007492970291923  0.5000107704374886  0.4701614325566873   T   T   T
  0.9991148164133481  0.7500525146552958  0.4702103038370530   T   T   T
 -0.0007491300897174 -0.0000175265595471  0.4701845360643416   T   T   T
  0.2507234411488725  0.2499986938062459  0.4701894724453998   T   T   T
  0.2508719199114436  0.5000872077719045  0.4701936009332164   T   T   T
  0.2490699934567812  0.7500658492864724  0.4701577866731976   T   T   T
  0.2507479362912233  0.0000865852343467  0.4701999080113036   T   T   T
  0.5008409084855269  0.2498948543636995  0.4701550536622083   T   T   T
  0.5006331246440869  0.4999504507868939  0.4705188409810916   T   T   T
  0.4992391421339350  0.7500435561026237  0.4701331136192734   T   T   T
  0.5000106406191533 -0.0000139480996810  0.4700379706063558   T   T   T
  0.7509569041999253  0.2499178672168843  0.4701486603439343   T   T   T
  0.7493924987469872  0.4999940777282285  0.4701067199904081   T   T   T
  0.7492249015974682  0.7499787940602080  0.4702061199128819   T   T   T
  0.7491578415191489  0.9998826711556003  0.4702126092960947   T   T   T
  0.1250957409556074  0.1248891598325166  0.5286805203737881   T   T   T
  0.1243660310304207  0.3757859750092961  0.5288500274608473   T   T   T
  0.1240175623819941  0.6251264459355591  0.5287595641897876   T   T   T
  0.1249036330843114  0.8750078479757627  0.5287098834172704   T   T   T
  0.3757740129048412  0.1253276169828808  0.5287147447164819   T   T   T
  0.3738757023648134  0.3742028338555410  0.5288121608649018   T   T   T
  0.3756912123804290  0.6251456343234083  0.5276066138514007   T   T   T
  0.3740372418913723  0.8749042354373978  0.5287910984656505   T   T   T
  0.6259462084391005  0.1251046501971719  0.5287725593518620   T   T   T
  0.6259971424773823  0.3748185542786601  0.5276970952783423   T   T   T
  0.6264930129105831  0.6252162630026330  0.5287969977596422   T   T   T
  0.6238368696856409  0.8741875416083510  0.5288403541552841   T   T   T
  0.8750746067050357  0.1250002037448344  0.5287260199103692   T   T   T
  0.8762114013637511  0.3751426915934603  0.5287369785667159   T   T   T
  0.8757919541829463  0.6242046078717628  0.5288638717279351   T   T   T
  0.8749003324422170  0.8750086408830723  0.5287136673147004   T   T   T
  0.1250000006356942  0.1249999995504965  0.4002249949199452   F   F   F
  0.1250000006356942  0.3749999992508322  0.4002249949199452   F   F   F
  0.1250000006356942  0.6249999983518251  0.4002249949199452   F   F   F
  0.1250000006356942  0.8749999974528251  0.4002249949199452   F   F   F
  0.3750000002118981  0.1249999995504965  0.4002249949199452   F   F   F
  0.3750000002118981  0.3749999992508322  0.4002249949199452   F   F   F
  0.3750000010594832  0.6249999983518251  0.4002249949199452   F   F   F
  0.3750000010594832  0.8749999974528251  0.4002249949199452   F   F   F
  0.6250000006356942  0.1249999995504965  0.4002249949199452   F   F   F
  0.6250000006356942  0.3749999992508322  0.4002249949199452   F   F   F
  0.6250000014832793  0.6249999983518251  0.4002249949199452   F   F   F
  0.6250000006356942  0.8749999974528251  0.4002249949199452   F   F   F
  0.8750000010594832  0.1249999995504965  0.4002249949199452   F   F   F
  0.8750000010594832  0.3749999992508322  0.4002249949199452   F   F   F
  0.8750000019070754  0.6249999983518251  0.4002249949199452   F   F   F
  0.8750000010594832  0.8749999974528251  0.4002249949199452   F   F   F
  0.5445676875223385  0.4261884546238245  0.6638592484160671   T   T   T
  0.6139745711056238  0.4949292384344502  0.6635049357248085   T   T   T
  0.4552589040788574  0.5738981741116643  0.6638751771842184   T   T   T
  0.3858581515616756  0.5051576066146723  0.6634954109632241   T   T   T
  0.5669713199315896  0.5670626594423473  0.6631923969506609   T   T   T
  0.4328659226521675  0.4330169049701367  0.6631733255441978   T   T   T
  0.2260662166862299  0.5100121022579717  0.6604925382446363   T   T   T
  0.3949281299664386  0.6793091550211815  0.6625336268735551   T   T   T
  0.6049318051128730  0.3208081225790942  0.6624900377811705   T   T   T
  0.7738000733113194  0.4900104772287769  0.6604627140683416   T   T   T
 
  0.00000000E+00  0.00000000E+00  0.00000000E+00
  0.00000000E+00  0.00000000E+00  0.00000000E+00
  0.00000000E+00  0.00000000E+00  0.00000000E+00
  0.00000000E+00  0.00000000E+00  0.00000000E+00
  0.00000000E+00  0.00000000E+00  0.00000000E+00
  0.00000000E+00  0.00000000E+00  0.00000000E+00
  0.00000000E+00  0.00000000E+00  0.00000000E+00
  0.00000000E+00  0.00000000E+00  0.00000000E+00
  0.00000000E+00  0.00000000E+00  0.00000000E+00
  0.00000000E+00  0.00000000E+00  0.00000000E+00
  0.00000000E+00  0.00000000E+00  0.00000000E+00
  0.00000000E+00  0.00000000E+00  0.00000000E+00
  0.00000000E+00  0.00000000E+00  0.00000000E+00
  0.00000000E+00  0.00000000E+00  0.00000000E+00
  0.00000000E+00  0.00000000E+00  0.00000000E+00
  0.00000000E+00  0.00000000E+00  0.00000000E+00
  0.00000000E+00  0.00000000E+00  0.00000000E+00
  0.00000000E+00  0.00000000E+00  0.00000000E+00
  0.00000000E+00  0.00000000E+00  0.00000000E+00
  0.00000000E+00  0.00000000E+00  0.00000000E+00
  0.00000000E+00  0.00000000E+00  0.00000000E+00
  0.00000000E+00  0.00000000E+00  0.00000000E+00
  0.00000000E+00  0.00000000E+00  0.00000000E+00
  0.00000000E+00  0.00000000E+00  0.00000000E+00
  0.00000000E+00  0.00000000E+00  0.00000000E+00
  0.00000000E+00  0.00000000E+00  0.00000000E+00
  0.00000000E+00  0.00000000E+00  0.00000000E+00
  0.00000000E+00  0.00000000E+00  0.00000000E+00
  0.00000000E+00  0.00000000E+00  0.00000000E+00
  0.00000000E+00  0.00000000E+00  0.00000000E+00
  0.00000000E+00  0.00000000E+00  0.00000000E+00
  0.00000000E+00  0.00000000E+00  0.00000000E+00
  0.00000000E+00  0.00000000E+00  0.00000000E+00
  0.00000000E+00  0.00000000E+00  0.00000000E+00
  0.00000000E+00  0.00000000E+00  0.00000000E+00
  0.00000000E+00  0.00000000E+00  0.00000000E+00
  0.00000000E+00  0.00000000E+00  0.00000000E+00
  0.00000000E+00  0.00000000E+00  0.00000000E+00
  0.00000000E+00  0.00000000E+00  0.00000000E+00
  0.00000000E+00  0.00000000E+00  0.00000000E+00
  0.00000000E+00  0.00000000E+00  0.00000000E+00
  0.00000000E+00  0.00000000E+00  0.00000000E+00
  0.00000000E+00  0.00000000E+00  0.00000000E+00
  0.00000000E+00  0.00000000E+00  0.00000000E+00
  0.00000000E+00  0.00000000E+00  0.00000000E+00
  0.00000000E+00  0.00000000E+00  0.00000000E+00
  0.00000000E+00  0.00000000E+00  0.00000000E+00
  0.00000000E+00  0.00000000E+00  0.00000000E+00
  0.00000000E+00  0.00000000E+00  0.00000000E+00
  0.00000000E+00  0.00000000E+00  0.00000000E+00
  0.00000000E+00  0.00000000E+00  0.00000000E+00
  0.00000000E+00  0.00000000E+00  0.00000000E+00
  0.00000000E+00  0.00000000E+00  0.00000000E+00
  0.00000000E+00  0.00000000E+00  0.00000000E+00
  0.00000000E+00  0.00000000E+00  0.00000000E+00
  0.00000000E+00  0.00000000E+00  0.00000000E+00
  0.00000000E+00  0.00000000E+00  0.00000000E+00
  0.00000000E+00  0.00000000E+00  0.00000000E+00
  0.00000000E+00  0.00000000E+00  0.00000000E+00
  0.00000000E+00  0.00000000E+00  0.00000000E+00
  0.00000000E+00  0.00000000E+00  0.00000000E+00
  0.00000000E+00  0.00000000E+00  0.00000000E+00
  0.00000000E+00  0.00000000E+00  0.00000000E+00
  0.00000000E+00  0.00000000E+00  0.00000000E+00
  0.00000000E+00  0.00000000E+00  0.00000000E+00
  0.00000000E+00  0.00000000E+00  0.00000000E+00
  0.00000000E+00  0.00000000E+00  0.00000000E+00
  0.00000000E+00  0.00000000E+00  0.00000000E+00
  0.00000000E+00  0.00000000E+00  0.00000000E+00
  0.00000000E+00  0.00000000E+00  0.00000000E+00
  0.00000000E+00  0.00000000E+00  0.00000000E+00
  0.00000000E+00  0.00000000E+00  0.00000000E+00
  0.00000000E+00  0.00000000E+00  0.00000000E+00
  0.00000000E+00  0.00000000E+00  0.00000000E+00
