Ag48 C4 N2 Cl4                          
    1.000000000000000     
    11.7702790000000004    0.0000000000000000    0.0000000000000000
     0.0000000000000000   16.6456881000000010    0.0000000000000000
     0.0000000000000000    0.0000000000000000   15.7051487600000002
   Ag   C    N    Cl
    48     4     2     4
Selective dynamics
Direct
  0.9999826009143220  0.2500590568935834  0.4045084822800362   T   T   T
  0.0000000786899719  0.5000000120308030  0.4046237831652135   T   T   T
  0.0000174878684120  0.7499410816162353  0.4045084230220013   T   T   T
  0.0000000080742169  0.9999999131006803  0.4044734665429388   T   T   T
  0.2500549931747074  0.2500670934675355  0.4045867923993143   T   T   T
  0.2501429258315824  0.4999353198741474  0.4044946233600442   T   T   T
  0.2498538648328008  0.7501098880092272  0.4043940334674403   T   T   T
  0.2499580151950269  0.0000121897743597  0.4045209014386941   T   T   T
  0.4998584439437721  0.2498741158990825  0.4043053240674155   T   T   T
  0.4999999550428598  0.4999999807356232  0.4049207912685020   T   T   T
  0.5001415528394588  0.7501259498081367  0.4043050117239702   T   T   T
  0.5000000456158205  0.9999999758684766  0.4044820453773070   T   T   T
  0.7501460156729181  0.2498901003859402  0.4043941932337418   T   T   T
  0.7498570177885355  0.5000647062185593  0.4044948509544781   T   T   T
  0.7499450145278672  0.7499330971693325  0.4045866098336859   T   T   T
  0.7500419227358179  0.9999877191358522  0.4045206548678664   T   T   T
  0.1250088280973785  0.1250009162269663  0.4905954640810677   T   T   T
  0.1248454527284508  0.3750748230165115  0.4908210775851529   T   T   T
  0.1246790875022654  0.6249079898508043  0.4907827761739867   T   T   T
  0.1250814952863308  0.8749625076630423  0.4906374324833607   T   T   T
  0.3751079125953467  0.1251212530768910  0.4906715060283204   T   T   T
  0.3749009398325214  0.3751608186733364  0.4912606856722945   T   T   T
  0.3745703280783630  0.6249933101051468  0.4892935623908485   T   T   T
  0.3750389432953298  0.8749437784448517  0.4906247341240970   T   T   T
  0.6249609487735270  0.1250561949422959  0.4906242590387038   T   T   T
  0.6254295909943082  0.3750066072510592  0.4892938865493406   T   T   T
  0.6250991398625985  0.6248392006798298  0.4912611986493687   T   T   T
  0.6248920504530062  0.8748787678942449  0.4906725165995383   T   T   T
  0.8749184977921800  0.1250375382794715  0.4906377464653460   T   T   T
  0.8753210100756519  0.3750920081642874  0.4907832340026204   T   T   T
  0.8751544812385248  0.6249252145975532  0.4908213664615957   T   T   T
  0.8749912570972924  0.8749991302654081  0.4905954075505861   T   T   T
  0.1249999995752020  0.1250000004505694  0.3183669302601402   F   F   F
  0.1249999995752020  0.3750000007509442  0.3183669302601402   F   F   F
  0.1249999995752020  0.6250000016520829  0.3183669302601402   F   F   F
  0.1249999995752020  0.8750000019524578  0.3183669302601402   F   F   F
  0.3749999987256061  0.1250000004505694  0.3183669302601402   F   F   F
  0.3749999987256061  0.3750000007509442  0.3183669302601402   F   F   F
  0.3749999987256061  0.6250000016520829  0.3183669302601402   F   F   F
  0.3749999987256061  0.8750000019524578  0.3183669302601402   F   F   F
  0.6249999978760030  0.1250000004505694  0.3183669302601402   F   F   F
  0.6249999978760030  0.3750000007509442  0.3183669302601402   F   F   F
  0.6249999978760030  0.6250000016520829  0.3183669302601402   F   F   F
  0.6249999978760030  0.8750000019524578  0.3183669302601402   F   F   F
  0.8749999970264071  0.1250000004505694  0.3183669302601402   F   F   F
  0.8749999970264071  0.3750000007509442  0.3183669302601402   F   F   F
  0.8749999970264071  0.6250000016520829  0.3183669302601402   F   F   F
  0.8749999970264071  0.8750000019524578  0.3183669302601402   F   F   F
  0.4552886850174005  0.5741206532369603  0.6820422837105511   T   T   T
  0.3857722740249585  0.5050016046465942  0.6819024900036510   T   T   T
  0.5447059239680740  0.4258725980382678  0.6820424665660383   T   T   T
  0.6142274177693352  0.4949921070311518  0.6819027334620884   T   T   T
  0.4323335046253902  0.4324177652527865  0.6804694350750395   T   T   T
  0.5676607746399895  0.5675773891764280  0.6804695280223072   T   T   T
  0.7595933825811017  0.4889063985810154  0.6813488481039229   T   T   T
  0.6012061128046753  0.3306648278051085  0.6826491831242976   T   T   T
  0.3987903511743056  0.6693291860318666  0.6826494623641679   T   T   T
  0.2404016210076207  0.5110820709058572  0.6813489599234686   T   T   T
 
  0.00000000E+00  0.00000000E+00  0.00000000E+00
  0.00000000E+00  0.00000000E+00  0.00000000E+00
  0.00000000E+00  0.00000000E+00  0.00000000E+00
  0.00000000E+00  0.00000000E+00  0.00000000E+00
  0.00000000E+00  0.00000000E+00  0.00000000E+00
  0.00000000E+00  0.00000000E+00  0.00000000E+00
  0.00000000E+00  0.00000000E+00  0.00000000E+00
  0.00000000E+00  0.00000000E+00  0.00000000E+00
  0.00000000E+00  0.00000000E+00  0.00000000E+00
  0.00000000E+00  0.00000000E+00  0.00000000E+00
  0.00000000E+00  0.00000000E+00  0.00000000E+00
  0.00000000E+00  0.00000000E+00  0.00000000E+00
  0.00000000E+00  0.00000000E+00  0.00000000E+00
  0.00000000E+00  0.00000000E+00  0.00000000E+00
  0.00000000E+00  0.00000000E+00  0.00000000E+00
  0.00000000E+00  0.00000000E+00  0.00000000E+00
  0.00000000E+00  0.00000000E+00  0.00000000E+00
  0.00000000E+00  0.00000000E+00  0.00000000E+00
  0.00000000E+00  0.00000000E+00  0.00000000E+00
  0.00000000E+00  0.00000000E+00  0.00000000E+00
  0.00000000E+00  0.00000000E+00  0.00000000E+00
  0.00000000E+00  0.00000000E+00  0.00000000E+00
  0.00000000E+00  0.00000000E+00  0.00000000E+00
  0.00000000E+00  0.00000000E+00  0.00000000E+00
  0.00000000E+00  0.00000000E+00  0.00000000E+00
  0.00000000E+00  0.00000000E+00  0.00000000E+00
  0.00000000E+00  0.00000000E+00  0.00000000E+00
  0.00000000E+00  0.00000000E+00  0.00000000E+00
  0.00000000E+00  0.00000000E+00  0.00000000E+00
  0.00000000E+00  0.00000000E+00  0.00000000E+00
  0.00000000E+00  0.00000000E+00  0.00000000E+00
  0.00000000E+00  0.00000000E+00  0.00000000E+00
  0.00000000E+00  0.00000000E+00  0.00000000E+00
  0.00000000E+00  0.00000000E+00  0.00000000E+00
  0.00000000E+00  0.00000000E+00  0.00000000E+00
  0.00000000E+00  0.00000000E+00  0.00000000E+00
  0.00000000E+00  0.00000000E+00  0.00000000E+00
  0.00000000E+00  0.00000000E+00  0.00000000E+00
  0.00000000E+00  0.00000000E+00  0.00000000E+00
  0.00000000E+00  0.00000000E+00  0.00000000E+00
  0.00000000E+00  0.00000000E+00  0.00000000E+00
  0.00000000E+00  0.00000000E+00  0.00000000E+00
  0.00000000E+00  0.00000000E+00  0.00000000E+00
  0.00000000E+00  0.00000000E+00  0.00000000E+00
  0.00000000E+00  0.00000000E+00  0.00000000E+00
  0.00000000E+00  0.00000000E+00  0.00000000E+00
  0.00000000E+00  0.00000000E+00  0.00000000E+00
  0.00000000E+00  0.00000000E+00  0.00000000E+00
  0.00000000E+00  0.00000000E+00  0.00000000E+00
  0.00000000E+00  0.00000000E+00  0.00000000E+00
  0.00000000E+00  0.00000000E+00  0.00000000E+00
  0.00000000E+00  0.00000000E+00  0.00000000E+00
  0.00000000E+00  0.00000000E+00  0.00000000E+00
  0.00000000E+00  0.00000000E+00  0.00000000E+00
  0.00000000E+00  0.00000000E+00  0.00000000E+00
  0.00000000E+00  0.00000000E+00  0.00000000E+00
  0.00000000E+00  0.00000000E+00  0.00000000E+00
  0.00000000E+00  0.00000000E+00  0.00000000E+00
