Au  C  H  F                             
    1.000000000000000     
    11.7981856999999994    0.0000000000000000    0.0000000000000000
     0.0000000000000000   16.6851543000000007    0.0000000000000000
     0.0000000000000000    0.0000000000000000   22.4243196299999994
   Au   C    H    F 
    64     6     2     4
Selective dynamics
Direct
  0.0000000016951773  0.2499999991010000  0.3344583079330619   F   F   F
  0.7500000012713812  0.7499999979023286  0.3344583079330619   F   F   F
  0.0000000016951773  0.4999999988013286  0.3344583079330619   F   F   F
  0.0000000016951773  0.7499999979023286  0.3344583079330619   F   F   F
  0.0000000016951773  0.0000000000000000  0.3344583079330619   F   F   F
  0.2500000004237961  0.2499999991010000  0.3344583079330619   F   F   F
  0.2500000004237961  0.4999999988013286  0.3344583079330619   F   F   F
  0.7500000012713812  0.0000000000000000  0.3344583079330619   F   F   F
  0.2500000004237961  0.7499999979023286  0.3344583079330619   F   F   F
  0.2500000004237961  0.0000000000000000  0.3344583079330619   F   F   F
  0.5000000008475851  0.2499999991010000  0.3344583079330619   F   F   F
  0.5000000008475851  0.4999999988013286  0.3344583079330619   F   F   F
  0.5000000008475851  0.7499999979023286  0.3344583079330619   F   F   F
  0.5000000008475851  0.0000000000000000  0.3344583079330619   F   F   F
  0.7500000012713812  0.2499999991010000  0.3344583079330619   F   F   F
  0.7500000012713812  0.4999999988013286  0.3344583079330619   F   F   F
  0.0008802904603401  0.2499252223423018  0.4701671502680420   T   T   T
  0.9993204736551653  0.5000188432047291  0.4702408257533309   T   T   T
  0.9991188214935324  0.7500359459833348  0.4701533748660355   T   T   T
 -0.0008264766430292 -0.0000674473501681  0.4701892263481118   T   T   T
  0.2509200299261223  0.2500830526235329  0.4701761470017352   T   T   T
  0.2506087502908050  0.4999954640928416  0.4701973881924364   T   T   T
  0.2491491696907157  0.7500247880418026  0.4702116273505180   T   T   T
  0.2491314161240650 -0.0000872977348076  0.4702117252874365   T   T   T
  0.5008763051027092  0.2500807566219917  0.4701922232061411   T   T   T
  0.5008253636113901  0.4999952576102051  0.4701088370443167   T   T   T
  0.4991419618634401  0.7500489262880626  0.4701823037236652   T   T   T
  0.4991121958871133  0.0000982901315438  0.4702013582356950   T   T   T
  0.7508424945428360  0.2499047597814377  0.4701528981932308   T   T   T
  0.7505097448575889  0.4996475735861224  0.4705683287195055   T   T   T
  0.7490608222996160  0.7500475765154251  0.4701870868281756   T   T   T
  0.7491488320198895  0.0000502298603677  0.4701946666344257   T   T   T
  0.1249970966242948  0.1249940451649380  0.5286885575894877   T   T   T
  0.1261440598652342  0.3742788035602545  0.5288213833397231   T   T   T
  0.1235448559859610  0.6255292577636412  0.5288318130754471   T   T   T
  0.1240432106688777  0.8742521589170195  0.5288413650225493   T   T   T
  0.3743444330194121  0.1257511932918426  0.5287800374962471   T   T   T
  0.3761563678459949  0.3757733823245341  0.5288169899506859   T   T   T
  0.3740369511555802  0.6246658884437658  0.5284652318689408   T   T   T
  0.3749442862023403  0.8750162659634583  0.5286837760532999   T   T   T
  0.6249775042404735  0.1249931088154371  0.5286895822861529   T   T   T
  0.6264476780799041  0.3749384419437137  0.5285030816595198   T   T   T
  0.6239722628123259  0.6249854260500811  0.5287517810937243   T   T   T
  0.6249695017065335  0.8750118333958389  0.5286950575520641   T   T   T
  0.8749933836455928  0.1249897651253506  0.5286971970699712   T   T   T
  0.8762771577431416  0.3742077759465396  0.5288642924081384   T   T   T
  0.8737972157293943  0.6257744693372791  0.5288469607157960   T   T   T
  0.8749680581968305  0.8749916799675320  0.5287085044014392   T   T   T
  0.1250000006356942  0.1249999995504965  0.4002249949199452   F   F   F
  0.1250000006356942  0.3749999992508322  0.4002249949199452   F   F   F
  0.1250000006356942  0.6249999983518251  0.4002249949199452   F   F   F
  0.1250000006356942  0.8749999974528251  0.4002249949199452   F   F   F
  0.3750000002118981  0.1249999995504965  0.4002249949199452   F   F   F
  0.3750000002118981  0.3749999992508322  0.4002249949199452   F   F   F
  0.3750000010594832  0.6249999983518251  0.4002249949199452   F   F   F
  0.3750000010594832  0.8749999974528251  0.4002249949199452   F   F   F
  0.6250000006356942  0.1249999995504965  0.4002249949199452   F   F   F
  0.6250000006356942  0.3749999992508322  0.4002249949199452   F   F   F
  0.6250000014832793  0.6249999983518251  0.4002249949199452   F   F   F
  0.6250000006356942  0.8749999974528251  0.4002249949199452   F   F   F
  0.8750000010594832  0.1249999995504965  0.4002249949199452   F   F   F
  0.8750000010594832  0.3749999992508322  0.4002249949199452   F   F   F
  0.8750000019070754  0.6249999983518251  0.4002249949199452   F   F   F
  0.8750000010594832  0.8749999974528251  0.4002249949199452   F   F   F
  0.5688887405924583  0.5689393428419280  0.6628658123964933   T   T   T
  0.6174141525961814  0.4928608398032697  0.6627350563848218   T   T   T
  0.5490841955512161  0.4246254890532110  0.6637992489633724   T   T   T
  0.4313560521374262  0.4310942125242337  0.6628725262573849   T   T   T
  0.3828267488353856  0.5071624082891260  0.6626920994016495   T   T   T
  0.4511498081346977  0.5754154554474948  0.6637530010668459   T   T   T
  0.6220244539510627  0.6222971361601172  0.6645824424159315   T   T   T
  0.3782232447815081  0.3777307535496476  0.6646239640580563   T   T   T
  0.7314182744627161  0.4849924130118271  0.6626035691441337   T   T   T
  0.5979562680858058  0.3512542780199538  0.6670502562694354   T   T   T
  0.2688149339128795  0.5150388493391250  0.6625527022103246   T   T   T
  0.4022620664988850  0.6487728731982196  0.6669770302894025   T   T   T
 
  0.00000000E+00  0.00000000E+00  0.00000000E+00
  0.00000000E+00  0.00000000E+00  0.00000000E+00
  0.00000000E+00  0.00000000E+00  0.00000000E+00
  0.00000000E+00  0.00000000E+00  0.00000000E+00
  0.00000000E+00  0.00000000E+00  0.00000000E+00
  0.00000000E+00  0.00000000E+00  0.00000000E+00
  0.00000000E+00  0.00000000E+00  0.00000000E+00
  0.00000000E+00  0.00000000E+00  0.00000000E+00
  0.00000000E+00  0.00000000E+00  0.00000000E+00
  0.00000000E+00  0.00000000E+00  0.00000000E+00
  0.00000000E+00  0.00000000E+00  0.00000000E+00
  0.00000000E+00  0.00000000E+00  0.00000000E+00
  0.00000000E+00  0.00000000E+00  0.00000000E+00
  0.00000000E+00  0.00000000E+00  0.00000000E+00
  0.00000000E+00  0.00000000E+00  0.00000000E+00
  0.00000000E+00  0.00000000E+00  0.00000000E+00
  0.00000000E+00  0.00000000E+00  0.00000000E+00
  0.00000000E+00  0.00000000E+00  0.00000000E+00
  0.00000000E+00  0.00000000E+00  0.00000000E+00
  0.00000000E+00  0.00000000E+00  0.00000000E+00
  0.00000000E+00  0.00000000E+00  0.00000000E+00
  0.00000000E+00  0.00000000E+00  0.00000000E+00
  0.00000000E+00  0.00000000E+00  0.00000000E+00
  0.00000000E+00  0.00000000E+00  0.00000000E+00
  0.00000000E+00  0.00000000E+00  0.00000000E+00
  0.00000000E+00  0.00000000E+00  0.00000000E+00
  0.00000000E+00  0.00000000E+00  0.00000000E+00
  0.00000000E+00  0.00000000E+00  0.00000000E+00
  0.00000000E+00  0.00000000E+00  0.00000000E+00
  0.00000000E+00  0.00000000E+00  0.00000000E+00
  0.00000000E+00  0.00000000E+00  0.00000000E+00
  0.00000000E+00  0.00000000E+00  0.00000000E+00
  0.00000000E+00  0.00000000E+00  0.00000000E+00
  0.00000000E+00  0.00000000E+00  0.00000000E+00
  0.00000000E+00  0.00000000E+00  0.00000000E+00
  0.00000000E+00  0.00000000E+00  0.00000000E+00
  0.00000000E+00  0.00000000E+00  0.00000000E+00
  0.00000000E+00  0.00000000E+00  0.00000000E+00
  0.00000000E+00  0.00000000E+00  0.00000000E+00
  0.00000000E+00  0.00000000E+00  0.00000000E+00
  0.00000000E+00  0.00000000E+00  0.00000000E+00
  0.00000000E+00  0.00000000E+00  0.00000000E+00
  0.00000000E+00  0.00000000E+00  0.00000000E+00
  0.00000000E+00  0.00000000E+00  0.00000000E+00
  0.00000000E+00  0.00000000E+00  0.00000000E+00
  0.00000000E+00  0.00000000E+00  0.00000000E+00
  0.00000000E+00  0.00000000E+00  0.00000000E+00
  0.00000000E+00  0.00000000E+00  0.00000000E+00
  0.00000000E+00  0.00000000E+00  0.00000000E+00
  0.00000000E+00  0.00000000E+00  0.00000000E+00
  0.00000000E+00  0.00000000E+00  0.00000000E+00
  0.00000000E+00  0.00000000E+00  0.00000000E+00
  0.00000000E+00  0.00000000E+00  0.00000000E+00
  0.00000000E+00  0.00000000E+00  0.00000000E+00
  0.00000000E+00  0.00000000E+00  0.00000000E+00
  0.00000000E+00  0.00000000E+00  0.00000000E+00
  0.00000000E+00  0.00000000E+00  0.00000000E+00
  0.00000000E+00  0.00000000E+00  0.00000000E+00
  0.00000000E+00  0.00000000E+00  0.00000000E+00
  0.00000000E+00  0.00000000E+00  0.00000000E+00
  0.00000000E+00  0.00000000E+00  0.00000000E+00
  0.00000000E+00  0.00000000E+00  0.00000000E+00
  0.00000000E+00  0.00000000E+00  0.00000000E+00
  0.00000000E+00  0.00000000E+00  0.00000000E+00
  0.00000000E+00  0.00000000E+00  0.00000000E+00
  0.00000000E+00  0.00000000E+00  0.00000000E+00
  0.00000000E+00  0.00000000E+00  0.00000000E+00
  0.00000000E+00  0.00000000E+00  0.00000000E+00
  0.00000000E+00  0.00000000E+00  0.00000000E+00
  0.00000000E+00  0.00000000E+00  0.00000000E+00
  0.00000000E+00  0.00000000E+00  0.00000000E+00
  0.00000000E+00  0.00000000E+00  0.00000000E+00
  0.00000000E+00  0.00000000E+00  0.00000000E+00
  0.00000000E+00  0.00000000E+00  0.00000000E+00
  0.00000000E+00  0.00000000E+00  0.00000000E+00
  0.00000000E+00  0.00000000E+00  0.00000000E+00
