Cu  C  H Cl                             
    1.000000000000000     
    10.2424774999999997    0.0000000000000000    0.0000000000000000
     0.0000000000000000   14.4850505999999992    0.0000000000000000
     0.0000000000000000    0.0000000000000000   21.8409290399999989
   Cu   C    H    Cl
    64     6     2     4
Selective dynamics
Direct
  0.2499999995118358  0.2499999993096296  0.3433919860398049   F   F   F
  0.0000000000000000  0.7499999965481621  0.3433919860398049   F   F   F
  0.2499999995118358  0.4999999986192663  0.3433919860398049   F   F   F
  0.2499999995118358  0.7499999979288958  0.3433919860398049   F   F   F
  0.2499999995118358  0.0000000000000000  0.3433919860398049   F   F   F
  0.4999999990236716  0.2499999993096296  0.3433919860398049   F   F   F
  0.4999999990236716  0.4999999986192663  0.3433919860398049   F   F   F
  0.0000000000000000  0.0000000000000000  0.3433919860398049   F   F   F
  0.4999999990236716  0.7499999979288958  0.3433919860398049   F   F   F
  0.4999999990236716  0.0000000000000000  0.3433919860398049   F   F   F
  0.7499999985355075  0.2499999993096296  0.3433919860398049   F   F   F
  0.7499999985355075  0.4999999986192663  0.3433919860398049   F   F   F
  0.7499999985355075  0.7499999979288958  0.3433919860398049   F   F   F
  0.7499999985355075  0.0000000000000000  0.3433919860398049   F   F   F
  0.9999999980473504  0.2499999993096296  0.3433919860398049   F   F   F
  0.0000000000000000  0.4999999986192663  0.3433919860398049   F   F   F
  0.2500966417715057  0.2503108458146643  0.4620753241317642   T   T   T
  0.2500762092763057  0.4999345933577237  0.4615295007821874   T   T   T
  0.2497340548127184  0.7500886954241290  0.4616210345828762   T   T   T
  0.2499566799076658  0.0000455812898136  0.4618766604453251   T   T   T
  0.4996239290018893  0.2497685130111844  0.4615569749710838   T   T   T
  0.5000120998146045  0.5000003431608454  0.4613871592806607   T   T   T
  0.5003697736361616  0.7502034557932423  0.4615756861819466   T   T   T
  0.5000110305631056  0.0000045643066150  0.4618652247044162   T   T   T
  0.7502938734102874  0.2498652565945111  0.4615941125529511   T   T   T
  0.7499619204308110  0.5000660095180591  0.4614967023364870   T   T   T
  0.7499325701211328  0.7496935741456403  0.4620656069330248   T   T   T
  0.7500784434588097  0.9999675039884608  0.4618658599790428   T   T   T
  0.0000461753820013  0.2501548880658125  0.4619624752009747   T   T   T
  0.0000168273791936  0.4999955106713526  0.4617096016854772   T   T   T
 -0.0000251215357190  0.7498222306090931  0.4619606472482570   T   T   T
 -0.0000003570946734  0.0000090821725731  0.4618789177734092   T   T   T
  0.1250435930322074  0.1251746775961518  0.5168013949474320   T   T   T
  0.1252379837598990  0.3753269249461866  0.5169286699710240   T   T   T
  0.1250101859068858  0.6246535511625704  0.5169108559537360   T   T   T
  0.1249945853766857  0.8749237800040836  0.5167265671931307   T   T   T
  0.3749300704822598  0.1251243965266786  0.5168104540294791   T   T   T
  0.3752284000479423  0.3754668506497272  0.5169808134397258   T   T   T
  0.3752517279478455  0.6253851369298818  0.5155918392127018   T   T   T
  0.3750505280631108  0.8749355441338569  0.5166390606468232   T   T   T
  0.6249687380877426  0.1250651016811390  0.5166269804481899   T   T   T
  0.6247299161374804  0.3745715261420012  0.5155491796187325   T   T   T
  0.6247684900584389  0.6245373895078242  0.5169711149262779   T   T   T
  0.6251018472344483  0.8748921710511377  0.5167965067794089   T   T   T
  0.8750288387484608  0.1250852330041388  0.5167277239136562   T   T   T
  0.8750230259021750  0.3753072708847422  0.5168846954809289   T   T   T
  0.8748099916204727  0.6246779812647104  0.5169223361169647   T   T   T
  0.8749929662871725  0.8748400715847681  0.5167731958253502   T   T   T
  0.1250000002440785  0.1249999996548183  0.4020117305412967   F   F   F
  0.1250000002440785  0.3749999989644479  0.4020117305412967   F   F   F
  0.1250000002440785  0.6249999982740846  0.4020117305412967   F   F   F
  0.1250000002440785  0.8749999975837142  0.4020117305412967   F   F   F
  0.3749999997559215  0.1249999996548183  0.4020117305412967   F   F   F
  0.3749999997559215  0.3749999989644479  0.4020117305412967   F   F   F
  0.3749999997559215  0.6249999982740846  0.4020117305412967   F   F   F
  0.3749999997559215  0.8749999975837142  0.4020117305412967   F   F   F
  0.6249999982914289  0.1249999996548183  0.4020117305412967   F   F   F
  0.6249999992677573  0.3749999989644479  0.4020117305412967   F   F   F
  0.6249999992677573  0.6249999982740846  0.4020117305412967   F   F   F
  0.6249999992677573  0.8749999975837142  0.4020117305412967   F   F   F
  0.8749999987795931  0.1249999996548183  0.4020117305412967   F   F   F
  0.8749999978032648  0.3749999989644479  0.4020117305412967   F   F   F
  0.8749999987795931  0.6249999982740846  0.4020117305412967   F   F   F
  0.8749999987795931  0.8749999975837142  0.4020117305412967   F   F   F
  0.5780019326204052  0.5789298614645642  0.6448635633882003   T   T   T
  0.6364867478495023  0.4915568937116158  0.6464388034592066   T   T   T
  0.5578219251047468  0.4121948927143947  0.6468000363346635   T   T   T
  0.4215192342625532  0.4207720646365287  0.6449614286398215   T   T   T
  0.3630925402621637  0.5081122788263158  0.6467650693260173   T   T   T
  0.4416328856683612  0.5875082594777926  0.6470275758728192   T   T   T
  0.6384183298086142  0.6407765276961704  0.6463105784539976   T   T   T
  0.3611258931697965  0.3588134461111760  0.6464557930492839   T   T   T
  0.8039052379098007  0.4837280675448762  0.6466975697893582   T   T   T
  0.6254314672107844  0.3037128020881694  0.6510350287082393   T   T   T
  0.1958341015278453  0.5162827811924069  0.6477045129600156   T   T   T
  0.3738913745986379  0.6960668764731718  0.6512773219348938   T   T   T
 
  0.00000000E+00  0.00000000E+00  0.00000000E+00
  0.00000000E+00  0.00000000E+00  0.00000000E+00
  0.00000000E+00  0.00000000E+00  0.00000000E+00
  0.00000000E+00  0.00000000E+00  0.00000000E+00
  0.00000000E+00  0.00000000E+00  0.00000000E+00
  0.00000000E+00  0.00000000E+00  0.00000000E+00
  0.00000000E+00  0.00000000E+00  0.00000000E+00
  0.00000000E+00  0.00000000E+00  0.00000000E+00
  0.00000000E+00  0.00000000E+00  0.00000000E+00
  0.00000000E+00  0.00000000E+00  0.00000000E+00
  0.00000000E+00  0.00000000E+00  0.00000000E+00
  0.00000000E+00  0.00000000E+00  0.00000000E+00
  0.00000000E+00  0.00000000E+00  0.00000000E+00
  0.00000000E+00  0.00000000E+00  0.00000000E+00
  0.00000000E+00  0.00000000E+00  0.00000000E+00
  0.00000000E+00  0.00000000E+00  0.00000000E+00
  0.00000000E+00  0.00000000E+00  0.00000000E+00
  0.00000000E+00  0.00000000E+00  0.00000000E+00
  0.00000000E+00  0.00000000E+00  0.00000000E+00
  0.00000000E+00  0.00000000E+00  0.00000000E+00
  0.00000000E+00  0.00000000E+00  0.00000000E+00
  0.00000000E+00  0.00000000E+00  0.00000000E+00
  0.00000000E+00  0.00000000E+00  0.00000000E+00
  0.00000000E+00  0.00000000E+00  0.00000000E+00
  0.00000000E+00  0.00000000E+00  0.00000000E+00
  0.00000000E+00  0.00000000E+00  0.00000000E+00
  0.00000000E+00  0.00000000E+00  0.00000000E+00
  0.00000000E+00  0.00000000E+00  0.00000000E+00
  0.00000000E+00  0.00000000E+00  0.00000000E+00
  0.00000000E+00  0.00000000E+00  0.00000000E+00
  0.00000000E+00  0.00000000E+00  0.00000000E+00
  0.00000000E+00  0.00000000E+00  0.00000000E+00
  0.00000000E+00  0.00000000E+00  0.00000000E+00
  0.00000000E+00  0.00000000E+00  0.00000000E+00
  0.00000000E+00  0.00000000E+00  0.00000000E+00
  0.00000000E+00  0.00000000E+00  0.00000000E+00
  0.00000000E+00  0.00000000E+00  0.00000000E+00
  0.00000000E+00  0.00000000E+00  0.00000000E+00
  0.00000000E+00  0.00000000E+00  0.00000000E+00
  0.00000000E+00  0.00000000E+00  0.00000000E+00
  0.00000000E+00  0.00000000E+00  0.00000000E+00
  0.00000000E+00  0.00000000E+00  0.00000000E+00
  0.00000000E+00  0.00000000E+00  0.00000000E+00
  0.00000000E+00  0.00000000E+00  0.00000000E+00
  0.00000000E+00  0.00000000E+00  0.00000000E+00
  0.00000000E+00  0.00000000E+00  0.00000000E+00
  0.00000000E+00  0.00000000E+00  0.00000000E+00
  0.00000000E+00  0.00000000E+00  0.00000000E+00
  0.00000000E+00  0.00000000E+00  0.00000000E+00
  0.00000000E+00  0.00000000E+00  0.00000000E+00
  0.00000000E+00  0.00000000E+00  0.00000000E+00
  0.00000000E+00  0.00000000E+00  0.00000000E+00
  0.00000000E+00  0.00000000E+00  0.00000000E+00
  0.00000000E+00  0.00000000E+00  0.00000000E+00
  0.00000000E+00  0.00000000E+00  0.00000000E+00
  0.00000000E+00  0.00000000E+00  0.00000000E+00
  0.00000000E+00  0.00000000E+00  0.00000000E+00
  0.00000000E+00  0.00000000E+00  0.00000000E+00
  0.00000000E+00  0.00000000E+00  0.00000000E+00
  0.00000000E+00  0.00000000E+00  0.00000000E+00
  0.00000000E+00  0.00000000E+00  0.00000000E+00
  0.00000000E+00  0.00000000E+00  0.00000000E+00
  0.00000000E+00  0.00000000E+00  0.00000000E+00
  0.00000000E+00  0.00000000E+00  0.00000000E+00
  0.00000000E+00  0.00000000E+00  0.00000000E+00
  0.00000000E+00  0.00000000E+00  0.00000000E+00
  0.00000000E+00  0.00000000E+00  0.00000000E+00
  0.00000000E+00  0.00000000E+00  0.00000000E+00
  0.00000000E+00  0.00000000E+00  0.00000000E+00
  0.00000000E+00  0.00000000E+00  0.00000000E+00
  0.00000000E+00  0.00000000E+00  0.00000000E+00
  0.00000000E+00  0.00000000E+00  0.00000000E+00
  0.00000000E+00  0.00000000E+00  0.00000000E+00
  0.00000000E+00  0.00000000E+00  0.00000000E+00
  0.00000000E+00  0.00000000E+00  0.00000000E+00
  0.00000000E+00  0.00000000E+00  0.00000000E+00
