Pt  C  N Br                             
    1.000000000000000     
    11.2480068000000006    0.0000000000000000    0.0000000000000000
     0.0000000000000000   15.9070838000000006    0.0000000000000000
     0.0000000000000000    0.0000000000000000   22.2180025631249976
   Pt   C    N    Br
    64     4     2     4
Selective dynamics
Direct
  0.2500000008890453  0.2500000006286527  0.3375640982438100   F   F   F
  0.2500000008890453  0.5000000006286527  0.3375640982438100   F   F   F
  0.2500000008890453  0.7500000012572983  0.3375640982438100   F   F   F
  0.2500000008890453  0.0000000000000000  0.3375640982438100   F   F   F
  0.5000000017780906  0.5000000006286527  0.3375640982438100   F   F   F
  0.0000000035561882  0.0000000000000000  0.3375640982438100   F   F   F
  0.5000000017780906  0.7500000012572983  0.3375640982438100   F   F   F
  0.5000000017780906  0.0000000000000000  0.3375640982438100   F   F   F
  0.7500000026671358  0.0000000000000000  0.3375640982438100   F   F   F
  0.0000000035561882  0.7500000012572983  0.3375640982438100   F   F   F
  0.5000000017780906  0.2500000006286527  0.3375640982438100   F   F   F
  0.7500000026671358  0.2500000006286527  0.3375640982438100   F   F   F
  0.7500000026671358  0.5000000006286527  0.3375640982438100   F   F   F
  0.7500000026671358  0.7500000012572983  0.3375640982438100   F   F   F
  0.0000000035561882  0.2500000006286527  0.3375640982438100   F   F   F
  0.0000000035561882  0.5000000006286527  0.3375640982438100   F   F   F
  0.2496365451949492  0.2503516703250164  0.4679539995585189   T   T   T
  0.2499552469905274  0.5000615911383743  0.4664571602126515   T   T   T
  0.2465654855943391  0.7491746449730309  0.4675983804494523   T   T   T
  0.2483553332580977  0.0003425146166597  0.4675949546333916   T   T   T
  0.5014491621526659  0.2477785631747122  0.4652883875745068   T   T   T
  0.5000084071357286  0.4999873746533094  0.4647309171350834   T   T   T
  0.4985750196095790  0.7522012508276041  0.4652770344459737   T   T   T
  0.5000178421037158 -0.0000001617132758  0.4667498758740408   T   T   T
  0.7534517049898271  0.2507819023127985  0.4676070389739573   T   T   T
  0.7500569707958169  0.4999274269891384  0.4664595718648335   T   T   T
  0.7503802874713771  0.7496292939346476  0.4679525120847115   T   T   T
  0.7516762340336693  0.9996319959807057  0.4675995291723725   T   T   T
  0.0017215764717664  0.2515891878942553  0.4684029263216437   T   T   T
 -0.0000007258081181  0.4999962708998130  0.4681051132194092   T   T   T
  0.9983033221137030  0.7483602688842268  0.4684057322288857   T   T   T
  0.0000131040287573 -0.0000250458788800  0.4681911502620517   T   T   T
  0.1261634205998482  0.1253346839581512  0.5255767698300478   T   T   T
  0.1281248508063688  0.3768724556120258  0.5274737075909618   T   T   T
  0.1231562906870258  0.6245529402929348  0.5268760550676186   T   T   T
  0.1212493626733403  0.8741863444665411  0.5257272627386872   T   T   T
  0.3741962644698610  0.1249479484119646  0.5259885063771857   T   T   T
  0.3795432605435133  0.3697099597073245  0.5256116131452941   T   T   T
  0.3717943198619604  0.6273444055161689  0.5271575240016235   T   T   T
  0.3730137811283972  0.8752247395095472  0.5242375989647537   T   T   T
  0.6270224049981862  0.1247387898781039  0.5242164531058648   T   T   T
  0.6281997345379392  0.3726341788971732  0.5271637170256980   T   T   T
  0.6204336983973656  0.6303067505488418  0.5255831312660038   T   T   T
  0.6258288692070501  0.8750352110998378  0.5259952325611997   T   T   T
  0.8787915887442938  0.1257616609583466  0.5257193802044423   T   T   T
  0.8768749676653781  0.3754039294440079  0.5268789331970422   T   T   T
  0.8718774632687236  0.6231010469197903  0.5274903977114299   T   T   T
  0.8738512837060692  0.8746194720964576  0.5255942567819153   T   T   T
  0.1250000000000000  0.1250000003143228  0.4008461529820977   F   F   F
  0.1250000000000000  0.3750000003143228  0.4008461529820977   F   F   F
  0.1250000008890453  0.6250000009429755  0.4008461529820977   F   F   F
  0.1250000008890453  0.8750000009429755  0.4008461529820977   F   F   F
  0.3750000008890453  0.1250000003143228  0.4008461529820977   F   F   F
  0.3750000008890453  0.3750000003143228  0.4008461529820977   F   F   F
  0.3750000008890453  0.6250000009429755  0.4008461529820977   F   F   F
  0.3750000008890453  0.8750000009429755  0.4008461529820977   F   F   F
  0.6250000017780906  0.1250000003143228  0.4008461529820977   F   F   F
  0.6250000017780906  0.3750000003143228  0.4008461529820977   F   F   F
  0.6250000017780906  0.6250000009429755  0.4008461529820977   F   F   F
  0.6250000026671358  0.8750000009429755  0.4008461529820977   F   F   F
  0.8750000026671358  0.1250000003143228  0.4008461529820977   F   F   F
  0.8750000026671358  0.3750000003143228  0.4008461529820977   F   F   F
  0.8750000035561882  0.6250000009429755  0.4008461529820977   F   F   F
  0.8750000026671358  0.8750000009429755  0.4008461529820977   F   F   F
  0.4345352786874856  0.5717235060954510  0.5999159008360437   T   T   T
  0.3814246130240417  0.4947680664108631  0.6172964032195865   T   T   T
  0.5654422371205243  0.4283109993464727  0.5999220392155463   T   T   T
  0.6184877934793416  0.5052419565289149  0.6172527800349042   T   T   T
  0.4448005124740601  0.4241806671733383  0.6049904599653456   T   T   T
  0.5551537908486411  0.5758148379339276  0.6049629732006065   T   T   T
  0.7825403599874818  0.5165680726815869  0.6347920653785704   T   T   T
  0.6028085052728874  0.1247054803806942  0.6306886261913621   T   T   T
  0.3968100460973651  0.8753267298281844  0.6306579022243971   T   T   T
  0.2175068565963782  0.4835857498648111  0.6349607306548443   T   T   T
 
  0.00000000E+00  0.00000000E+00  0.00000000E+00
  0.00000000E+00  0.00000000E+00  0.00000000E+00
  0.00000000E+00  0.00000000E+00  0.00000000E+00
  0.00000000E+00  0.00000000E+00  0.00000000E+00
  0.00000000E+00  0.00000000E+00  0.00000000E+00
  0.00000000E+00  0.00000000E+00  0.00000000E+00
  0.00000000E+00  0.00000000E+00  0.00000000E+00
  0.00000000E+00  0.00000000E+00  0.00000000E+00
  0.00000000E+00  0.00000000E+00  0.00000000E+00
  0.00000000E+00  0.00000000E+00  0.00000000E+00
  0.00000000E+00  0.00000000E+00  0.00000000E+00
  0.00000000E+00  0.00000000E+00  0.00000000E+00
  0.00000000E+00  0.00000000E+00  0.00000000E+00
  0.00000000E+00  0.00000000E+00  0.00000000E+00
  0.00000000E+00  0.00000000E+00  0.00000000E+00
  0.00000000E+00  0.00000000E+00  0.00000000E+00
  0.00000000E+00  0.00000000E+00  0.00000000E+00
  0.00000000E+00  0.00000000E+00  0.00000000E+00
  0.00000000E+00  0.00000000E+00  0.00000000E+00
  0.00000000E+00  0.00000000E+00  0.00000000E+00
  0.00000000E+00  0.00000000E+00  0.00000000E+00
  0.00000000E+00  0.00000000E+00  0.00000000E+00
  0.00000000E+00  0.00000000E+00  0.00000000E+00
  0.00000000E+00  0.00000000E+00  0.00000000E+00
  0.00000000E+00  0.00000000E+00  0.00000000E+00
  0.00000000E+00  0.00000000E+00  0.00000000E+00
  0.00000000E+00  0.00000000E+00  0.00000000E+00
  0.00000000E+00  0.00000000E+00  0.00000000E+00
  0.00000000E+00  0.00000000E+00  0.00000000E+00
  0.00000000E+00  0.00000000E+00  0.00000000E+00
  0.00000000E+00  0.00000000E+00  0.00000000E+00
  0.00000000E+00  0.00000000E+00  0.00000000E+00
  0.00000000E+00  0.00000000E+00  0.00000000E+00
  0.00000000E+00  0.00000000E+00  0.00000000E+00
  0.00000000E+00  0.00000000E+00  0.00000000E+00
  0.00000000E+00  0.00000000E+00  0.00000000E+00
  0.00000000E+00  0.00000000E+00  0.00000000E+00
  0.00000000E+00  0.00000000E+00  0.00000000E+00
  0.00000000E+00  0.00000000E+00  0.00000000E+00
  0.00000000E+00  0.00000000E+00  0.00000000E+00
  0.00000000E+00  0.00000000E+00  0.00000000E+00
  0.00000000E+00  0.00000000E+00  0.00000000E+00
  0.00000000E+00  0.00000000E+00  0.00000000E+00
  0.00000000E+00  0.00000000E+00  0.00000000E+00
  0.00000000E+00  0.00000000E+00  0.00000000E+00
  0.00000000E+00  0.00000000E+00  0.00000000E+00
  0.00000000E+00  0.00000000E+00  0.00000000E+00
  0.00000000E+00  0.00000000E+00  0.00000000E+00
  0.00000000E+00  0.00000000E+00  0.00000000E+00
  0.00000000E+00  0.00000000E+00  0.00000000E+00
  0.00000000E+00  0.00000000E+00  0.00000000E+00
  0.00000000E+00  0.00000000E+00  0.00000000E+00
  0.00000000E+00  0.00000000E+00  0.00000000E+00
  0.00000000E+00  0.00000000E+00  0.00000000E+00
  0.00000000E+00  0.00000000E+00  0.00000000E+00
  0.00000000E+00  0.00000000E+00  0.00000000E+00
  0.00000000E+00  0.00000000E+00  0.00000000E+00
  0.00000000E+00  0.00000000E+00  0.00000000E+00
  0.00000000E+00  0.00000000E+00  0.00000000E+00
  0.00000000E+00  0.00000000E+00  0.00000000E+00
  0.00000000E+00  0.00000000E+00  0.00000000E+00
  0.00000000E+00  0.00000000E+00  0.00000000E+00
  0.00000000E+00  0.00000000E+00  0.00000000E+00
  0.00000000E+00  0.00000000E+00  0.00000000E+00
  0.00000000E+00  0.00000000E+00  0.00000000E+00
  0.00000000E+00  0.00000000E+00  0.00000000E+00
  0.00000000E+00  0.00000000E+00  0.00000000E+00
  0.00000000E+00  0.00000000E+00  0.00000000E+00
  0.00000000E+00  0.00000000E+00  0.00000000E+00
  0.00000000E+00  0.00000000E+00  0.00000000E+00
  0.00000000E+00  0.00000000E+00  0.00000000E+00
  0.00000000E+00  0.00000000E+00  0.00000000E+00
  0.00000000E+00  0.00000000E+00  0.00000000E+00
  0.00000000E+00  0.00000000E+00  0.00000000E+00
