Rh  C  H  F                             
    1.000000000000000     
    10.8856652999999994    0.0000000000000000    0.0000000000000000
     0.0000000000000000   15.3946555000000007    0.0000000000000000
     0.0000000000000000    0.0000000000000000   22.0821244799999974
   Rh   C    H    F 
    64     6     2     4
Selective dynamics
Direct
  0.2500000004593161  0.2500000003247891  0.3396412336499992   F   F   F
  0.0000000018372788  0.7500000016239383  0.3396412336499992   F   F   F
  0.2500000004593161  0.5000000012991492  0.3396412336499992   F   F   F
  0.2500000004593161  0.7500000016239383  0.3396412336499992   F   F   F
  0.2500000004593161  0.0000000019487274  0.3396412336499992   F   F   F
  0.5000000009186394  0.2500000003247891  0.3396412336499992   F   F   F
  0.5000000009186394  0.5000000012991492  0.3396412336499992   F   F   F
  0.0000000018372788  0.0000000019487274  0.3396412336499992   F   F   F
  0.5000000009186394  0.7500000016239383  0.3396412336499992   F   F   F
  0.5000000009186394  0.0000000019487274  0.3396412336499992   F   F   F
  0.7500000013779555  0.2500000003247891  0.3396412336499992   F   F   F
  0.7500000013779555  0.5000000012991492  0.3396412336499992   F   F   F
  0.7500000013779555  0.7500000016239383  0.3396412336499992   F   F   F
  0.7500000013779555  0.0000000019487274  0.3396412336499992   F   F   F
  0.0000000018372788  0.2500000003247891  0.3396412336499992   F   F   F
  0.0000000018372788  0.5000000012991492  0.3396412336499992   F   F   F
  0.2499271027678385  0.2503708584492215  0.4586784761019918   T   T   T
  0.2495900082646053  0.4997394911925574  0.4579187693881072   T   T   T
  0.2516068651703731  0.7484689133185893  0.4593611329745335   T   T   T
  0.2502317972575331  0.0002314228004723  0.4591450399975048   T   T   T
  0.4998964195107455  0.2516298262243870  0.4588663304297126   T   T   T
  0.5000180673948659  0.5000156015566484  0.4559703675214661   T   T   T
  0.5001001844222283  0.7483416731780570  0.4588730306688005   T   T   T
  0.5000183279512920 -0.0000084358961330  0.4592254993174471   T   T   T
  0.7484197350621554  0.2515205766627469  0.4593655858136688   T   T   T
  0.7504090974302927  0.5002541852184772  0.4579394138205518   T   T   T
  0.7500582214507051  0.7496212823009389  0.4586843744537195   T   T   T
  0.7497739347728218  0.9997609940540845  0.4591514434217822   T   T   T
  0.9986250521268452  0.2502109435291668  0.4590724916051449   T   T   T
 -0.0000044647685204  0.4999982276917980  0.4587765795255179   T   T   T
  0.0014025564713692  0.7497738188861708  0.4590657708430299   T   T   T
  0.0000133377678637  0.9999854970516121  0.4592788719771792   T   T   T
  0.1245295891881588  0.1254893200915245  0.5150633680656097   T   T   T
  0.1214566682271775  0.3744341807467927  0.5150199243231106   T   T   T
  0.1255607040106017  0.6244376119039166  0.5154424163577633   T   T   T
  0.1261940021551244  0.8745662655820252  0.5151217070964212   T   T   T
  0.3751257038720317  0.1257330692247049  0.5150765176496586   T   T   T
  0.3680147725659909  0.3753817474384675  0.5164381375839183   T   T   T
  0.3820480523938274  0.6137197268155417  0.5206653792546845   T   T   T
  0.3750225001461850  0.8744288306865501  0.5148879402821475   T   T   T
  0.6250036292700650  0.1255761293599471  0.5148901481291058   T   T   T
  0.6179356147893893  0.3862106541209330  0.5206359437275386   T   T   T
  0.6320236879236434  0.6245952356163685  0.5164407741216691   T   T   T
  0.6249276367699805  0.8742445839412109  0.5150894231353713   T   T   T
  0.8738389892775794  0.1254161100554965  0.5151105037339014   T   T   T
  0.8745123293159112  0.3755407907621394  0.5154427724399739   T   T   T
  0.8786358696884706  0.6255926074032888  0.5150192714009885   T   T   T
  0.8754769054514424  0.8744759211814962  0.5150781710876280   T   T   T
  0.1249999997703384  0.1250000001623945  0.4012615800633341   F   F   F
  0.1249999997703384  0.3750000004871836  0.4012615800633341   F   F   F
  0.1250000006889778  0.6250000014615438  0.4012615800633341   F   F   F
  0.1250000006889778  0.8750000017863329  0.4012615800633341   F   F   F
  0.3750000002296616  0.1250000001623945  0.4012615800633341   F   F   F
  0.3750000002296616  0.3750000004871836  0.4012615800633341   F   F   F
  0.3750000011483010  0.6250000014615438  0.4012615800633341   F   F   F
  0.3750000011483010  0.8750000017863329  0.4012615800633341   F   F   F
  0.6250000006889778  0.1250000001623945  0.4012615800633341   F   F   F
  0.6250000006889778  0.3750000004871836  0.4012615800633341   F   F   F
  0.6250000006889778  0.6250000014615438  0.4012615800633341   F   F   F
  0.6250000006889778  0.8750000017863329  0.4012615800633341   F   F   F
  0.8750000011483010  0.1250000001623945  0.4012615800633341   F   F   F
  0.8750000011483010  0.3750000004871836  0.4012615800633341   F   F   F
  0.8750000020669404  0.6250000014615438  0.4012615800633341   F   F   F
  0.8750000011483010  0.8750000017863329  0.4012615800633341   F   F   F
  0.3957820789186917  0.4381436677848818  0.5987385234256429   T   T   T
  0.3736676983465196  0.5337747204700838  0.5988628746736966   T   T   T
  0.4766720853196073  0.5926287075247083  0.6046845114362603   T   T   T
  0.6042920427613288  0.5617221172491430  0.5986893456536113   T   T   T
  0.6264238321403940  0.4660827583108719  0.5988336533891095   T   T   T
  0.5233888377164274  0.4072505785125546  0.6046922095256504   T   T   T
  0.3333768381715428  0.4055671069051232  0.6306752183691821   T   T   T
  0.6667302211221158  0.5942422336108466  0.6306363799687118   T   T   T
  0.2682353106994599  0.5546558105670476  0.6314499094186425   T   T   T
  0.4625733092940584  0.6632854842877260  0.6424234721109704   T   T   T
  0.7319118803683846  0.4452022460038415  0.6313614581379452   T   T   T
  0.5375579374856455  0.3365095719291082  0.6423832617823706   T   T   T
 
  0.00000000E+00  0.00000000E+00  0.00000000E+00
  0.00000000E+00  0.00000000E+00  0.00000000E+00
  0.00000000E+00  0.00000000E+00  0.00000000E+00
  0.00000000E+00  0.00000000E+00  0.00000000E+00
  0.00000000E+00  0.00000000E+00  0.00000000E+00
  0.00000000E+00  0.00000000E+00  0.00000000E+00
  0.00000000E+00  0.00000000E+00  0.00000000E+00
  0.00000000E+00  0.00000000E+00  0.00000000E+00
  0.00000000E+00  0.00000000E+00  0.00000000E+00
  0.00000000E+00  0.00000000E+00  0.00000000E+00
  0.00000000E+00  0.00000000E+00  0.00000000E+00
  0.00000000E+00  0.00000000E+00  0.00000000E+00
  0.00000000E+00  0.00000000E+00  0.00000000E+00
  0.00000000E+00  0.00000000E+00  0.00000000E+00
  0.00000000E+00  0.00000000E+00  0.00000000E+00
  0.00000000E+00  0.00000000E+00  0.00000000E+00
  0.00000000E+00  0.00000000E+00  0.00000000E+00
  0.00000000E+00  0.00000000E+00  0.00000000E+00
  0.00000000E+00  0.00000000E+00  0.00000000E+00
  0.00000000E+00  0.00000000E+00  0.00000000E+00
  0.00000000E+00  0.00000000E+00  0.00000000E+00
  0.00000000E+00  0.00000000E+00  0.00000000E+00
  0.00000000E+00  0.00000000E+00  0.00000000E+00
  0.00000000E+00  0.00000000E+00  0.00000000E+00
  0.00000000E+00  0.00000000E+00  0.00000000E+00
  0.00000000E+00  0.00000000E+00  0.00000000E+00
  0.00000000E+00  0.00000000E+00  0.00000000E+00
  0.00000000E+00  0.00000000E+00  0.00000000E+00
  0.00000000E+00  0.00000000E+00  0.00000000E+00
  0.00000000E+00  0.00000000E+00  0.00000000E+00
  0.00000000E+00  0.00000000E+00  0.00000000E+00
  0.00000000E+00  0.00000000E+00  0.00000000E+00
  0.00000000E+00  0.00000000E+00  0.00000000E+00
  0.00000000E+00  0.00000000E+00  0.00000000E+00
  0.00000000E+00  0.00000000E+00  0.00000000E+00
  0.00000000E+00  0.00000000E+00  0.00000000E+00
  0.00000000E+00  0.00000000E+00  0.00000000E+00
  0.00000000E+00  0.00000000E+00  0.00000000E+00
  0.00000000E+00  0.00000000E+00  0.00000000E+00
  0.00000000E+00  0.00000000E+00  0.00000000E+00
  0.00000000E+00  0.00000000E+00  0.00000000E+00
  0.00000000E+00  0.00000000E+00  0.00000000E+00
  0.00000000E+00  0.00000000E+00  0.00000000E+00
  0.00000000E+00  0.00000000E+00  0.00000000E+00
  0.00000000E+00  0.00000000E+00  0.00000000E+00
  0.00000000E+00  0.00000000E+00  0.00000000E+00
  0.00000000E+00  0.00000000E+00  0.00000000E+00
  0.00000000E+00  0.00000000E+00  0.00000000E+00
  0.00000000E+00  0.00000000E+00  0.00000000E+00
  0.00000000E+00  0.00000000E+00  0.00000000E+00
  0.00000000E+00  0.00000000E+00  0.00000000E+00
  0.00000000E+00  0.00000000E+00  0.00000000E+00
  0.00000000E+00  0.00000000E+00  0.00000000E+00
  0.00000000E+00  0.00000000E+00  0.00000000E+00
  0.00000000E+00  0.00000000E+00  0.00000000E+00
  0.00000000E+00  0.00000000E+00  0.00000000E+00
  0.00000000E+00  0.00000000E+00  0.00000000E+00
  0.00000000E+00  0.00000000E+00  0.00000000E+00
  0.00000000E+00  0.00000000E+00  0.00000000E+00
  0.00000000E+00  0.00000000E+00  0.00000000E+00
  0.00000000E+00  0.00000000E+00  0.00000000E+00
  0.00000000E+00  0.00000000E+00  0.00000000E+00
  0.00000000E+00  0.00000000E+00  0.00000000E+00
  0.00000000E+00  0.00000000E+00  0.00000000E+00
  0.00000000E+00  0.00000000E+00  0.00000000E+00
  0.00000000E+00  0.00000000E+00  0.00000000E+00
  0.00000000E+00  0.00000000E+00  0.00000000E+00
  0.00000000E+00  0.00000000E+00  0.00000000E+00
  0.00000000E+00  0.00000000E+00  0.00000000E+00
  0.00000000E+00  0.00000000E+00  0.00000000E+00
  0.00000000E+00  0.00000000E+00  0.00000000E+00
  0.00000000E+00  0.00000000E+00  0.00000000E+00
  0.00000000E+00  0.00000000E+00  0.00000000E+00
  0.00000000E+00  0.00000000E+00  0.00000000E+00
  0.00000000E+00  0.00000000E+00  0.00000000E+00
  0.00000000E+00  0.00000000E+00  0.00000000E+00
