Au  C Br                                
   1.00000000000000     
    11.7981859999999994    0.0000000000000000    0.0000000000000000
    -5.8990929999999997   10.2175279999999997    0.0000000000000000
     0.0000000000000000    0.0000000000000000   25.2248836799999978
   Au   C    Br
    64     6     6
Selective dynamics
Direct
  0.9999999981222629  0.7500000352335690  0.2973254543071064   F   F   F
  0.2499999923717056  0.0000000000000000  0.2973254543071064   F   F   F
  0.2500000016343193  0.2500000117445254  0.2973254543071064   F   F   F
  0.2500000117445254  0.5000000234890507  0.2973254543071064   F   F   F
  0.2500000210071391  0.7500000352335690  0.2973254543071064   F   F   F
  0.4999999847434182  0.0000000000000000  0.2973254543071064   F   F   F
  0.4999999940060320  0.2500000117445254  0.2973254543071064   F   F   F
  0.5000000041162309  0.5000000234890507  0.2973254543071064   F   F   F
  0.7499999771151238  0.0000000000000000  0.2973254543071064   F   F   F
  0.7499999863777376  0.2500000117445254  0.2973254543071064   F   F   F
  0.7499999964879436  0.5000000234890507  0.2973254543071064   F   F   F
  0.7500000057505574  0.7500000352335690  0.2973254543071064   F   F   F
  0.9999999694868364  0.0000000000000000  0.2973254543071064   F   F   F
  0.0000000092626138  0.2500000117445254  0.2973254543071064   F   F   F
  0.9999999888596491  0.5000000234890507  0.2973254543071064   F   F   F
  0.5000000133788447  0.7500000352335690  0.2973254543071064   F   F   F
  0.0833330000000032  0.1666669999999968  0.3927984241947584   F   F   F
  0.0833330000000032  0.4166669999999968  0.3927984241947584   F   F   F
  0.0833330000000032  0.6666669999999968  0.3927984241947584   F   F   F
  0.0833330000000032  0.9166669999999968  0.3927984241947584   F   F   F
  0.3333330000000032  0.1666669999999968  0.3927984241947584   F   F   F
  0.3333330000000032  0.4166669999999968  0.3927984241947584   F   F   F
  0.3333330000000032  0.6666669999999968  0.3927984241947584   F   F   F
  0.3333330000000032  0.9166669999999968  0.3927984241947584   F   F   F
  0.5833330000000032  0.1666669999999968  0.3927984241947584   F   F   F
  0.5833330000000032  0.4166669999999968  0.3927984241947584   F   F   F
  0.5833330000000032  0.6666669999999968  0.3927984241947584   F   F   F
  0.5833330000000032  0.9166669999999968  0.3927984241947584   F   F   F
  0.8333330000000032  0.1666669999999968  0.3927984241947584   F   F   F
  0.8333330000000032  0.4166669999999968  0.3927984241947584   F   F   F
  0.8333330000000032  0.6666669999999968  0.3927984241947584   F   F   F
  0.8333330000000032  0.9166669999999968  0.3927984241947584   F   F   F
  0.2498517532560351  0.2499171002291706  0.5849489708277968   T   T   T
  0.2499944761217469  0.5000875765117522  0.5842644513359583   T   T   T
  0.2498579636501050  0.7499612501019742  0.5849678765125077   T   T   T
  0.2499293013218093 -0.0000431896136209  0.5844861614939527   T   T   T
  0.4999343459012278  0.2485832995816893  0.5832093451569647   T   T   T
  0.5000855749074528  0.5001054234611849  0.5810582090963763   T   T   T
  0.5000551348755102  0.7499514268735133  0.5810366363517979   T   T   T
  0.5000146308955943  0.0000359454616900  0.5844370867332512   T   T   T
  0.7500103701550366  0.2499141078005938  0.5849689695878701   T   T   T
  0.7499371397636666  0.4999737519079907  0.5810668162282576   T   T   T
  0.7498582204270675  0.7499214334825637  0.5810519809495360   T   T   T
  0.7499422856566949  0.0000569415979413  0.5842770019955040   T   T   T
 -0.0000906157250536  0.2512405781630226  0.5833884994413103   T   T   T
  0.0000608820577949  0.5000242405952356  0.5849761304707385   T   T   T
  0.0001626864430912  0.7499985956096672  0.5843801805560902   T   T   T
  0.0001195326170553  0.0002025114981417  0.5844142067772754   T   T   T
  0.1664899114914677  0.0846785640748229  0.4879130278512387   T   T   T
  0.1654081238560323  0.3334725557737485  0.4878933105307718   T   T   T
  0.1653955769223625  0.5834464765513970  0.4879517248843294   T   T   T
  0.1666635125079792  0.8346761467667462  0.4879179569940409   T   T   T
  0.4152307569597075  0.0829983480848206  0.4878117525554831   T   T   T
  0.4151180953773769  0.3320731339231195  0.4878039399833773   T   T   T
  0.4159792081063999  0.5832062737796759  0.4861504659362239   T   T   T
  0.4152700662290708  0.8334900050052561  0.4878566909540293   T   T   T
  0.6652670270243728  0.0832671738427040  0.4879455297853177   T   T   T
  0.6654227848142535  0.3317485664535355  0.4875466532946181   T   T   T
  0.6669034592544583  0.5830876509887786  0.4859862536060459   T   T   T
  0.6667347211266255  0.8339266445947607  0.4861581830863282   T   T   T
  0.9153044331915299  0.0833403219606476  0.4878948165794172   T   T   T
  0.9152167125669703  0.3333983021424121  0.4878888643618903   T   T   T
  0.9181734353219992  0.5845291131752461  0.4878242900416404   T   T   T
  0.9181836896978844  0.8347277287468170  0.4878142523261779   T   T   T
  0.6939654417020177  0.7627802699645408  0.7100721636444143   T   T   T
  0.7628074823813414  0.6938938560699296  0.7100935834866619   T   T   T
  0.6938304948027831  0.5563092718217831  0.7100471981454725   T   T   T
  0.5562550614591385  0.4873572960836705  0.7100460950259505   T   T   T
  0.4874226517393302  0.5562599206048195  0.7101146851701013   T   T   T
  0.5563678298329422  0.6938452721885845  0.7100882967636262   T   T   T
  0.7860772515218035  0.9474951714901847  0.7115941814667980   T   T   T
  0.9475336523071363  0.7860471522070541  0.7116179189505022   T   T   T
  0.7861118947409991  0.4639885263395017  0.7104609854604667   T   T   T
  0.4640355822042267  0.3026578261476161  0.7115139776402202   T   T   T
  0.3027274254482701  0.4641579368277940  0.7117754137205123   T   T   T
  0.4639722469007518  0.7861043121040715  0.7106012257665132   T   T   T
 
  0.00000000E+00  0.00000000E+00  0.00000000E+00
  0.00000000E+00  0.00000000E+00  0.00000000E+00
  0.00000000E+00  0.00000000E+00  0.00000000E+00
  0.00000000E+00  0.00000000E+00  0.00000000E+00
  0.00000000E+00  0.00000000E+00  0.00000000E+00
  0.00000000E+00  0.00000000E+00  0.00000000E+00
  0.00000000E+00  0.00000000E+00  0.00000000E+00
  0.00000000E+00  0.00000000E+00  0.00000000E+00
  0.00000000E+00  0.00000000E+00  0.00000000E+00
  0.00000000E+00  0.00000000E+00  0.00000000E+00
  0.00000000E+00  0.00000000E+00  0.00000000E+00
  0.00000000E+00  0.00000000E+00  0.00000000E+00
  0.00000000E+00  0.00000000E+00  0.00000000E+00
  0.00000000E+00  0.00000000E+00  0.00000000E+00
  0.00000000E+00  0.00000000E+00  0.00000000E+00
  0.00000000E+00  0.00000000E+00  0.00000000E+00
  0.00000000E+00  0.00000000E+00  0.00000000E+00
  0.00000000E+00  0.00000000E+00  0.00000000E+00
  0.00000000E+00  0.00000000E+00  0.00000000E+00
  0.00000000E+00  0.00000000E+00  0.00000000E+00
  0.00000000E+00  0.00000000E+00  0.00000000E+00
  0.00000000E+00  0.00000000E+00  0.00000000E+00
  0.00000000E+00  0.00000000E+00  0.00000000E+00
  0.00000000E+00  0.00000000E+00  0.00000000E+00
  0.00000000E+00  0.00000000E+00  0.00000000E+00
  0.00000000E+00  0.00000000E+00  0.00000000E+00
  0.00000000E+00  0.00000000E+00  0.00000000E+00
  0.00000000E+00  0.00000000E+00  0.00000000E+00
  0.00000000E+00  0.00000000E+00  0.00000000E+00
  0.00000000E+00  0.00000000E+00  0.00000000E+00
  0.00000000E+00  0.00000000E+00  0.00000000E+00
  0.00000000E+00  0.00000000E+00  0.00000000E+00
  0.00000000E+00  0.00000000E+00  0.00000000E+00
  0.00000000E+00  0.00000000E+00  0.00000000E+00
  0.00000000E+00  0.00000000E+00  0.00000000E+00
  0.00000000E+00  0.00000000E+00  0.00000000E+00
  0.00000000E+00  0.00000000E+00  0.00000000E+00
  0.00000000E+00  0.00000000E+00  0.00000000E+00
  0.00000000E+00  0.00000000E+00  0.00000000E+00
  0.00000000E+00  0.00000000E+00  0.00000000E+00
  0.00000000E+00  0.00000000E+00  0.00000000E+00
  0.00000000E+00  0.00000000E+00  0.00000000E+00
  0.00000000E+00  0.00000000E+00  0.00000000E+00
  0.00000000E+00  0.00000000E+00  0.00000000E+00
  0.00000000E+00  0.00000000E+00  0.00000000E+00
  0.00000000E+00  0.00000000E+00  0.00000000E+00
  0.00000000E+00  0.00000000E+00  0.00000000E+00
  0.00000000E+00  0.00000000E+00  0.00000000E+00
  0.00000000E+00  0.00000000E+00  0.00000000E+00
  0.00000000E+00  0.00000000E+00  0.00000000E+00
  0.00000000E+00  0.00000000E+00  0.00000000E+00
  0.00000000E+00  0.00000000E+00  0.00000000E+00
  0.00000000E+00  0.00000000E+00  0.00000000E+00
  0.00000000E+00  0.00000000E+00  0.00000000E+00
  0.00000000E+00  0.00000000E+00  0.00000000E+00
  0.00000000E+00  0.00000000E+00  0.00000000E+00
  0.00000000E+00  0.00000000E+00  0.00000000E+00
  0.00000000E+00  0.00000000E+00  0.00000000E+00
  0.00000000E+00  0.00000000E+00  0.00000000E+00
  0.00000000E+00  0.00000000E+00  0.00000000E+00
  0.00000000E+00  0.00000000E+00  0.00000000E+00
  0.00000000E+00  0.00000000E+00  0.00000000E+00
  0.00000000E+00  0.00000000E+00  0.00000000E+00
  0.00000000E+00  0.00000000E+00  0.00000000E+00
  0.00000000E+00  0.00000000E+00  0.00000000E+00
  0.00000000E+00  0.00000000E+00  0.00000000E+00
  0.00000000E+00  0.00000000E+00  0.00000000E+00
  0.00000000E+00  0.00000000E+00  0.00000000E+00
  0.00000000E+00  0.00000000E+00  0.00000000E+00
  0.00000000E+00  0.00000000E+00  0.00000000E+00
  0.00000000E+00  0.00000000E+00  0.00000000E+00
  0.00000000E+00  0.00000000E+00  0.00000000E+00
  0.00000000E+00  0.00000000E+00  0.00000000E+00
  0.00000000E+00  0.00000000E+00  0.00000000E+00
  0.00000000E+00  0.00000000E+00  0.00000000E+00
  0.00000000E+00  0.00000000E+00  0.00000000E+00
