Ir48 C4 N2 F4                           
    1.000000000000000     
    10.9622135000000007    0.0000000000000000    0.0000000000000000
     0.0000000000000000   10.9622135000000007    0.0000000000000000
     0.0000000000000000    0.0000000000000000   16.7325000400000015
   Ir   C    N    F 
    48     4     2     4
Selective dynamics
Direct
 -0.0008801607165686  0.2494391586746729  0.4094411592676253   T   T   T
  0.0000005273351148  0.4999969486897275  0.4094169789884734   T   T   T
  0.0008817774512374  0.7505629663476479  0.4094390595516852   T   T   T
  0.0000007781746692  0.0000016073316170  0.4094400106634247   T   T   T
  0.2505384180541830  0.2505412116974699  0.4102293691484485   T   T   T
  0.2507654255057268  0.4997993513937005  0.4102318126545756   T   T   T
  0.2527107554550764  0.7472906841535403  0.4118394399062395   T   T   T
  0.2494374265584288 -0.0008799876155693  0.4094373943116792   T   T   T
  0.4997994707252583  0.2507673289100794  0.4102315931442859   T   T   T
  0.5000018812768748  0.5000001311377710  0.4110991558715677   T   T   T
  0.5002003415248547  0.7492334650632277  0.4102315031662495   T   T   T
  0.4999998026206265  0.0000008067172967  0.4094155742102143   T   T   T
  0.7472883473179246  0.2527114547934776  0.4118415605260121   T   T   T
  0.7492307665570376  0.5001990288833220  0.4102306446126626   T   T   T
  0.7494569940662968  0.7494596030543730  0.4102294382020903   T   T   T
  0.7505598010764825  0.0008816573084496  0.4094412569533723   T   T   T
  0.1249352126423564  0.1249361281733157  0.5210908020512857   T   T   T
  0.1225440688554169  0.3745478856354660  0.5210029221592042   T   T   T
  0.1233482382951895  0.6246954443870963  0.5219019630987229   T   T   T
  0.1248820963282330  0.8751202368371096  0.5211972842257844   T   T   T
  0.3745450111297805  0.1225462430646659  0.5210017180169298   T   T   T
  0.3719108976333400  0.3719131576000633  0.5228257106955152   T   T   T
  0.3740599803954405  0.6259404185241407  0.5313373292940787   T   T   T
  0.3753041586642341  0.8766508507891673  0.5219017599066390   T   T   T
  0.6246936741019159  0.1233497710338929  0.5219005572999528   T   T   T
  0.6259382602663277  0.3740627450868496  0.5313369884839272   T   T   T
  0.6280887880015842  0.6280886839602446  0.5228262445691563   T   T   T
  0.6254497632751789  0.8774541417018383  0.5210025806508726   T   T   T
  0.8751205503675705  0.1248825282617835  0.5211952362152191   T   T   T
  0.8766502022609862  0.3753075602281611  0.5219004955376887   T   T   T
  0.8774533544098063  0.6254504306528114  0.5210022978009573   T   T   T
  0.8750640673233469  0.8750638658869151  0.5210909904417663   T   T   T
  0.1250000002280558  0.1250000002280558  0.2988196616194330   F   F   F
  0.1250000002280558  0.3749999997719442  0.2988196616194330   F   F   F
  0.1250000002280558  0.6249999993158326  0.2988196616194330   F   F   F
  0.1250000002280558  0.8749999988597210  0.2988196616194330   F   F   F
  0.3749999997719442  0.1250000002280558  0.2988196616194330   F   F   F
  0.3749999997719442  0.3749999997719442  0.2988196616194330   F   F   F
  0.3749999997719442  0.6249999993158326  0.2988196616194330   F   F   F
  0.3749999997719442  0.8749999988597210  0.2988196616194330   F   F   F
  0.6249999993158326  0.1250000002280558  0.2988196616194330   F   F   F
  0.6249999993158326  0.3749999997719442  0.2988196616194330   F   F   F
  0.6249999993158326  0.6249999993158326  0.2988196616194330   F   F   F
  0.6249999993158326  0.8749999988597210  0.2988196616194330   F   F   F
  0.8749999988597210  0.1250000002280558  0.2988196616194330   F   F   F
  0.8749999988597210  0.3749999997719442  0.2988196616194330   F   F   F
  0.8749999988597210  0.6249999993158326  0.2988196616194330   F   F   F
  0.8749999988597210  0.8749999988597210  0.2988196616194330   F   F   F
  0.5300928335721949  0.3764329804676331  0.6469910644512338   T   T   T
  0.6235666067652403  0.4698818453206646  0.6469916224074479   T   T   T
  0.4699058817407787  0.6235694045398172  0.6469883106215363   T   T   T
  0.3764314673785359  0.5301129220648103  0.6469870824635513   T   T   T
  0.5936428518727984  0.5936325273992209  0.6424328653194414   T   T   T
  0.4063534121758047  0.4063702709490692  0.6424305679566098   T   T   T
  0.2727816350387561  0.5511729754001943  0.6905167566347163   T   T   T
  0.4488588916751964  0.7272285045652052  0.6905131464471523   T   T   T
  0.5511332728983142  0.2727790429930612  0.6905151575022229   T   T   T
  0.7272043323640832  0.4488291481814198  0.6905236979388075   T   T   T
 
  0.00000000E+00  0.00000000E+00  0.00000000E+00
  0.00000000E+00  0.00000000E+00  0.00000000E+00
  0.00000000E+00  0.00000000E+00  0.00000000E+00
  0.00000000E+00  0.00000000E+00  0.00000000E+00
  0.00000000E+00  0.00000000E+00  0.00000000E+00
  0.00000000E+00  0.00000000E+00  0.00000000E+00
  0.00000000E+00  0.00000000E+00  0.00000000E+00
  0.00000000E+00  0.00000000E+00  0.00000000E+00
  0.00000000E+00  0.00000000E+00  0.00000000E+00
  0.00000000E+00  0.00000000E+00  0.00000000E+00
  0.00000000E+00  0.00000000E+00  0.00000000E+00
  0.00000000E+00  0.00000000E+00  0.00000000E+00
  0.00000000E+00  0.00000000E+00  0.00000000E+00
  0.00000000E+00  0.00000000E+00  0.00000000E+00
  0.00000000E+00  0.00000000E+00  0.00000000E+00
  0.00000000E+00  0.00000000E+00  0.00000000E+00
  0.00000000E+00  0.00000000E+00  0.00000000E+00
  0.00000000E+00  0.00000000E+00  0.00000000E+00
  0.00000000E+00  0.00000000E+00  0.00000000E+00
  0.00000000E+00  0.00000000E+00  0.00000000E+00
  0.00000000E+00  0.00000000E+00  0.00000000E+00
  0.00000000E+00  0.00000000E+00  0.00000000E+00
  0.00000000E+00  0.00000000E+00  0.00000000E+00
  0.00000000E+00  0.00000000E+00  0.00000000E+00
  0.00000000E+00  0.00000000E+00  0.00000000E+00
  0.00000000E+00  0.00000000E+00  0.00000000E+00
  0.00000000E+00  0.00000000E+00  0.00000000E+00
  0.00000000E+00  0.00000000E+00  0.00000000E+00
  0.00000000E+00  0.00000000E+00  0.00000000E+00
  0.00000000E+00  0.00000000E+00  0.00000000E+00
  0.00000000E+00  0.00000000E+00  0.00000000E+00
  0.00000000E+00  0.00000000E+00  0.00000000E+00
  0.00000000E+00  0.00000000E+00  0.00000000E+00
  0.00000000E+00  0.00000000E+00  0.00000000E+00
  0.00000000E+00  0.00000000E+00  0.00000000E+00
  0.00000000E+00  0.00000000E+00  0.00000000E+00
  0.00000000E+00  0.00000000E+00  0.00000000E+00
  0.00000000E+00  0.00000000E+00  0.00000000E+00
  0.00000000E+00  0.00000000E+00  0.00000000E+00
  0.00000000E+00  0.00000000E+00  0.00000000E+00
  0.00000000E+00  0.00000000E+00  0.00000000E+00
  0.00000000E+00  0.00000000E+00  0.00000000E+00
  0.00000000E+00  0.00000000E+00  0.00000000E+00
  0.00000000E+00  0.00000000E+00  0.00000000E+00
  0.00000000E+00  0.00000000E+00  0.00000000E+00
  0.00000000E+00  0.00000000E+00  0.00000000E+00
  0.00000000E+00  0.00000000E+00  0.00000000E+00
  0.00000000E+00  0.00000000E+00  0.00000000E+00
  0.00000000E+00  0.00000000E+00  0.00000000E+00
  0.00000000E+00  0.00000000E+00  0.00000000E+00
  0.00000000E+00  0.00000000E+00  0.00000000E+00
  0.00000000E+00  0.00000000E+00  0.00000000E+00
  0.00000000E+00  0.00000000E+00  0.00000000E+00
  0.00000000E+00  0.00000000E+00  0.00000000E+00
  0.00000000E+00  0.00000000E+00  0.00000000E+00
  0.00000000E+00  0.00000000E+00  0.00000000E+00
  0.00000000E+00  0.00000000E+00  0.00000000E+00
  0.00000000E+00  0.00000000E+00  0.00000000E+00
