Rh  C  H Cl                             
    1.000000000000000     
    10.8856652999999994    0.0000000000000000    0.0000000000000000
     0.0000000000000000   10.8856652999999994    0.0000000000000000
     0.0000000000000000    0.0000000000000000   23.7729958199999984
   Rh   C    H    Cl
    64     6     2     4
Selective dynamics
Direct
  0.0000000000000000  0.0000000000000000  0.3154840078544225   F   F   F
  0.7500000013779555  0.5000000009186394  0.3154840078544225   F   F   F
  0.0000000018372788  0.2500000004593161  0.3154840078544225   F   F   F
  0.0000000018372788  0.5000000009186394  0.3154840078544225   F   F   F
  0.0000000000000000  0.7500000013779555  0.3154840078544225   F   F   F
  0.2500000004593161  0.0000000000000000  0.3154840078544225   F   F   F
  0.2500000004593161  0.2500000004593161  0.3154840078544225   F   F   F
  0.7500000013779555  0.7500000013779555  0.3154840078544225   F   F   F
  0.2500000004593161  0.5000000009186394  0.3154840078544225   F   F   F
  0.2500000004593161  0.7500000013779555  0.3154840078544225   F   F   F
  0.5000000009186394  0.0000000000000000  0.3154840078544225   F   F   F
  0.5000000009186394  0.2500000004593161  0.3154840078544225   F   F   F
  0.5000000009186394  0.5000000009186394  0.3154840078544225   F   F   F
  0.5000000009186394  0.7500000013779555  0.3154840078544225   F   F   F
  0.7500000013779555  0.0000000000000000  0.3154840078544225   F   F   F
  0.7500000013779555  0.2500000004593161  0.3154840078544225   F   F   F
  0.0000090100690976 -0.0000300776986294  0.4732262801347846   T   T   T
  0.9983351826614545  0.2507015999187945  0.4737148383984140   T   T   T
  0.0000118920653036  0.5000152723683545  0.4740385715945700   T   T   T
  0.0017136945597173  0.7492917726806957  0.4737259120849217   T   T   T
  0.2507224197702438  0.9982930257576501  0.4737340447111340   T   T   T
  0.2491041911632584  0.2490830367200620  0.4730399329701793   T   T   T
  0.2493609483147059  0.5000252134525184  0.4736812876312661   T   T   T
  0.2520834995023733  0.7479461896153563  0.4742857929643406   T   T   T
  0.5000101496377691 -0.0000312889724473  0.4740520041665894   T   T   T
  0.5000288096744644  0.2493315888955188  0.4736892879741712   T   T   T
  0.5000056121804612  0.4999957102191540  0.4730761923197812   T   T   T
  0.4999746657170416  0.7506451804499550  0.4736930423642513   T   T   T
  0.7492793468039780  0.0017044128613840  0.4737252196194074   T   T   T
  0.7478918147990381  0.2520679904182150  0.4742675772198433   T   T   T
  0.7506544705845301  0.4999979430622332  0.4736900513215123   T   T   T
  0.7509114994757805  0.7509068972870750  0.4730602681838373   T   T   T
  0.1246140594459793  0.1245982113841131  0.5485394031578019   T   T   T
  0.1242768641117820  0.3727265271561190  0.5486904068697893   T   T   T
  0.1246686403418725  0.6255732352272975  0.5506237479552578   T   T   T
  0.1246436367127827  0.8753449142372419  0.5488250188320281   T   T   T
  0.3727275062952280  0.1242441496632173  0.5487038116779991   T   T   T
  0.3721259500065037  0.3721204243896308  0.5483329213036060   T   T   T
  0.3770727460398274  0.6229640520754532  0.5532170560323900   T   T   T
  0.3744414086829815  0.8753365012897737  0.5506400705931790   T   T   T
  0.6255699545113912  0.1246594230000842  0.5506388031981682   T   T   T
  0.6229355881641910  0.3770852934875227  0.5532480480954596   T   T   T
  0.6278795317918008  0.6278735197885521  0.5483499405804909   T   T   T
  0.6272570754012733  0.8757145732512762  0.5487172061592921   T   T   T
  0.8753063455706189  0.1246867451197052  0.5488159889552957   T   T   T
  0.8753475429618280  0.3744084281413670  0.5505960459601072   T   T   T
  0.8757280871503831  0.6272602430564379  0.5487052161282694   T   T   T
  0.8754051130296333  0.8754001462988620  0.5485280419324059   T   T   T
  0.1249999997703384  0.1249999997703384  0.3964301349042145   F   F   F
  0.1250000006889778  0.3750000002296616  0.3964301349042145   F   F   F
  0.1250000006889778  0.6250000006889778  0.3964301349042145   F   F   F
  0.1250000006889778  0.8750000011483010  0.3964301349042145   F   F   F
  0.3750000011483010  0.1249999997703384  0.3964301349042145   F   F   F
  0.3750000011483010  0.3750000002296616  0.3964301349042145   F   F   F
  0.3750000011483010  0.6250000006889778  0.3964301349042145   F   F   F
  0.3750000011483010  0.8750000011483010  0.3964301349042145   F   F   F
  0.6250000006889778  0.1249999997703384  0.3964301349042145   F   F   F
  0.6250000006889778  0.3750000002296616  0.3964301349042145   F   F   F
  0.6250000016076172  0.6250000006889778  0.3964301349042145   F   F   F
  0.6250000016076172  0.8750000011483010  0.3964301349042145   F   F   F
  0.8750000011483010  0.1249999997703384  0.3964301349042145   F   F   F
  0.8750000011483010  0.3750000002296616  0.3964301349042145   F   F   F
  0.8750000011483010  0.6250000006889778  0.3964301349042145   F   F   F
  0.8750000020669404  0.8750000011483010  0.3964301349042145   F   F   F
  0.4040108367361485  0.4040350560788015  0.6333504354897029   T   T   T
  0.3701707087736567  0.5353842482889595  0.6335900301796238   T   T   T
  0.4646122708721124  0.6298668509167781  0.6336109930242506   T   T   T
  0.5959176843264090  0.5960263749804205  0.6333623468446650   T   T   T
  0.6297598130423139  0.4646910566906772  0.6336142733692034   T   T   T
  0.5353456061766676  0.3702138576305514  0.6336030253601643   T   T   T
  0.3435621788840016  0.3436011359940785  0.6575796826829771   T   T   T
  0.6563271314092646  0.6564215845210626  0.6575772808321865   T   T   T
  0.2232042434399364  0.5652278705644402  0.6621631931216817   T   T   T
  0.4347157576628423  0.7768394399777092  0.6622363518355892   T   T   T
  0.7767521361521432  0.4348410854731077  0.6621951926667442   T   T   T
  0.5651915446431883  0.2232799495856246  0.6621482406552033   T   T   T
 
  0.00000000E+00  0.00000000E+00  0.00000000E+00
  0.00000000E+00  0.00000000E+00  0.00000000E+00
  0.00000000E+00  0.00000000E+00  0.00000000E+00
  0.00000000E+00  0.00000000E+00  0.00000000E+00
  0.00000000E+00  0.00000000E+00  0.00000000E+00
  0.00000000E+00  0.00000000E+00  0.00000000E+00
  0.00000000E+00  0.00000000E+00  0.00000000E+00
  0.00000000E+00  0.00000000E+00  0.00000000E+00
  0.00000000E+00  0.00000000E+00  0.00000000E+00
  0.00000000E+00  0.00000000E+00  0.00000000E+00
  0.00000000E+00  0.00000000E+00  0.00000000E+00
  0.00000000E+00  0.00000000E+00  0.00000000E+00
  0.00000000E+00  0.00000000E+00  0.00000000E+00
  0.00000000E+00  0.00000000E+00  0.00000000E+00
  0.00000000E+00  0.00000000E+00  0.00000000E+00
  0.00000000E+00  0.00000000E+00  0.00000000E+00
  0.00000000E+00  0.00000000E+00  0.00000000E+00
  0.00000000E+00  0.00000000E+00  0.00000000E+00
  0.00000000E+00  0.00000000E+00  0.00000000E+00
  0.00000000E+00  0.00000000E+00  0.00000000E+00
  0.00000000E+00  0.00000000E+00  0.00000000E+00
  0.00000000E+00  0.00000000E+00  0.00000000E+00
  0.00000000E+00  0.00000000E+00  0.00000000E+00
  0.00000000E+00  0.00000000E+00  0.00000000E+00
  0.00000000E+00  0.00000000E+00  0.00000000E+00
  0.00000000E+00  0.00000000E+00  0.00000000E+00
  0.00000000E+00  0.00000000E+00  0.00000000E+00
  0.00000000E+00  0.00000000E+00  0.00000000E+00
  0.00000000E+00  0.00000000E+00  0.00000000E+00
  0.00000000E+00  0.00000000E+00  0.00000000E+00
  0.00000000E+00  0.00000000E+00  0.00000000E+00
  0.00000000E+00  0.00000000E+00  0.00000000E+00
  0.00000000E+00  0.00000000E+00  0.00000000E+00
  0.00000000E+00  0.00000000E+00  0.00000000E+00
  0.00000000E+00  0.00000000E+00  0.00000000E+00
  0.00000000E+00  0.00000000E+00  0.00000000E+00
  0.00000000E+00  0.00000000E+00  0.00000000E+00
  0.00000000E+00  0.00000000E+00  0.00000000E+00
  0.00000000E+00  0.00000000E+00  0.00000000E+00
  0.00000000E+00  0.00000000E+00  0.00000000E+00
  0.00000000E+00  0.00000000E+00  0.00000000E+00
  0.00000000E+00  0.00000000E+00  0.00000000E+00
  0.00000000E+00  0.00000000E+00  0.00000000E+00
  0.00000000E+00  0.00000000E+00  0.00000000E+00
  0.00000000E+00  0.00000000E+00  0.00000000E+00
  0.00000000E+00  0.00000000E+00  0.00000000E+00
  0.00000000E+00  0.00000000E+00  0.00000000E+00
  0.00000000E+00  0.00000000E+00  0.00000000E+00
  0.00000000E+00  0.00000000E+00  0.00000000E+00
  0.00000000E+00  0.00000000E+00  0.00000000E+00
  0.00000000E+00  0.00000000E+00  0.00000000E+00
  0.00000000E+00  0.00000000E+00  0.00000000E+00
  0.00000000E+00  0.00000000E+00  0.00000000E+00
  0.00000000E+00  0.00000000E+00  0.00000000E+00
  0.00000000E+00  0.00000000E+00  0.00000000E+00
  0.00000000E+00  0.00000000E+00  0.00000000E+00
  0.00000000E+00  0.00000000E+00  0.00000000E+00
  0.00000000E+00  0.00000000E+00  0.00000000E+00
  0.00000000E+00  0.00000000E+00  0.00000000E+00
  0.00000000E+00  0.00000000E+00  0.00000000E+00
  0.00000000E+00  0.00000000E+00  0.00000000E+00
  0.00000000E+00  0.00000000E+00  0.00000000E+00
  0.00000000E+00  0.00000000E+00  0.00000000E+00
  0.00000000E+00  0.00000000E+00  0.00000000E+00
  0.00000000E+00  0.00000000E+00  0.00000000E+00
  0.00000000E+00  0.00000000E+00  0.00000000E+00
  0.00000000E+00  0.00000000E+00  0.00000000E+00
  0.00000000E+00  0.00000000E+00  0.00000000E+00
  0.00000000E+00  0.00000000E+00  0.00000000E+00
  0.00000000E+00  0.00000000E+00  0.00000000E+00
  0.00000000E+00  0.00000000E+00  0.00000000E+00
  0.00000000E+00  0.00000000E+00  0.00000000E+00
  0.00000000E+00  0.00000000E+00  0.00000000E+00
  0.00000000E+00  0.00000000E+00  0.00000000E+00
  0.00000000E+00  0.00000000E+00  0.00000000E+00
  0.00000000E+00  0.00000000E+00  0.00000000E+00
