Au48 C6 F6                              
    1.000000000000000     
    11.7981856999999994    0.0000000000000000    0.0000000000000000
     0.0000000000000000   11.7981856999999994    0.0000000000000000
     0.0000000000000000    0.0000000000000000   17.1712885600000007
   Au   C    F 
    48     6     6
Selective dynamics
Direct
  0.2498319804138092  0.0000794474258612  0.4126939846287883   T   T   T
  0.2497226425278853  0.2497241873692602  0.4123953193343013   T   T   T
  0.2494357101261215  0.5000461838779344  0.4120708011655765   T   T   T
  0.2495726791035935  0.7504249393154367  0.4123556101639565   T   T   T
  0.5000000008475851  0.0000000000000000  0.4126096883746797   T   T   T
  0.5000456251889318  0.2494375692871458  0.4120729153474727   T   T   T
  0.5000000008475851  0.5000000008475851  0.4116854372064793   T   T   T
  0.4999543765062384  0.7505624324080316  0.4120729153474727   T   T   T
  0.7501680212813682  0.9999205525741388  0.4126939846287883   T   T   T
  0.7504273225915838  0.2495750623797406  0.4123556101639565   T   T   T
  0.7505642915690558  0.4999538178172358  0.4120708011655765   T   T   T
  0.7502773591672920  0.7502758143259172  0.4123953193343013   T   T   T
  0.0000000000000000  0.0000000000000000  0.4127623795539677   T   T   T
  0.0000787973946643  0.2498340035841480  0.4126918348129536   T   T   T
  0.0000000000000000  0.5000000008475851  0.4126054054760360   T   T   T
  0.9999212026053357  0.7501659981110294  0.4126918348129536   T   T   T
  0.1251639199672354  0.1251649175177860  0.5341276676306776   T   T   T
  0.1250340040947293  0.3751424880305407  0.5339149477229057   T   T   T
  0.1247940342637008  0.6249894952685722  0.5338690124295411   T   T   T
  0.1249935480205835  0.8750053092828765  0.5341315915759637   T   T   T
  0.3751412843480253  0.1250353758491372  0.5339148744421536   T   T   T
  0.3751470274793576  0.3751481715105740  0.5321460558591724   T   T   T
  0.3745841656486206  0.6254145159077851  0.5323170693023513   T   T   T
  0.3750094906868640  0.8752051438538544  0.5338689611707608   T   T   T
  0.6249905110083134  0.1247948578413229  0.5338689611707608   T   T   T
  0.6254158368941418  0.3745854857873923  0.5323170693023513   T   T   T
  0.6248529750634049  0.6248518301846033  0.5321460558591724   T   T   T
  0.6248587181947372  0.8749646258460402  0.5339148744421536   T   T   T
  0.8750064545221861  0.1249946924123009  0.5341315915759637   T   T   T
  0.8752059682790687  0.3750105064266052  0.5338690124295411   T   T   T
  0.8749659984480402  0.6248575136646366  0.5339149477229057   T   T   T
  0.8748360825755341  0.8748350841773913  0.5341276676306776   T   T   T
  0.1249999997881019  0.1250000006356942  0.2911837386302736   F   F   F
  0.1250000006356942  0.3750000010594832  0.2911837386302736   F   F   F
  0.1250000006356942  0.6250000006356942  0.2911837386302736   F   F   F
  0.1250000006356942  0.8750000019070754  0.2911837386302736   F   F   F
  0.3750000010594832  0.1250000006356942  0.2911837386302736   F   F   F
  0.3750000010594832  0.3750000010594832  0.2911837386302736   F   F   F
  0.3750000010594832  0.6250000006356942  0.2911837386302736   F   F   F
  0.3750000010594832  0.8750000019070754  0.2911837386302736   F   F   F
  0.6250000006356942  0.1250000006356942  0.2911837386302736   F   F   F
  0.6250000014832793  0.3750000010594832  0.2911837386302736   F   F   F
  0.6250000014832793  0.6250000006356942  0.2911837386302736   F   F   F
  0.6250000014832793  0.8750000019070754  0.2911837386302736   F   F   F
  0.8750000019070754  0.1250000006356942  0.2911837386302736   F   F   F
  0.8750000019070754  0.3750000010594832  0.2911837386302736   F   F   F
  0.8750000019070754  0.6250000006356942  0.2911837386302736   F   F   F
  0.8750000019070754  0.8750000019070754  0.2911837386302736   F   F   F
  0.6143754629159730  0.4693806228896165  0.7186052256961801   T   T   T
  0.5306647651890728  0.3856410486944100  0.7186045595230226   T   T   T
  0.4164128739468325  0.4163732528731430  0.7189574415190094   T   T   T
  0.3856245659020203  0.5306193915193802  0.7186052256961801   T   T   T
  0.4693352102308737  0.6143589402869409  0.7186045595230226   T   T   T
  0.5835871285959300  0.5836267488220344  0.7189574415190094   T   T   T
  0.7245824272649344  0.4400972383596198  0.7190380401373915   T   T   T
  0.5598710912188025  0.2754082607080548  0.7190383791668538   T   T   T
  0.3356896375912584  0.3357106696364198  0.7211925733495193   T   T   T
  0.2754175752778281  0.5599027633355504  0.7190380401373915   T   T   T
  0.4401288452121008  0.7245917240353634  0.7190383791668538   T   T   T
  0.6643103378286881  0.6642893193449382  0.7211925733495193   T   T   T
 
  0.00000000E+00  0.00000000E+00  0.00000000E+00
  0.00000000E+00  0.00000000E+00  0.00000000E+00
  0.00000000E+00  0.00000000E+00  0.00000000E+00
  0.00000000E+00  0.00000000E+00  0.00000000E+00
  0.00000000E+00  0.00000000E+00  0.00000000E+00
  0.00000000E+00  0.00000000E+00  0.00000000E+00
  0.00000000E+00  0.00000000E+00  0.00000000E+00
  0.00000000E+00  0.00000000E+00  0.00000000E+00
  0.00000000E+00  0.00000000E+00  0.00000000E+00
  0.00000000E+00  0.00000000E+00  0.00000000E+00
  0.00000000E+00  0.00000000E+00  0.00000000E+00
  0.00000000E+00  0.00000000E+00  0.00000000E+00
  0.00000000E+00  0.00000000E+00  0.00000000E+00
  0.00000000E+00  0.00000000E+00  0.00000000E+00
  0.00000000E+00  0.00000000E+00  0.00000000E+00
  0.00000000E+00  0.00000000E+00  0.00000000E+00
  0.00000000E+00  0.00000000E+00  0.00000000E+00
  0.00000000E+00  0.00000000E+00  0.00000000E+00
  0.00000000E+00  0.00000000E+00  0.00000000E+00
  0.00000000E+00  0.00000000E+00  0.00000000E+00
  0.00000000E+00  0.00000000E+00  0.00000000E+00
  0.00000000E+00  0.00000000E+00  0.00000000E+00
  0.00000000E+00  0.00000000E+00  0.00000000E+00
  0.00000000E+00  0.00000000E+00  0.00000000E+00
  0.00000000E+00  0.00000000E+00  0.00000000E+00
  0.00000000E+00  0.00000000E+00  0.00000000E+00
  0.00000000E+00  0.00000000E+00  0.00000000E+00
  0.00000000E+00  0.00000000E+00  0.00000000E+00
  0.00000000E+00  0.00000000E+00  0.00000000E+00
  0.00000000E+00  0.00000000E+00  0.00000000E+00
  0.00000000E+00  0.00000000E+00  0.00000000E+00
  0.00000000E+00  0.00000000E+00  0.00000000E+00
  0.00000000E+00  0.00000000E+00  0.00000000E+00
  0.00000000E+00  0.00000000E+00  0.00000000E+00
  0.00000000E+00  0.00000000E+00  0.00000000E+00
  0.00000000E+00  0.00000000E+00  0.00000000E+00
  0.00000000E+00  0.00000000E+00  0.00000000E+00
  0.00000000E+00  0.00000000E+00  0.00000000E+00
  0.00000000E+00  0.00000000E+00  0.00000000E+00
  0.00000000E+00  0.00000000E+00  0.00000000E+00
  0.00000000E+00  0.00000000E+00  0.00000000E+00
  0.00000000E+00  0.00000000E+00  0.00000000E+00
  0.00000000E+00  0.00000000E+00  0.00000000E+00
  0.00000000E+00  0.00000000E+00  0.00000000E+00
  0.00000000E+00  0.00000000E+00  0.00000000E+00
  0.00000000E+00  0.00000000E+00  0.00000000E+00
  0.00000000E+00  0.00000000E+00  0.00000000E+00
  0.00000000E+00  0.00000000E+00  0.00000000E+00
  0.00000000E+00  0.00000000E+00  0.00000000E+00
  0.00000000E+00  0.00000000E+00  0.00000000E+00
  0.00000000E+00  0.00000000E+00  0.00000000E+00
  0.00000000E+00  0.00000000E+00  0.00000000E+00
  0.00000000E+00  0.00000000E+00  0.00000000E+00
  0.00000000E+00  0.00000000E+00  0.00000000E+00
  0.00000000E+00  0.00000000E+00  0.00000000E+00
  0.00000000E+00  0.00000000E+00  0.00000000E+00
  0.00000000E+00  0.00000000E+00  0.00000000E+00
  0.00000000E+00  0.00000000E+00  0.00000000E+00
  0.00000000E+00  0.00000000E+00  0.00000000E+00
  0.00000000E+00  0.00000000E+00  0.00000000E+00
