Pd  C  H Br                             
    1.000000000000000     
    11.1817229999999999    0.0000000000000000    0.0000000000000000
     0.0000000000000000   11.1817229999999999    0.0000000000000000
     0.0000000000000000    0.0000000000000000   23.9300040900000006
   Pd   C    H    Br
    64     6     4     2
Selective dynamics
Direct
  0.0000000000000000  0.2499999991056825  0.3134140709626578   F   F   F
  0.7499999973170475  0.7499999973170475  0.3134140709626578   F   F   F
  0.0000000000000000  0.4999999982113650  0.3134140709626578   F   F   F
  0.0000000000000000  0.7499999973170475  0.3134140709626578   F   F   F
  0.0000000000000000  0.0000000000000000  0.3134140709626578   F   F   F
  0.2499999991056825  0.2499999991056825  0.3134140709626578   F   F   F
  0.2499999991056825  0.4999999982113650  0.3134140709626578   F   F   F
  0.7499999973170475  0.0000000000000000  0.3134140709626578   F   F   F
  0.2499999991056825  0.7499999973170475  0.3134140709626578   F   F   F
  0.2499999991056825  0.0000000000000000  0.3134140709626578   F   F   F
  0.4999999982113650  0.2499999991056825  0.3134140709626578   F   F   F
  0.4999999982113650  0.4999999982113650  0.3134140709626578   F   F   F
  0.4999999982113650  0.7499999973170475  0.3134140709626578   F   F   F
  0.4999999982113650  0.0000000000000000  0.3134140709626578   F   F   F
  0.7499999973170475  0.2499999991056825  0.3134140709626578   F   F   F
  0.7499999973170475  0.4999999982113650  0.3134140709626578   F   F   F
  0.9995880533232228  0.2501132248295939  0.4769129401596656   T   T   T
 -0.0000280220411168  0.4999734925809391  0.4763309995248741   T   T   T
  0.0004188424415108  0.7498839134423833  0.4769181985233979   T   T   T
  0.9999883461786055 -0.0000065334802618  0.4767655705904059   T   T   T
  0.2507618284352574  0.2507994772699353  0.4772003241526480   T   T   T
  0.2520766206470013  0.5011137772655746  0.4778522715749845   T   T   T
  0.2520122816878638  0.7479267410265594  0.4779078072104880   T   T   T
  0.2500714493600018  0.9995648672169387  0.4769286993579530   T   T   T
  0.5011154181971021  0.2521164547312405  0.4778375113000737   T   T   T
  0.4999669073797221  0.4999910160620935  0.4780863363804224   T   T   T
  0.4988630122977771  0.7479161682159007  0.4778461479296764   T   T   T
  0.5000086954235784 -0.0000150871593258  0.4763212962225897   T   T   T
  0.7479637566343948  0.2520212190056765  0.4778968712059959   T   T   T
  0.7478899935331137  0.4988689559931592  0.4778433243482012   T   T   T
  0.7492187649678870  0.7492294715048026  0.4771968627492869   T   T   T
  0.7498879833156898  0.0004038294001335  0.4769089682850993   T   T   T
  0.1246439543351190  0.1246252942078286  0.5581952701676484   T   T   T
  0.1239365987482152  0.3751425321174943  0.5585624235971778   T   T   T
  0.1233964325738100  0.6249163603596460  0.5582682550601028   T   T   T
  0.1246672647850307  0.8753316762149288  0.5583215564746882   T   T   T
  0.3751649357395752  0.1240124934546971  0.5585917935992805   T   T   T
  0.3713679290240623  0.3713789064876556  0.5610183341524319   T   T   T
  0.3721363400560336  0.6278553299867848  0.5650218698875034   T   T   T
  0.3750372059021119  0.8766198415997056  0.5582380214481349   T   T   T
  0.6249696489813727  0.1233932319410801  0.5582439125716906   T   T   T
  0.6278283573603752  0.3721330970258862  0.5650084439712348   T   T   T
  0.6286155515733977  0.6286182195031907  0.5609973221443585   T   T   T
  0.6248705685965388  0.8760710669375499  0.5585694720505426   T   T   T
  0.8753241144491918  0.1246686525013833  0.5583185635949965   T   T   T
  0.8765928267608094  0.3750380828456684  0.5582495847730512   T   T   T
  0.8760303608305712  0.6248504837552350  0.5585934778421910   T   T   T
  0.8753859251315503  0.8753936501954821  0.5581813736338660   T   T   T
  0.1249999995528412  0.1249999995528412  0.3960161475258630   F   F   F
  0.1249999995528412  0.3749999986585237  0.3960161475258630   F   F   F
  0.1249999995528412  0.6249999977642062  0.3960161475258630   F   F   F
  0.1249999995528412  0.8749999968698887  0.3960161475258630   F   F   F
  0.3749999986585237  0.1249999995528412  0.3960161475258630   F   F   F
  0.3749999986585237  0.3749999986585237  0.3960161475258630   F   F   F
  0.3749999986585237  0.6249999977642062  0.3960161475258630   F   F   F
  0.3749999986585237  0.8749999968698887  0.3960161475258630   F   F   F
  0.6249999977642062  0.1249999995528412  0.3960161475258630   F   F   F
  0.6249999977642062  0.3749999986585237  0.3960161475258630   F   F   F
  0.6249999977642062  0.6249999977642062  0.3960161475258630   F   F   F
  0.6249999977642062  0.8749999968698887  0.3960161475258630   F   F   F
  0.8749999968698887  0.1249999995528412  0.3960161475258630   F   F   F
  0.8749999968698887  0.3749999986585237  0.3960161475258630   F   F   F
  0.8749999968698887  0.6249999977642062  0.3960161475258630   F   F   F
  0.8749999968698887  0.8749999968698887  0.3960161475258630   F   F   F
  0.5913406008733938  0.5913136797349045  0.6433299223948971   T   T   T
  0.6246995703093249  0.4655335935826809  0.6468826444038244   T   T   T
  0.5344201544687858  0.3752913681288846  0.6468880958124393   T   T   T
  0.4087164823804683  0.4087419919778320  0.6433460749434339   T   T   T
  0.3752925199522744  0.5344622484085133  0.6468831740525011   T   T   T
  0.4655797848136773  0.6247198538294962  0.6468871177619754   T   T   T
  0.7136512149676969  0.4445958346877760  0.6628355936309437   T   T   T
  0.5553692919466855  0.2863668498514502  0.6628386474118080   T   T   T
  0.2863785243968494  0.5554256495626199  0.6628486371551102   T   T   T
  0.4446482462738775  0.7136729374704914  0.6628383309192716   T   T   T
  0.7019157014892249  0.7016491397057915  0.6807496644327565   T   T   T
  0.2982684738296533  0.2984854539930203  0.6807914624942403   T   T   T
 
  0.00000000E+00  0.00000000E+00  0.00000000E+00
  0.00000000E+00  0.00000000E+00  0.00000000E+00
  0.00000000E+00  0.00000000E+00  0.00000000E+00
  0.00000000E+00  0.00000000E+00  0.00000000E+00
  0.00000000E+00  0.00000000E+00  0.00000000E+00
  0.00000000E+00  0.00000000E+00  0.00000000E+00
  0.00000000E+00  0.00000000E+00  0.00000000E+00
  0.00000000E+00  0.00000000E+00  0.00000000E+00
  0.00000000E+00  0.00000000E+00  0.00000000E+00
  0.00000000E+00  0.00000000E+00  0.00000000E+00
  0.00000000E+00  0.00000000E+00  0.00000000E+00
  0.00000000E+00  0.00000000E+00  0.00000000E+00
  0.00000000E+00  0.00000000E+00  0.00000000E+00
  0.00000000E+00  0.00000000E+00  0.00000000E+00
  0.00000000E+00  0.00000000E+00  0.00000000E+00
  0.00000000E+00  0.00000000E+00  0.00000000E+00
  0.00000000E+00  0.00000000E+00  0.00000000E+00
  0.00000000E+00  0.00000000E+00  0.00000000E+00
  0.00000000E+00  0.00000000E+00  0.00000000E+00
  0.00000000E+00  0.00000000E+00  0.00000000E+00
  0.00000000E+00  0.00000000E+00  0.00000000E+00
  0.00000000E+00  0.00000000E+00  0.00000000E+00
  0.00000000E+00  0.00000000E+00  0.00000000E+00
  0.00000000E+00  0.00000000E+00  0.00000000E+00
  0.00000000E+00  0.00000000E+00  0.00000000E+00
  0.00000000E+00  0.00000000E+00  0.00000000E+00
  0.00000000E+00  0.00000000E+00  0.00000000E+00
  0.00000000E+00  0.00000000E+00  0.00000000E+00
  0.00000000E+00  0.00000000E+00  0.00000000E+00
  0.00000000E+00  0.00000000E+00  0.00000000E+00
  0.00000000E+00  0.00000000E+00  0.00000000E+00
  0.00000000E+00  0.00000000E+00  0.00000000E+00
  0.00000000E+00  0.00000000E+00  0.00000000E+00
  0.00000000E+00  0.00000000E+00  0.00000000E+00
  0.00000000E+00  0.00000000E+00  0.00000000E+00
  0.00000000E+00  0.00000000E+00  0.00000000E+00
  0.00000000E+00  0.00000000E+00  0.00000000E+00
  0.00000000E+00  0.00000000E+00  0.00000000E+00
  0.00000000E+00  0.00000000E+00  0.00000000E+00
  0.00000000E+00  0.00000000E+00  0.00000000E+00
  0.00000000E+00  0.00000000E+00  0.00000000E+00
  0.00000000E+00  0.00000000E+00  0.00000000E+00
  0.00000000E+00  0.00000000E+00  0.00000000E+00
  0.00000000E+00  0.00000000E+00  0.00000000E+00
  0.00000000E+00  0.00000000E+00  0.00000000E+00
  0.00000000E+00  0.00000000E+00  0.00000000E+00
  0.00000000E+00  0.00000000E+00  0.00000000E+00
  0.00000000E+00  0.00000000E+00  0.00000000E+00
  0.00000000E+00  0.00000000E+00  0.00000000E+00
  0.00000000E+00  0.00000000E+00  0.00000000E+00
  0.00000000E+00  0.00000000E+00  0.00000000E+00
  0.00000000E+00  0.00000000E+00  0.00000000E+00
  0.00000000E+00  0.00000000E+00  0.00000000E+00
  0.00000000E+00  0.00000000E+00  0.00000000E+00
  0.00000000E+00  0.00000000E+00  0.00000000E+00
  0.00000000E+00  0.00000000E+00  0.00000000E+00
  0.00000000E+00  0.00000000E+00  0.00000000E+00
  0.00000000E+00  0.00000000E+00  0.00000000E+00
  0.00000000E+00  0.00000000E+00  0.00000000E+00
  0.00000000E+00  0.00000000E+00  0.00000000E+00
  0.00000000E+00  0.00000000E+00  0.00000000E+00
  0.00000000E+00  0.00000000E+00  0.00000000E+00
  0.00000000E+00  0.00000000E+00  0.00000000E+00
  0.00000000E+00  0.00000000E+00  0.00000000E+00
  0.00000000E+00  0.00000000E+00  0.00000000E+00
  0.00000000E+00  0.00000000E+00  0.00000000E+00
  0.00000000E+00  0.00000000E+00  0.00000000E+00
  0.00000000E+00  0.00000000E+00  0.00000000E+00
  0.00000000E+00  0.00000000E+00  0.00000000E+00
  0.00000000E+00  0.00000000E+00  0.00000000E+00
  0.00000000E+00  0.00000000E+00  0.00000000E+00
  0.00000000E+00  0.00000000E+00  0.00000000E+00
  0.00000000E+00  0.00000000E+00  0.00000000E+00
  0.00000000E+00  0.00000000E+00  0.00000000E+00
  0.00000000E+00  0.00000000E+00  0.00000000E+00
  0.00000000E+00  0.00000000E+00  0.00000000E+00
