Pt48 C4 N2 Cl4                          
    1.000000000000000     
    11.2480069999999994    0.0000000000000000    0.0000000000000000
    -5.6240030000000001    9.7410599999999992    0.0000000000000000
     0.0000000000000000    0.0000000000000000   17.5919799999999995
   Pt   C    N    Cl
    48     4     2     4
Selective dynamics
Direct
  0.0833330000000032  0.1666669999999968  0.3410650000000004   F   F   F
  0.0833330000000032  0.4166669999999968  0.3410650000000004   F   F   F
  0.0833330000000032  0.6666669999999968  0.3410650000000004   F   F   F
  0.0833330000000032  0.9166669999999968  0.3410650000000004   F   F   F
  0.3333330000000032  0.1666669999999968  0.3410650000000004   F   F   F
  0.3333330000000032  0.4166669999999968  0.3410650000000004   F   F   F
  0.3333330000000032  0.6666669999999968  0.3410650000000004   F   F   F
  0.3333330000000032  0.9166669999999968  0.3410650000000004   F   F   F
  0.5833330000000032  0.1666669999999968  0.3410650000000004   F   F   F
  0.5833330000000032  0.4166669999999968  0.3410650000000004   F   F   F
  0.5833330000000032  0.6666669999999968  0.3410650000000004   F   F   F
  0.5833330000000032  0.9166669999999968  0.3410650000000004   F   F   F
  0.8333330000000032  0.1666669999999968  0.3410650000000004   F   F   F
  0.8333330000000032  0.4166669999999968  0.3410650000000004   F   F   F
  0.8333330000000032  0.6666669999999968  0.3410650000000004   F   F   F
  0.8333330000000032  0.9166669999999968  0.3410650000000004   F   F   F
  0.2495110095819513  0.2503832960863193  0.6059834897274001   T   T   T
  0.2495304425081954  0.5004800621260017  0.6061927931776481   T   T   T
  0.2497042178397209  0.7505110064390692  0.6061368647900309   T   T   T
  0.2496415651387451  0.0004687170960906  0.6060596103816209   T   T   T
  0.4997063627389409  0.2502064911664874  0.6061441649349533   T   T   T
  0.4996118770200582  0.5005150424046221  0.6044659251834190   T   T   T
  0.4995620297163654  0.7505386377948042  0.6061514708958029   T   T   T
  0.4995963487767767  0.0003989226999366  0.6061592135422771   T   T   T
  0.7498256248037194  0.2506046243048559  0.6060671484455682   T   T   T
  0.7496106070627420  0.5004848946307376  0.6061010028804574   T   T   T
  0.7495773412212827  0.7504861305715664  0.6044734047469476   T   T   T
  0.7496203534501760  0.0005643480683304  0.6062095383933439   T   T   T
  0.9996561127038674  0.2504539294890975  0.6059221597525948   T   T   T
  0.9995031389748732  0.5002800236895553  0.6060565418743735   T   T   T
  0.9998949184840598  0.7503977570903615  0.6061455289076179   T   T   T
  0.9997117847517885  0.0005892439924935  0.6059831268966462   T   T   T
  0.1665275702648898  0.0835254688327822  0.4734976577654351   T   T   T
  0.1666772841235513  0.3335823841687287  0.4734727261456015   T   T   T
  0.1664615798056062  0.5833197327661566  0.4736593229336563   T   T   T
  0.1666948195831566  0.8335206392555321  0.4735723626387909   T   T   T
  0.4165402027800127  0.0833585660972318  0.4735785613171828   T   T   T
  0.4161536392679039  0.3329311399457993  0.4732703789889570   T   T   T
  0.4164192952911066  0.5837714912695589  0.4731871307731481   T   T   T
  0.4165071316637210  0.8335635382891766  0.4736520326841855   T   T   T
  0.6667317646493061  0.0835853646181377  0.4736613244506884   T   T   T
  0.6663292969916768  0.3334409323390162  0.4735811468722133   T   T   T
  0.6667223080641875  0.5833330963878680  0.4729006000935883   T   T   T
  0.6662858306965163  0.8336401411910757  0.4731875683701290   T   T   T
  0.9164597878186314  0.0833718698202688  0.4734721468980894   T   T   T
  0.9165178343520566  0.3335394303817765  0.4735619773029924   T   T   T
  0.9166092220652189  0.5837135871037376  0.4735808924273144   T   T   T
  0.9171119692937495  0.8338996692483462  0.4732647103747212   T   T   T
  0.4867882422738887  0.5591793507100959  0.7856881320840827   T   T   T
  0.5595588897271782  0.4864643102793238  0.7858320125225262   T   T   T
  0.7630619029128098  0.6900123076038582  0.7858527790224912   T   T   T
  0.6903527564012890  0.7627597202387264  0.7856960610295474   T   T   T
  0.6960646673205133  0.5535705981876262  0.7859376199838906   T   T   T
  0.5539071834692493  0.6956714900167071  0.7856359511675493   T   T   T
  0.7731406126181000  0.9386817101706910  0.7885532286396000   T   T   T
  0.9390251652589470  0.7729339428696846  0.7887410590412003   T   T   T
  0.3107955727251905  0.4763247554979628  0.7885435319973695   T   T   T
  0.4766567506626060  0.3104510152899991  0.7886830198582331   T   T   T
 
  0.00000000E+00  0.00000000E+00  0.00000000E+00
  0.00000000E+00  0.00000000E+00  0.00000000E+00
  0.00000000E+00  0.00000000E+00  0.00000000E+00
  0.00000000E+00  0.00000000E+00  0.00000000E+00
  0.00000000E+00  0.00000000E+00  0.00000000E+00
  0.00000000E+00  0.00000000E+00  0.00000000E+00
  0.00000000E+00  0.00000000E+00  0.00000000E+00
  0.00000000E+00  0.00000000E+00  0.00000000E+00
  0.00000000E+00  0.00000000E+00  0.00000000E+00
  0.00000000E+00  0.00000000E+00  0.00000000E+00
  0.00000000E+00  0.00000000E+00  0.00000000E+00
  0.00000000E+00  0.00000000E+00  0.00000000E+00
  0.00000000E+00  0.00000000E+00  0.00000000E+00
  0.00000000E+00  0.00000000E+00  0.00000000E+00
  0.00000000E+00  0.00000000E+00  0.00000000E+00
  0.00000000E+00  0.00000000E+00  0.00000000E+00
  0.00000000E+00  0.00000000E+00  0.00000000E+00
  0.00000000E+00  0.00000000E+00  0.00000000E+00
  0.00000000E+00  0.00000000E+00  0.00000000E+00
  0.00000000E+00  0.00000000E+00  0.00000000E+00
  0.00000000E+00  0.00000000E+00  0.00000000E+00
  0.00000000E+00  0.00000000E+00  0.00000000E+00
  0.00000000E+00  0.00000000E+00  0.00000000E+00
  0.00000000E+00  0.00000000E+00  0.00000000E+00
  0.00000000E+00  0.00000000E+00  0.00000000E+00
  0.00000000E+00  0.00000000E+00  0.00000000E+00
  0.00000000E+00  0.00000000E+00  0.00000000E+00
  0.00000000E+00  0.00000000E+00  0.00000000E+00
  0.00000000E+00  0.00000000E+00  0.00000000E+00
  0.00000000E+00  0.00000000E+00  0.00000000E+00
  0.00000000E+00  0.00000000E+00  0.00000000E+00
  0.00000000E+00  0.00000000E+00  0.00000000E+00
  0.00000000E+00  0.00000000E+00  0.00000000E+00
  0.00000000E+00  0.00000000E+00  0.00000000E+00
  0.00000000E+00  0.00000000E+00  0.00000000E+00
  0.00000000E+00  0.00000000E+00  0.00000000E+00
  0.00000000E+00  0.00000000E+00  0.00000000E+00
  0.00000000E+00  0.00000000E+00  0.00000000E+00
  0.00000000E+00  0.00000000E+00  0.00000000E+00
  0.00000000E+00  0.00000000E+00  0.00000000E+00
  0.00000000E+00  0.00000000E+00  0.00000000E+00
  0.00000000E+00  0.00000000E+00  0.00000000E+00
  0.00000000E+00  0.00000000E+00  0.00000000E+00
  0.00000000E+00  0.00000000E+00  0.00000000E+00
  0.00000000E+00  0.00000000E+00  0.00000000E+00
  0.00000000E+00  0.00000000E+00  0.00000000E+00
  0.00000000E+00  0.00000000E+00  0.00000000E+00
  0.00000000E+00  0.00000000E+00  0.00000000E+00
  0.00000000E+00  0.00000000E+00  0.00000000E+00
  0.00000000E+00  0.00000000E+00  0.00000000E+00
  0.00000000E+00  0.00000000E+00  0.00000000E+00
  0.00000000E+00  0.00000000E+00  0.00000000E+00
  0.00000000E+00  0.00000000E+00  0.00000000E+00
  0.00000000E+00  0.00000000E+00  0.00000000E+00
  0.00000000E+00  0.00000000E+00  0.00000000E+00
  0.00000000E+00  0.00000000E+00  0.00000000E+00
  0.00000000E+00  0.00000000E+00  0.00000000E+00
  0.00000000E+00  0.00000000E+00  0.00000000E+00
