Rh  C  H Br                             
    1.000000000000000     
    10.8856652999999994    0.0000000000000000    0.0000000000000000
     0.0000000000000000   15.3946555000000007    0.0000000000000000
     0.0000000000000000    0.0000000000000000   22.0821244799999974
   Rh   C    H    Br
    64     6     4     2
Selective dynamics
Direct
  0.2500000004593161  0.2500000003247891  0.3396412336499992   F   F   F
  0.0000000018372788  0.7500000016239383  0.3396412336499992   F   F   F
  0.2500000004593161  0.5000000012991492  0.3396412336499992   F   F   F
  0.2500000004593161  0.7500000016239383  0.3396412336499992   F   F   F
  0.2500000004593161  0.0000000019487274  0.3396412336499992   F   F   F
  0.5000000009186394  0.2500000003247891  0.3396412336499992   F   F   F
  0.5000000009186394  0.5000000012991492  0.3396412336499992   F   F   F
  0.0000000018372788  0.0000000019487274  0.3396412336499992   F   F   F
  0.5000000009186394  0.7500000016239383  0.3396412336499992   F   F   F
  0.5000000009186394  0.0000000019487274  0.3396412336499992   F   F   F
  0.7500000013779555  0.2500000003247891  0.3396412336499992   F   F   F
  0.7500000013779555  0.5000000012991492  0.3396412336499992   F   F   F
  0.7500000013779555  0.7500000016239383  0.3396412336499992   F   F   F
  0.7500000013779555  0.0000000019487274  0.3396412336499992   F   F   F
  0.0000000018372788  0.2500000003247891  0.3396412336499992   F   F   F
  0.0000000018372788  0.5000000012991492  0.3396412336499992   F   F   F
  0.2500928603009250  0.2495280664421235  0.4570049158673269   T   T   T
  0.2479642936383793  0.4986894655627570  0.4573567718323155   T   T   T
  0.2520646165657041  0.7487830470887186  0.4593923211915180   T   T   T
  0.2491155762613991  0.0012631401170857  0.4596214819145435   T   T   T
  0.4999916165057542  0.2518462245091976  0.4590024305286911   T   T   T
  0.4999356816949657  0.5000026602387747  0.4563982290079572   T   T   T
  0.5000152139785895  0.7481607667213042  0.4589994311179098   T   T   T
  0.5000240969287870 -0.0000057287042520  0.4587275993761851   T   T   T
  0.7479513976960821  0.2512200451484382  0.4593986835034515   T   T   T
  0.7520472814482244  0.5013111930891400  0.4573793226489218   T   T   T
  0.7499234163411753  0.7504870847653148  0.4570244168889494   T   T   T
  0.7509017365319937  0.9987452845001172  0.4596321977834009   T   T   T
  0.9980033083722378  0.2497445010509706  0.4567003174523124   T   T   T
  0.0000525218444057  0.4999919788698347  0.4599442176882755   T   T   T
  0.0020040178455154  0.7502672162143764  0.4566741378328928   T   T   T
 -0.0000003939001216  0.0000118790988310  0.4605467838507025   T   T   T
  0.1251755632164840  0.1283776492091877  0.5170374923870463   T   T   T
  0.1193782241382884  0.3699618072389876  0.5170690270050898   T   T   T
  0.1265446488149383  0.6243202024952581  0.5151607078587743   T   T   T
  0.1278654534878196  0.8749854595296191  0.5152118091879649   T   T   T
  0.3778452895027282  0.1251422572514518  0.5150752605229851   T   T   T
  0.3654365358162176  0.3754590285935560  0.5173186473222953   T   T   T
  0.3741042194460647  0.6165923082778290  0.5187571720428392   T   T   T
  0.3747598966902180  0.8749317470164316  0.5148724359959611   T   T   T
  0.6252338948975091  0.1250555099646143  0.5149287419547605   T   T   T
  0.6259306726438667  0.3834178454200573  0.5187261687485681   T   T   T
  0.6345617881798434  0.6244741627300616  0.5173491482099338   T   T   T
  0.6221544014039957  0.8748566567104125  0.5150941348518921   T   T   T
  0.8721589656583614  0.1250189533435955  0.5152146478278427   T   T   T
  0.8734521208303458  0.3756622638165023  0.5151736693411036   T   T   T
  0.8806348217299804  0.6300290722788354  0.5170713708143100   T   T   T
  0.8748103717901556  0.8716306437711020  0.5170491387908336   T   T   T
  0.1249999997703384  0.1250000001623945  0.4012615800633341   F   F   F
  0.1249999997703384  0.3750000004871836  0.4012615800633341   F   F   F
  0.1250000006889778  0.6250000014615438  0.4012615800633341   F   F   F
  0.1250000006889778  0.8750000017863329  0.4012615800633341   F   F   F
  0.3750000002296616  0.1250000001623945  0.4012615800633341   F   F   F
  0.3750000002296616  0.3750000004871836  0.4012615800633341   F   F   F
  0.3750000011483010  0.6250000014615438  0.4012615800633341   F   F   F
  0.3750000011483010  0.8750000017863329  0.4012615800633341   F   F   F
  0.6250000006889778  0.1250000001623945  0.4012615800633341   F   F   F
  0.6250000006889778  0.3750000004871836  0.4012615800633341   F   F   F
  0.6250000006889778  0.6250000014615438  0.4012615800633341   F   F   F
  0.6250000006889778  0.8750000017863329  0.4012615800633341   F   F   F
  0.8750000011483010  0.1250000001623945  0.4012615800633341   F   F   F
  0.8750000011483010  0.3750000004871836  0.4012615800633341   F   F   F
  0.8750000020669404  0.6250000014615438  0.4012615800633341   F   F   F
  0.8750000011483010  0.8750000017863329  0.4012615800633341   F   F   F
  0.4074353748673434  0.4387232317815595  0.5875317761646346   T   T   T
  0.3723220367037745  0.5283100168752357  0.5996321217362028   T   T   T
  0.4694426975231668  0.5906165580067357  0.6043997022822795   T   T   T
  0.5924881328147226  0.5612616500867108  0.5875229293456018   T   T   T
  0.6276757924031655  0.4717079031789275  0.5996169371998183   T   T   T
  0.5305476227789883  0.4093757071111691  0.6044015396218069   T   T   T
  0.2802292160549709  0.5408354201380068  0.6175774471350037   T   T   T
  0.4584489174077828  0.6522391601472184  0.6284846533383488   T   T   T
  0.7197650285305874  0.4591526758124911  0.6175838568118203   T   T   T
  0.5415515575803963  0.3477156163649642  0.6284867047538641   T   T   T
  0.1110389233902053  0.2480646419313661  0.5955557259538028   T   T   T
  0.8889190534129210  0.7519175892061879  0.5955550469595486   T   T   T
 
  0.00000000E+00  0.00000000E+00  0.00000000E+00
  0.00000000E+00  0.00000000E+00  0.00000000E+00
  0.00000000E+00  0.00000000E+00  0.00000000E+00
  0.00000000E+00  0.00000000E+00  0.00000000E+00
  0.00000000E+00  0.00000000E+00  0.00000000E+00
  0.00000000E+00  0.00000000E+00  0.00000000E+00
  0.00000000E+00  0.00000000E+00  0.00000000E+00
  0.00000000E+00  0.00000000E+00  0.00000000E+00
  0.00000000E+00  0.00000000E+00  0.00000000E+00
  0.00000000E+00  0.00000000E+00  0.00000000E+00
  0.00000000E+00  0.00000000E+00  0.00000000E+00
  0.00000000E+00  0.00000000E+00  0.00000000E+00
  0.00000000E+00  0.00000000E+00  0.00000000E+00
  0.00000000E+00  0.00000000E+00  0.00000000E+00
  0.00000000E+00  0.00000000E+00  0.00000000E+00
  0.00000000E+00  0.00000000E+00  0.00000000E+00
  0.00000000E+00  0.00000000E+00  0.00000000E+00
  0.00000000E+00  0.00000000E+00  0.00000000E+00
  0.00000000E+00  0.00000000E+00  0.00000000E+00
  0.00000000E+00  0.00000000E+00  0.00000000E+00
  0.00000000E+00  0.00000000E+00  0.00000000E+00
  0.00000000E+00  0.00000000E+00  0.00000000E+00
  0.00000000E+00  0.00000000E+00  0.00000000E+00
  0.00000000E+00  0.00000000E+00  0.00000000E+00
  0.00000000E+00  0.00000000E+00  0.00000000E+00
  0.00000000E+00  0.00000000E+00  0.00000000E+00
  0.00000000E+00  0.00000000E+00  0.00000000E+00
  0.00000000E+00  0.00000000E+00  0.00000000E+00
  0.00000000E+00  0.00000000E+00  0.00000000E+00
  0.00000000E+00  0.00000000E+00  0.00000000E+00
  0.00000000E+00  0.00000000E+00  0.00000000E+00
  0.00000000E+00  0.00000000E+00  0.00000000E+00
  0.00000000E+00  0.00000000E+00  0.00000000E+00
  0.00000000E+00  0.00000000E+00  0.00000000E+00
  0.00000000E+00  0.00000000E+00  0.00000000E+00
  0.00000000E+00  0.00000000E+00  0.00000000E+00
  0.00000000E+00  0.00000000E+00  0.00000000E+00
  0.00000000E+00  0.00000000E+00  0.00000000E+00
  0.00000000E+00  0.00000000E+00  0.00000000E+00
  0.00000000E+00  0.00000000E+00  0.00000000E+00
  0.00000000E+00  0.00000000E+00  0.00000000E+00
  0.00000000E+00  0.00000000E+00  0.00000000E+00
  0.00000000E+00  0.00000000E+00  0.00000000E+00
  0.00000000E+00  0.00000000E+00  0.00000000E+00
  0.00000000E+00  0.00000000E+00  0.00000000E+00
  0.00000000E+00  0.00000000E+00  0.00000000E+00
  0.00000000E+00  0.00000000E+00  0.00000000E+00
  0.00000000E+00  0.00000000E+00  0.00000000E+00
  0.00000000E+00  0.00000000E+00  0.00000000E+00
  0.00000000E+00  0.00000000E+00  0.00000000E+00
  0.00000000E+00  0.00000000E+00  0.00000000E+00
  0.00000000E+00  0.00000000E+00  0.00000000E+00
  0.00000000E+00  0.00000000E+00  0.00000000E+00
  0.00000000E+00  0.00000000E+00  0.00000000E+00
  0.00000000E+00  0.00000000E+00  0.00000000E+00
  0.00000000E+00  0.00000000E+00  0.00000000E+00
  0.00000000E+00  0.00000000E+00  0.00000000E+00
  0.00000000E+00  0.00000000E+00  0.00000000E+00
  0.00000000E+00  0.00000000E+00  0.00000000E+00
  0.00000000E+00  0.00000000E+00  0.00000000E+00
  0.00000000E+00  0.00000000E+00  0.00000000E+00
  0.00000000E+00  0.00000000E+00  0.00000000E+00
  0.00000000E+00  0.00000000E+00  0.00000000E+00
  0.00000000E+00  0.00000000E+00  0.00000000E+00
  0.00000000E+00  0.00000000E+00  0.00000000E+00
  0.00000000E+00  0.00000000E+00  0.00000000E+00
  0.00000000E+00  0.00000000E+00  0.00000000E+00
  0.00000000E+00  0.00000000E+00  0.00000000E+00
  0.00000000E+00  0.00000000E+00  0.00000000E+00
  0.00000000E+00  0.00000000E+00  0.00000000E+00
  0.00000000E+00  0.00000000E+00  0.00000000E+00
  0.00000000E+00  0.00000000E+00  0.00000000E+00
  0.00000000E+00  0.00000000E+00  0.00000000E+00
  0.00000000E+00  0.00000000E+00  0.00000000E+00
  0.00000000E+00  0.00000000E+00  0.00000000E+00
  0.00000000E+00  0.00000000E+00  0.00000000E+00
