Ir48 C6 H2 F4                           
    1.000000000000000     
    10.9622135000000007    0.0000000000000000    0.0000000000000000
     0.0000000000000000   15.5029109999999992    0.0000000000000000
     0.0000000000000000    0.0000000000000000   15.5418254000000005
   Ir   C    H    F 
    48     6     2     4
Selective dynamics
Direct
  0.2498043497902245  0.0001282603076760  0.4136210438948353   T   T   T
  0.2493264460250302  0.2506931762927493  0.4122539955568385   T   T   T
  0.2478630119469543  0.4988516708435213  0.4086114447603464   T   T   T
  0.2546939351468609  0.7468593633632636  0.4150209535173843   T   T   T
  0.5000051253272773  0.0000012462962715  0.3939200850867977   T   T   T
  0.4993753888017665  0.2524891610524236  0.3952569740880989   T   T   T
  0.4999860078242904  0.5000086668342973  0.3948573111583258   T   T   T
  0.5006312475963313  0.7475155002738418  0.3952338465942731   T   T   T
  0.7502110347560986  0.9998702440514577  0.4136151787631164   T   T   T
  0.7453237224743958  0.2531627075885581  0.4150434245376218   T   T   T
  0.7521531378871131  0.5011571871698379  0.4086105344270763   T   T   T
  0.7506836459203470  0.7493123579812959  0.4122404923881788   T   T   T
  0.9999962375159939  0.9999911438184412  0.3906906966804584   T   T   T
  0.9980936974130401  0.2496823065162914  0.3943009251994880   T   T   T
  0.9999941700306891  0.4999965532858965  0.3924926592074343   T   T   T
  0.0018921802233862  0.7503367158263856  0.3943007801867182   T   T   T
  0.1226862722044402  0.1249217329638341  0.4849287596287226   T   T   T
  0.1184960642534918  0.3743145667458165  0.4850060269971408   T   T   T
  0.1242571989788743  0.6238366929164343  0.4847216446798370   T   T   T
  0.1254108181194340  0.8739678783701379  0.4847601983409291   T   T   T
  0.3762513935443508  0.1256186521270877  0.4846816917543393   T   T   T
  0.3670134969022527  0.3761213433332244  0.4873720347701749   T   T   T
  0.3812989510936688  0.6125140004957501  0.4953442961840935   T   T   T
  0.3767707657079029  0.8744525876654166  0.4844143095656790   T   T   T
  0.6232494393243613  0.1255484758072640  0.4844139566563470   T   T   T
  0.6186533670488856  0.3875323150645826  0.4953928989056564   T   T   T
  0.6329898566463683  0.6239102699905459  0.4873644115921039   T   T   T
  0.6237619070116764  0.8743792459359057  0.4846911980072903   T   T   T
  0.8745992233346627  0.1260409275404939  0.4847701272846408   T   T   T
  0.8757427156421045  0.3761758775904127  0.4847428047354043   T   T   T
  0.8815011659436891  0.6256848294105311  0.4850001924477851   T   T   T
  0.8773231873466685  0.8750776763088766  0.4849047356732186   T   T   T
  0.1249999993158326  0.1249999996774775  0.3217125319140450   F   F   F
  0.1249999993158326  0.3749999996774775  0.3217125319140450   F   F   F
  0.1250000002280558  0.6249999990324397  0.3217125319140450   F   F   F
  0.1250000002280558  0.8749999983874019  0.3217125319140450   F   F   F
  0.3749999988597210  0.1249999996774775  0.3217125319140450   F   F   F
  0.3749999997719442  0.3749999996774775  0.3217125319140450   F   F   F
  0.3749999997719442  0.6249999990324397  0.3217125319140450   F   F   F
  0.3749999997719442  0.8749999983874019  0.3217125319140450   F   F   F
  0.6249999993158326  0.1249999996774775  0.3217125319140450   F   F   F
  0.6249999984036094  0.3749999996774775  0.3217125319140450   F   F   F
  0.6249999993158326  0.6249999990324397  0.3217125319140450   F   F   F
  0.6249999993158326  0.8749999983874019  0.3217125319140450   F   F   F
  0.8749999979474978  0.1249999996774775  0.3217125319140450   F   F   F
  0.8749999988597210  0.3749999996774775  0.3217125319140450   F   F   F
  0.8749999988597210  0.6249999990324397  0.3217125319140450   F   F   F
  0.8749999988597210  0.8749999983874019  0.3217125319140450   F   F   F
  0.5989094338979797  0.5672261724546175  0.6070378356811545   T   T   T
  0.6281292452854075  0.4716957653703773  0.6080440676662775   T   T   T
  0.5325399687406005  0.4086445135868146  0.6177003979751703   T   T   T
  0.4009609013372213  0.4329134206633256  0.6070231470117378   T   T   T
  0.3717315371421606  0.5284491684989234  0.6080557509925697   T   T   T
  0.4674190511432883  0.5915127336113386  0.6177001822625670   T   T   T
  0.6542902646245778  0.5985358462266888  0.6570810049487363   T   T   T
  0.3455927274209785  0.4015966559577819  0.6571146844495104   T   T   T
  0.7355803739019962  0.4565414798943408  0.6526673040635487   T   T   T
  0.5509053744092682  0.3427626543624882  0.6760254049126857   T   T   T
  0.2642935214079429  0.5435949755780314  0.6526470627353191   T   T   T
  0.4489768273107444  0.6574137105676527  0.6759541418279795   T   T   T
 
  0.00000000E+00  0.00000000E+00  0.00000000E+00
  0.00000000E+00  0.00000000E+00  0.00000000E+00
  0.00000000E+00  0.00000000E+00  0.00000000E+00
  0.00000000E+00  0.00000000E+00  0.00000000E+00
  0.00000000E+00  0.00000000E+00  0.00000000E+00
  0.00000000E+00  0.00000000E+00  0.00000000E+00
  0.00000000E+00  0.00000000E+00  0.00000000E+00
  0.00000000E+00  0.00000000E+00  0.00000000E+00
  0.00000000E+00  0.00000000E+00  0.00000000E+00
  0.00000000E+00  0.00000000E+00  0.00000000E+00
  0.00000000E+00  0.00000000E+00  0.00000000E+00
  0.00000000E+00  0.00000000E+00  0.00000000E+00
  0.00000000E+00  0.00000000E+00  0.00000000E+00
  0.00000000E+00  0.00000000E+00  0.00000000E+00
  0.00000000E+00  0.00000000E+00  0.00000000E+00
  0.00000000E+00  0.00000000E+00  0.00000000E+00
  0.00000000E+00  0.00000000E+00  0.00000000E+00
  0.00000000E+00  0.00000000E+00  0.00000000E+00
  0.00000000E+00  0.00000000E+00  0.00000000E+00
  0.00000000E+00  0.00000000E+00  0.00000000E+00
  0.00000000E+00  0.00000000E+00  0.00000000E+00
  0.00000000E+00  0.00000000E+00  0.00000000E+00
  0.00000000E+00  0.00000000E+00  0.00000000E+00
  0.00000000E+00  0.00000000E+00  0.00000000E+00
  0.00000000E+00  0.00000000E+00  0.00000000E+00
  0.00000000E+00  0.00000000E+00  0.00000000E+00
  0.00000000E+00  0.00000000E+00  0.00000000E+00
  0.00000000E+00  0.00000000E+00  0.00000000E+00
  0.00000000E+00  0.00000000E+00  0.00000000E+00
  0.00000000E+00  0.00000000E+00  0.00000000E+00
  0.00000000E+00  0.00000000E+00  0.00000000E+00
  0.00000000E+00  0.00000000E+00  0.00000000E+00
  0.00000000E+00  0.00000000E+00  0.00000000E+00
  0.00000000E+00  0.00000000E+00  0.00000000E+00
  0.00000000E+00  0.00000000E+00  0.00000000E+00
  0.00000000E+00  0.00000000E+00  0.00000000E+00
  0.00000000E+00  0.00000000E+00  0.00000000E+00
  0.00000000E+00  0.00000000E+00  0.00000000E+00
  0.00000000E+00  0.00000000E+00  0.00000000E+00
  0.00000000E+00  0.00000000E+00  0.00000000E+00
  0.00000000E+00  0.00000000E+00  0.00000000E+00
  0.00000000E+00  0.00000000E+00  0.00000000E+00
  0.00000000E+00  0.00000000E+00  0.00000000E+00
  0.00000000E+00  0.00000000E+00  0.00000000E+00
  0.00000000E+00  0.00000000E+00  0.00000000E+00
  0.00000000E+00  0.00000000E+00  0.00000000E+00
  0.00000000E+00  0.00000000E+00  0.00000000E+00
  0.00000000E+00  0.00000000E+00  0.00000000E+00
  0.00000000E+00  0.00000000E+00  0.00000000E+00
  0.00000000E+00  0.00000000E+00  0.00000000E+00
  0.00000000E+00  0.00000000E+00  0.00000000E+00
  0.00000000E+00  0.00000000E+00  0.00000000E+00
  0.00000000E+00  0.00000000E+00  0.00000000E+00
  0.00000000E+00  0.00000000E+00  0.00000000E+00
  0.00000000E+00  0.00000000E+00  0.00000000E+00
  0.00000000E+00  0.00000000E+00  0.00000000E+00
  0.00000000E+00  0.00000000E+00  0.00000000E+00
  0.00000000E+00  0.00000000E+00  0.00000000E+00
  0.00000000E+00  0.00000000E+00  0.00000000E+00
  0.00000000E+00  0.00000000E+00  0.00000000E+00
