Ir48 C4 N2 F4                           
    1.000000000000000     
    10.9622135000000007    0.0000000000000000    0.0000000000000000
     0.0000000000000000   10.9622135000000007    0.0000000000000000
     0.0000000000000000    0.0000000000000000   16.7325000400000015
   Ir   C    N    F 
    48     4     2     4
Selective dynamics
Direct
 -0.0008305508938864  0.2494749211676805  0.4095179611977619   T   T   T
  0.0000013800678632  0.5000000124278903  0.4094965596230451   T   T   T
  0.0008367039236957  0.7505216203795545  0.4095158327534222   T   T   T
  0.0000043876742911  0.0000058314126571  0.4095341129611777   T   T   T
  0.2505982272507813  0.2506000845294190  0.4102439958997135   T   T   T
  0.2508924016506365  0.4998578153624258  0.4102942121700072   T   T   T
  0.2525886835103204  0.7474120684681643  0.4118819377428555   T   T   T
  0.2494770214995844 -0.0008303158157732  0.4095192779423643   T   T   T
  0.4998609905198759  0.2508893575995175  0.4102929885071904   T   T   T
  0.5000004384412979  0.4999963027807968  0.4112124908325625   T   T   T
  0.5001405052428688  0.7491060751644529  0.4102909341527967   T   T   T
  0.4999988843473331  0.0000054969384411  0.4094960448532621   T   T   T
  0.7474078218303385  0.2525839507650797  0.4118805915969899   T   T   T
  0.7491053035513724  0.5001367466953563  0.4102902607855577   T   T   T
  0.7493952715499442  0.7493983277542486  0.4102377429841891   T   T   T
  0.7505183456646924  0.0008413004925466  0.4095141139301256   T   T   T
  0.1250129528389758  0.1250146180389370  0.5211425470179529   T   T   T
  0.1225727346161193  0.3745765827753685  0.5210945734581508   T   T   T
  0.1233070868698210  0.6247049488759807  0.5220009838086456   T   T   T
  0.1247975998594425  0.8752028569121846  0.5213374697598329   T   T   T
  0.3745756857099989  0.1225708621182019  0.5210924963282680   T   T   T
  0.3718871414474204  0.3718798532164308  0.5229390214161875   T   T   T
  0.3740318073866215  0.6259684255649141  0.5314022647139918   T   T   T
  0.3752955597292257  0.8766978010762080  0.5219960307137661   T   T   T
  0.6247018962198921  0.1233088754593720  0.5219973855964396   T   T   T
  0.6259759933908320  0.3740224396826523  0.5314056258255569   T   T   T
  0.6281148291025489  0.6281069607163949  0.5229399357986410   T   T   T
  0.6254244655589567  0.8774307803649444  0.5210890711431482   T   T   T
  0.8751992085626590  0.1247960902129171  0.5213432174718019   T   T   T
  0.8766884216407544  0.3752961006321656  0.5219990751864576   T   T   T
  0.8774255843476347  0.6254289314607205  0.5210937514111513   T   T   T
  0.8749837703671903  0.8749878906342278  0.5211475087719525   T   T   T
  0.1250000002280558  0.1250000002280558  0.2988196616194330   F   F   F
  0.1250000002280558  0.3749999997719442  0.2988196616194330   F   F   F
  0.1250000002280558  0.6249999993158326  0.2988196616194330   F   F   F
  0.1250000002280558  0.8749999988597210  0.2988196616194330   F   F   F
  0.3749999997719442  0.1250000002280558  0.2988196616194330   F   F   F
  0.3749999997719442  0.3749999997719442  0.2988196616194330   F   F   F
  0.3749999997719442  0.6249999993158326  0.2988196616194330   F   F   F
  0.3749999997719442  0.8749999988597210  0.2988196616194330   F   F   F
  0.6249999993158326  0.1250000002280558  0.2988196616194330   F   F   F
  0.6249999993158326  0.3749999997719442  0.2988196616194330   F   F   F
  0.6249999993158326  0.6249999993158326  0.2988196616194330   F   F   F
  0.6249999993158326  0.8749999988597210  0.2988196616194330   F   F   F
  0.8749999988597210  0.1250000002280558  0.2988196616194330   F   F   F
  0.8749999988597210  0.3749999997719442  0.2988196616194330   F   F   F
  0.8749999988597210  0.6249999993158326  0.2988196616194330   F   F   F
  0.8749999988597210  0.8749999988597210  0.2988196616194330   F   F   F
  0.5300687759464554  0.3764307491624559  0.6472590843743983   T   T   T
  0.6235659804252712  0.4699173176300124  0.6472575153784665   T   T   T
  0.4699622422191914  0.6235367553392327  0.6472495550264651   T   T   T
  0.3764754502975487  0.5300588347126067  0.6472503097062979   T   T   T
  0.5937113067505407  0.5936929798136676  0.6426591410836457   T   T   T
  0.4063022157944137  0.4062964417949436  0.6426687711891860   T   T   T
  0.2727780351974189  0.5512619789257243  0.6905938497778857   T   T   T
  0.4487704652325481  0.7272324354069911  0.6905858725593772   T   T   T
  0.5512544178789882  0.2727639170540951  0.6905979896072757   T   T   T
  0.7272307045729814  0.4487219981929867  0.6906050304815810   T   T   T
 
  0.00000000E+00  0.00000000E+00  0.00000000E+00
  0.00000000E+00  0.00000000E+00  0.00000000E+00
  0.00000000E+00  0.00000000E+00  0.00000000E+00
  0.00000000E+00  0.00000000E+00  0.00000000E+00
  0.00000000E+00  0.00000000E+00  0.00000000E+00
  0.00000000E+00  0.00000000E+00  0.00000000E+00
  0.00000000E+00  0.00000000E+00  0.00000000E+00
  0.00000000E+00  0.00000000E+00  0.00000000E+00
  0.00000000E+00  0.00000000E+00  0.00000000E+00
  0.00000000E+00  0.00000000E+00  0.00000000E+00
  0.00000000E+00  0.00000000E+00  0.00000000E+00
  0.00000000E+00  0.00000000E+00  0.00000000E+00
  0.00000000E+00  0.00000000E+00  0.00000000E+00
  0.00000000E+00  0.00000000E+00  0.00000000E+00
  0.00000000E+00  0.00000000E+00  0.00000000E+00
  0.00000000E+00  0.00000000E+00  0.00000000E+00
  0.00000000E+00  0.00000000E+00  0.00000000E+00
  0.00000000E+00  0.00000000E+00  0.00000000E+00
  0.00000000E+00  0.00000000E+00  0.00000000E+00
  0.00000000E+00  0.00000000E+00  0.00000000E+00
  0.00000000E+00  0.00000000E+00  0.00000000E+00
  0.00000000E+00  0.00000000E+00  0.00000000E+00
  0.00000000E+00  0.00000000E+00  0.00000000E+00
  0.00000000E+00  0.00000000E+00  0.00000000E+00
  0.00000000E+00  0.00000000E+00  0.00000000E+00
  0.00000000E+00  0.00000000E+00  0.00000000E+00
  0.00000000E+00  0.00000000E+00  0.00000000E+00
  0.00000000E+00  0.00000000E+00  0.00000000E+00
  0.00000000E+00  0.00000000E+00  0.00000000E+00
  0.00000000E+00  0.00000000E+00  0.00000000E+00
  0.00000000E+00  0.00000000E+00  0.00000000E+00
  0.00000000E+00  0.00000000E+00  0.00000000E+00
  0.00000000E+00  0.00000000E+00  0.00000000E+00
  0.00000000E+00  0.00000000E+00  0.00000000E+00
  0.00000000E+00  0.00000000E+00  0.00000000E+00
  0.00000000E+00  0.00000000E+00  0.00000000E+00
  0.00000000E+00  0.00000000E+00  0.00000000E+00
  0.00000000E+00  0.00000000E+00  0.00000000E+00
  0.00000000E+00  0.00000000E+00  0.00000000E+00
  0.00000000E+00  0.00000000E+00  0.00000000E+00
  0.00000000E+00  0.00000000E+00  0.00000000E+00
  0.00000000E+00  0.00000000E+00  0.00000000E+00
  0.00000000E+00  0.00000000E+00  0.00000000E+00
  0.00000000E+00  0.00000000E+00  0.00000000E+00
  0.00000000E+00  0.00000000E+00  0.00000000E+00
  0.00000000E+00  0.00000000E+00  0.00000000E+00
  0.00000000E+00  0.00000000E+00  0.00000000E+00
  0.00000000E+00  0.00000000E+00  0.00000000E+00
  0.00000000E+00  0.00000000E+00  0.00000000E+00
  0.00000000E+00  0.00000000E+00  0.00000000E+00
  0.00000000E+00  0.00000000E+00  0.00000000E+00
  0.00000000E+00  0.00000000E+00  0.00000000E+00
  0.00000000E+00  0.00000000E+00  0.00000000E+00
  0.00000000E+00  0.00000000E+00  0.00000000E+00
  0.00000000E+00  0.00000000E+00  0.00000000E+00
  0.00000000E+00  0.00000000E+00  0.00000000E+00
  0.00000000E+00  0.00000000E+00  0.00000000E+00
  0.00000000E+00  0.00000000E+00  0.00000000E+00
