Ag  C  H  F                             
   1.00000000000000     
    11.7678089999999997    0.0000000000000000    0.0000000000000000
    -5.8839040000000002   10.1912210000000005    0.0000000000000000
     0.0000000000000000    0.0000000000000000   25.2062817300000006
   Ag   C    H    F 
    64     6     2     4
Selective dynamics
Direct
  0.7499999754973956  0.7500000274746270  0.2975448771198046   F   F   F
  0.9999999830044857  0.0000000000000000  0.2975448771198046   F   F   F
  0.9999999789222898  0.2500000088311296  0.2975448771198046   F   F   F
  0.9999999748400938  0.5000000176622592  0.2975448771198046   F   F   F
  0.9999999882440349  0.7500000274746270  0.2975448771198046   F   F   F
  0.2499999957511179  0.0000000000000000  0.2975448771198046   F   F   F
  0.2499999916689291  0.2500000088311296  0.2975448771198046   F   F   F
  0.2499999875867331  0.5000000176622592  0.2975448771198046   F   F   F
  0.4999999915022428  0.0000000000000000  0.2975448771198046   F   F   F
  0.4999999874200469  0.2500000088311296  0.2975448771198046   F   F   F
  0.4999999833378510  0.5000000176622592  0.2975448771198046   F   F   F
  0.4999999797462777  0.7500000274746270  0.2975448771198046   F   F   F
  0.7499999872533607  0.0000000000000000  0.2975448771198046   F   F   F
  0.7499999831711648  0.2500000088311296  0.2975448771198046   F   F   F
  0.7499999790889760  0.5000000176622592  0.2975448771198046   F   F   F
  0.2499999839951599  0.7500000274746270  0.2975448771198046   F   F   F
  0.0833330000000032  0.1666669999999968  0.3928423087572952   F   F   F
  0.0833330000000032  0.4166669999999968  0.3928423087572952   F   F   F
  0.0833330000000032  0.6666669999999968  0.3928423087572952   F   F   F
  0.0833330000000032  0.9166669999999968  0.3928423087572952   F   F   F
  0.3333330000000032  0.1666669999999968  0.3928423087572952   F   F   F
  0.3333330000000032  0.4166669999999968  0.3928423087572952   F   F   F
  0.3333330000000032  0.6666669999999968  0.3928423087572952   F   F   F
  0.3333330000000032  0.9166669999999968  0.3928423087572952   F   F   F
  0.5833330000000032  0.1666669999999968  0.3928423087572952   F   F   F
  0.5833330000000032  0.4166669999999968  0.3928423087572952   F   F   F
  0.5833330000000032  0.6666669999999968  0.3928423087572952   F   F   F
  0.5833330000000032  0.9166669999999968  0.3928423087572952   F   F   F
  0.8333330000000032  0.1666669999999968  0.3928423087572952   F   F   F
  0.8333330000000032  0.4166669999999968  0.3928423087572952   F   F   F
  0.8333330000000032  0.6666669999999968  0.3928423087572952   F   F   F
  0.8333330000000032  0.9166669999999968  0.3928423087572952   F   F   F
  0.2498833717307430  0.2495492297775563  0.5702354546431162   T   T   T
  0.2501460373631225  0.4996767220599323  0.5708192328096845   T   T   T
  0.2500548910735534  0.7496266843805673  0.5711413560176090   T   T   T
  0.2499427225889800 -0.0002914340361156  0.5711992819915630   T   T   T
  0.4996147289560818  0.2501288170730211  0.5710277416649403   T   T   T
  0.5000774685249477  0.4998607992679216  0.5699745565521043   T   T   T
  0.4999596864686143  0.7499656448817610  0.5709743415006164   T   T   T
  0.4999450919798888  0.0000724515967057  0.5712422017486205   T   T   T
  0.7497099107787889  0.2498145212362298  0.5712324661534760   T   T   T
  0.7500501485206973  0.4998220930261595  0.5711210801753124   T   T   T
  0.7499262741062759  0.7498730006697418  0.5710214107216821   T   T   T
  0.7499442116122060 -0.0001293560067573  0.5711874332311109   T   T   T
 -0.0000632278020153  0.2498806960960326  0.5710213196685046   T   T   T
  0.0002308886322171  0.4997837009277780  0.5711569326424689   T   T   T
  0.0000185476365865  0.7497459536743571  0.5711879215704397   T   T   T
 -0.0000204685174323 -0.0001303372474084  0.5711014477025683   T   T   T
  0.1664590336756231  0.0828664805767137  0.4817028111463891   T   T   T
  0.1663888656003500  0.3331834107665822  0.4816314194312256   T   T   T
  0.1666703925522192  0.5832372758075495  0.4818011006835548   T   T   T
  0.1666170972122527  0.8331964424237898  0.4819005802297153   T   T   T
  0.4165887091831431  0.0831961363439658  0.4818578216105184   T   T   T
  0.4166150077867571  0.3330601477457517  0.4814849753829667   T   T   T
  0.4166191157430669  0.5835718048971100  0.4815641559446102   T   T   T
  0.4166750903931065  0.8334408522377108  0.4818512013246554   T   T   T
  0.6666774668881038  0.0832538831106027  0.4818547290856832   T   T   T
  0.6666369707673582  0.3332175928863286  0.4818556646543385   T   T   T
  0.6670545889055379  0.5834323272488454  0.4816519650922001   T   T   T
  0.6667431104937150  0.8333590532375651  0.4818147587278260   T   T   T
  0.9165387003167762  0.0831739662667543  0.4818371361102980   T   T   T
  0.9164432053897114  0.3331600614184480  0.4818453589742411   T   T   T
  0.9167076702901396  0.5832599461086707  0.4818543258735852   T   T   T
  0.9167228578816091  0.8331981003134601  0.4818390761212395   T   T   T
  0.3075532420278743  0.4462027749449421  0.6926240453163688   T   T   T
  0.4441219963879702  0.5131832549017705  0.6931752015263286   T   T   T
  0.5123083270914642  0.4443548113291897  0.6948469762011387   T   T   T
  0.4452073778949078  0.3078401813833307  0.6966592643621592   T   T   T
  0.3086584686005387  0.2410549130219495  0.6967569825170027   T   T   T
  0.2403508342503197  0.3096940783546726  0.6943775684305185   T   T   T
  0.2540641908477615  0.4995817320352308  0.6909364941313136   T   T   T
  0.4986160664567977  0.2543373479908561  0.6984855480091503   T   T   T
  0.5118741276163298  0.6459784879573529  0.6921848141039221   T   T   T
  0.6450919955875434  0.5114832718222632  0.6949074924514544   T   T   T
  0.2409965484068959  0.1084579168104987  0.6990102326822965   T   T   T
  0.1075458007049260  0.2426045433792797  0.6940185476078630   T   T   T
 
  0.00000000E+00  0.00000000E+00  0.00000000E+00
  0.00000000E+00  0.00000000E+00  0.00000000E+00
  0.00000000E+00  0.00000000E+00  0.00000000E+00
  0.00000000E+00  0.00000000E+00  0.00000000E+00
  0.00000000E+00  0.00000000E+00  0.00000000E+00
  0.00000000E+00  0.00000000E+00  0.00000000E+00
  0.00000000E+00  0.00000000E+00  0.00000000E+00
  0.00000000E+00  0.00000000E+00  0.00000000E+00
  0.00000000E+00  0.00000000E+00  0.00000000E+00
  0.00000000E+00  0.00000000E+00  0.00000000E+00
  0.00000000E+00  0.00000000E+00  0.00000000E+00
  0.00000000E+00  0.00000000E+00  0.00000000E+00
  0.00000000E+00  0.00000000E+00  0.00000000E+00
  0.00000000E+00  0.00000000E+00  0.00000000E+00
  0.00000000E+00  0.00000000E+00  0.00000000E+00
  0.00000000E+00  0.00000000E+00  0.00000000E+00
  0.00000000E+00  0.00000000E+00  0.00000000E+00
  0.00000000E+00  0.00000000E+00  0.00000000E+00
  0.00000000E+00  0.00000000E+00  0.00000000E+00
  0.00000000E+00  0.00000000E+00  0.00000000E+00
  0.00000000E+00  0.00000000E+00  0.00000000E+00
  0.00000000E+00  0.00000000E+00  0.00000000E+00
  0.00000000E+00  0.00000000E+00  0.00000000E+00
  0.00000000E+00  0.00000000E+00  0.00000000E+00
  0.00000000E+00  0.00000000E+00  0.00000000E+00
  0.00000000E+00  0.00000000E+00  0.00000000E+00
  0.00000000E+00  0.00000000E+00  0.00000000E+00
  0.00000000E+00  0.00000000E+00  0.00000000E+00
  0.00000000E+00  0.00000000E+00  0.00000000E+00
  0.00000000E+00  0.00000000E+00  0.00000000E+00
  0.00000000E+00  0.00000000E+00  0.00000000E+00
  0.00000000E+00  0.00000000E+00  0.00000000E+00
  0.00000000E+00  0.00000000E+00  0.00000000E+00
  0.00000000E+00  0.00000000E+00  0.00000000E+00
  0.00000000E+00  0.00000000E+00  0.00000000E+00
  0.00000000E+00  0.00000000E+00  0.00000000E+00
  0.00000000E+00  0.00000000E+00  0.00000000E+00
  0.00000000E+00  0.00000000E+00  0.00000000E+00
  0.00000000E+00  0.00000000E+00  0.00000000E+00
  0.00000000E+00  0.00000000E+00  0.00000000E+00
  0.00000000E+00  0.00000000E+00  0.00000000E+00
  0.00000000E+00  0.00000000E+00  0.00000000E+00
  0.00000000E+00  0.00000000E+00  0.00000000E+00
  0.00000000E+00  0.00000000E+00  0.00000000E+00
  0.00000000E+00  0.00000000E+00  0.00000000E+00
  0.00000000E+00  0.00000000E+00  0.00000000E+00
  0.00000000E+00  0.00000000E+00  0.00000000E+00
  0.00000000E+00  0.00000000E+00  0.00000000E+00
  0.00000000E+00  0.00000000E+00  0.00000000E+00
  0.00000000E+00  0.00000000E+00  0.00000000E+00
  0.00000000E+00  0.00000000E+00  0.00000000E+00
  0.00000000E+00  0.00000000E+00  0.00000000E+00
  0.00000000E+00  0.00000000E+00  0.00000000E+00
  0.00000000E+00  0.00000000E+00  0.00000000E+00
  0.00000000E+00  0.00000000E+00  0.00000000E+00
  0.00000000E+00  0.00000000E+00  0.00000000E+00
  0.00000000E+00  0.00000000E+00  0.00000000E+00
  0.00000000E+00  0.00000000E+00  0.00000000E+00
  0.00000000E+00  0.00000000E+00  0.00000000E+00
  0.00000000E+00  0.00000000E+00  0.00000000E+00
  0.00000000E+00  0.00000000E+00  0.00000000E+00
  0.00000000E+00  0.00000000E+00  0.00000000E+00
  0.00000000E+00  0.00000000E+00  0.00000000E+00
  0.00000000E+00  0.00000000E+00  0.00000000E+00
  0.00000000E+00  0.00000000E+00  0.00000000E+00
  0.00000000E+00  0.00000000E+00  0.00000000E+00
  0.00000000E+00  0.00000000E+00  0.00000000E+00
  0.00000000E+00  0.00000000E+00  0.00000000E+00
  0.00000000E+00  0.00000000E+00  0.00000000E+00
  0.00000000E+00  0.00000000E+00  0.00000000E+00
  0.00000000E+00  0.00000000E+00  0.00000000E+00
  0.00000000E+00  0.00000000E+00  0.00000000E+00
  0.00000000E+00  0.00000000E+00  0.00000000E+00
  0.00000000E+00  0.00000000E+00  0.00000000E+00
  0.00000000E+00  0.00000000E+00  0.00000000E+00
  0.00000000E+00  0.00000000E+00  0.00000000E+00
