Au48 C6 Cl2 H4                          
    1.000000000000000     
    11.7981856999999994    0.0000000000000000    0.0000000000000000
     0.0000000000000000   11.7981856999999994    0.0000000000000000
     0.0000000000000000    0.0000000000000000   17.1730750000000008
   Au   C    Cl   H 
    48     6     2     4
Selective dynamics
Direct
  0.2496658031045200  0.9998360510938511  0.4126363571968454   T   T   T
  0.2492774652462870  0.2492777701587059  0.4120517037524749   T   T   T
  0.2491843072379254  0.5003951276561196  0.4120441337870560   T   T   T
  0.2495544978378632  0.7504450576041464  0.4125988842643693   T   T   T
  0.5000004845302826  0.0000000161669291  0.4125112998653933   T   T   T
  0.5003953755005099  0.2491845629052492  0.4120443522208319   T   T   T
  0.5000001008184611  0.5000000527347765  0.4116472552187531   T   T   T
  0.4996050210718863  0.7508159193832284  0.4120448912702415   T   T   T
  0.7503346544433569  0.0001635053425346  0.4126354215202070   T   T   T
  0.7504454633661766  0.2495547573096957  0.4125986990638637   T   T   T
  0.7508160180075265  0.4996049231028366  0.4120449067420537   T   T   T
  0.7507233490617011  0.7507232958663934  0.4120518367943546   T   T   T
  0.9999989886743492  0.9999994709030986  0.4126605203855362   T   T   T
  0.9998358213037264  0.2496659168758768  0.4126358125823302   T   T   T
  0.9999999176316692  0.5000002560276471  0.4125108417847017   T   T   T
  0.0001631873178027  0.7503343847415209  0.4126355454575616   T   T   T
  0.1248097931264880  0.1248112708434377  0.5342009291847276   T   T   T
  0.1245432448301571  0.3749823060424049  0.5337422718182978   T   T   T
  0.1248231665432868  0.6251128073457721  0.5341695932863573   T   T   T
  0.1249745543892544  0.8750241187572954  0.5345855693749471   T   T   T
  0.3749821624232865  0.1245442939506418  0.5337423664072176   T   T   T
  0.3747534774641750  0.3747536831234015  0.5299080989790070   T   T   T
  0.3742886868931024  0.6257116522365322  0.5327728975941142   T   T   T
  0.3748871884230311  0.8751759189889938  0.5341696875276654   T   T   T
  0.6251142742917324  0.1248241042312515  0.5341697147257065   T   T   T
  0.6257123773576367  0.3742889270357779  0.5327734426917914   T   T   T
  0.6252480370045888  0.6252475122241634  0.5299102164014826   T   T   T
  0.6250191355953021  0.8754558837135633  0.5337432256331738   T   T   T
  0.8750242826822685  0.1249756262636126  0.5345850893769963   T   T   T
  0.8751764290543704  0.3748868711965443  0.5341691156252679   T   T   T
  0.8754561450891387  0.6250181099074652  0.5337426704429120   T   T   T
  0.8751888897120992  0.8751891505693195  0.5342008531859079   T   T   T
  0.1249999997881019  0.1250000006356942  0.2911534480575000   F   F   F
  0.1250000006356942  0.3750000010594832  0.2911534480575000   F   F   F
  0.1250000006356942  0.6250000006356942  0.2911534480575000   F   F   F
  0.1250000006356942  0.8750000019070754  0.2911534480575000   F   F   F
  0.3750000010594832  0.1250000006356942  0.2911534480575000   F   F   F
  0.3750000010594832  0.3750000010594832  0.2911534480575000   F   F   F
  0.3750000010594832  0.6250000006356942  0.2911534480575000   F   F   F
  0.3750000010594832  0.8750000019070754  0.2911534480575000   F   F   F
  0.6250000006356942  0.1250000006356942  0.2911534480575000   F   F   F
  0.6250000014832793  0.3750000010594832  0.2911534480575000   F   F   F
  0.6250000014832793  0.6250000006356942  0.2911534480575000   F   F   F
  0.6250000014832793  0.8750000019070754  0.2911534480575000   F   F   F
  0.8750000019070754  0.1250000006356942  0.2911534480575000   F   F   F
  0.8750000019070754  0.3750000010594832  0.2911534480575000   F   F   F
  0.8750000019070754  0.6250000006356942  0.2911534480575000   F   F   F
  0.8750000019070754  0.8750000019070754  0.2911534480575000   F   F   F
  0.4167826542856830  0.4167607021106789  0.7123491536671906   T   T   T
  0.3852774726774300  0.5309455314858980  0.7105331148684826   T   T   T
  0.4690315049622455  0.6147278015969988  0.7105355338973851   T   T   T
  0.5832192702986632  0.5832387557040448  0.7123561977501041   T   T   T
  0.6147174058684115  0.4690534830498905  0.7105361464853459   T   T   T
  0.5309597164187565  0.3852661547091429  0.7105328550560586   T   T   T
  0.3130027837155964  0.3130242752285639  0.7174258765462298   T   T   T
  0.6869972877045072  0.6869758037260922  0.7174379787459344   T   T   T
  0.2959542960446981  0.5545176331506951  0.7098106818031766   T   T   T
  0.4455122640971538  0.7040405007463235  0.7098169164471955   T   T   T
  0.7040488848671984  0.4454804127604604  0.7098172065280863   T   T   T
  0.5544867847326671  0.2959598252393008  0.7098109982678480   T   T   T
 
  0.00000000E+00  0.00000000E+00  0.00000000E+00
  0.00000000E+00  0.00000000E+00  0.00000000E+00
  0.00000000E+00  0.00000000E+00  0.00000000E+00
  0.00000000E+00  0.00000000E+00  0.00000000E+00
  0.00000000E+00  0.00000000E+00  0.00000000E+00
  0.00000000E+00  0.00000000E+00  0.00000000E+00
  0.00000000E+00  0.00000000E+00  0.00000000E+00
  0.00000000E+00  0.00000000E+00  0.00000000E+00
  0.00000000E+00  0.00000000E+00  0.00000000E+00
  0.00000000E+00  0.00000000E+00  0.00000000E+00
  0.00000000E+00  0.00000000E+00  0.00000000E+00
  0.00000000E+00  0.00000000E+00  0.00000000E+00
  0.00000000E+00  0.00000000E+00  0.00000000E+00
  0.00000000E+00  0.00000000E+00  0.00000000E+00
  0.00000000E+00  0.00000000E+00  0.00000000E+00
  0.00000000E+00  0.00000000E+00  0.00000000E+00
  0.00000000E+00  0.00000000E+00  0.00000000E+00
  0.00000000E+00  0.00000000E+00  0.00000000E+00
  0.00000000E+00  0.00000000E+00  0.00000000E+00
  0.00000000E+00  0.00000000E+00  0.00000000E+00
  0.00000000E+00  0.00000000E+00  0.00000000E+00
  0.00000000E+00  0.00000000E+00  0.00000000E+00
  0.00000000E+00  0.00000000E+00  0.00000000E+00
  0.00000000E+00  0.00000000E+00  0.00000000E+00
  0.00000000E+00  0.00000000E+00  0.00000000E+00
  0.00000000E+00  0.00000000E+00  0.00000000E+00
  0.00000000E+00  0.00000000E+00  0.00000000E+00
  0.00000000E+00  0.00000000E+00  0.00000000E+00
  0.00000000E+00  0.00000000E+00  0.00000000E+00
  0.00000000E+00  0.00000000E+00  0.00000000E+00
  0.00000000E+00  0.00000000E+00  0.00000000E+00
  0.00000000E+00  0.00000000E+00  0.00000000E+00
  0.00000000E+00  0.00000000E+00  0.00000000E+00
  0.00000000E+00  0.00000000E+00  0.00000000E+00
  0.00000000E+00  0.00000000E+00  0.00000000E+00
  0.00000000E+00  0.00000000E+00  0.00000000E+00
  0.00000000E+00  0.00000000E+00  0.00000000E+00
  0.00000000E+00  0.00000000E+00  0.00000000E+00
  0.00000000E+00  0.00000000E+00  0.00000000E+00
  0.00000000E+00  0.00000000E+00  0.00000000E+00
  0.00000000E+00  0.00000000E+00  0.00000000E+00
  0.00000000E+00  0.00000000E+00  0.00000000E+00
  0.00000000E+00  0.00000000E+00  0.00000000E+00
  0.00000000E+00  0.00000000E+00  0.00000000E+00
  0.00000000E+00  0.00000000E+00  0.00000000E+00
  0.00000000E+00  0.00000000E+00  0.00000000E+00
  0.00000000E+00  0.00000000E+00  0.00000000E+00
  0.00000000E+00  0.00000000E+00  0.00000000E+00
  0.00000000E+00  0.00000000E+00  0.00000000E+00
  0.00000000E+00  0.00000000E+00  0.00000000E+00
  0.00000000E+00  0.00000000E+00  0.00000000E+00
  0.00000000E+00  0.00000000E+00  0.00000000E+00
  0.00000000E+00  0.00000000E+00  0.00000000E+00
  0.00000000E+00  0.00000000E+00  0.00000000E+00
  0.00000000E+00  0.00000000E+00  0.00000000E+00
  0.00000000E+00  0.00000000E+00  0.00000000E+00
  0.00000000E+00  0.00000000E+00  0.00000000E+00
  0.00000000E+00  0.00000000E+00  0.00000000E+00
  0.00000000E+00  0.00000000E+00  0.00000000E+00
  0.00000000E+00  0.00000000E+00  0.00000000E+00
