Rh48 C6 Cl2 H4                          
    1.000000000000000     
    10.8856652999999994    0.0000000000000000    0.0000000000000000
     0.0000000000000000   10.8856652999999994    0.0000000000000000
     0.0000000000000000    0.0000000000000000   16.5551022299999993
   Rh   C    Cl   H 
    48     6     2     4
Selective dynamics
Direct
  0.0000008571817176  0.9999996077926383  0.4090908171265824   T   T   T
  0.9998609697831711  0.2498586218623160  0.4092212060560030   T   T   T
  0.0000015281630823  0.4999988258550871  0.4090337132035842   T   T   T
  0.0001376926618946  0.7501425695067852  0.4092180551977265   T   T   T
  0.2498590917528674  0.9998525815297654  0.4092108089738673   T   T   T
  0.2502876404820498  0.2502910210991089  0.4096815683721218   T   T   T
  0.2504922367468083  0.5001159138537190  0.4098235321223953   T   T   T
  0.2515337805525064  0.7484763695792012  0.4101668946871726   T   T   T
  0.4999945269615296  0.0000000277432264  0.4090238913341651   T   T   T
  0.5001187754167233  0.2504900019863925  0.4098197022508501   T   T   T
  0.4999910403279486  0.4999945514151207  0.4091052364241961   T   T   T
  0.4998753423388465  0.7495169502447254  0.4098195558584834   T   T   T
  0.7501456631756582  0.0001437177264378  0.4092189159328541   T   T   T
  0.7484727208184765  0.2515290176895704  0.4101760477748755   T   T   T
  0.7495179599266066  0.4998862214681097  0.4098315951066738   T   T   T
  0.7497222789205793  0.7497116624583668  0.4096884351222556   T   T   T
  0.1246791516349077  0.1246846646940298  0.5166961330913225   T   T   T
  0.1236137252800873  0.3747921139101038  0.5170919621290011   T   T   T
  0.1235472324929532  0.6252202832082645  0.5168018998174730   T   T   T
  0.1250351573154376  0.8749710069426229  0.5166217426126636   T   T   T
  0.3747935457777558  0.1236210502417805  0.5171026668751466   T   T   T
  0.3748990975891857  0.3749023523218327  0.5175929926548193   T   T   T
  0.3741802712133477  0.6258127921567294  0.5211990855338158   T   T   T
  0.3747721860065525  0.8764535695753963  0.5167909813051637   T   T   T
  0.6252294920863051  0.1235520538610615  0.5167516693235612   T   T   T
  0.6258235933256984  0.3741786199929109  0.5211793633492334   T   T   T
  0.6250932997780723  0.6250868942278274  0.5175742981318336   T   T   T
  0.6252060655449725  0.8763868073325938  0.5171082307902424   T   T   T
  0.8749700752637750  0.1250407951392418  0.5166347846788710   T   T   T
  0.8764545548479319  0.3747767367119934  0.5168072809287665   T   T   T
  0.8763894948774720  0.6252032947741597  0.5170991030628898   T   T   T
  0.8753292937283419  0.8753193622153077  0.5166637114234263   T   T   T
  0.1249999997703384  0.1249999997703384  0.3020216928011052   F   F   F
  0.1250000006889778  0.3750000002296616  0.3020216928011052   F   F   F
  0.1250000006889778  0.6250000006889778  0.3020216928011052   F   F   F
  0.1250000006889778  0.8750000011483010  0.3020216928011052   F   F   F
  0.3750000011483010  0.1249999997703384  0.3020216928011052   F   F   F
  0.3750000011483010  0.3750000002296616  0.3020216928011052   F   F   F
  0.3750000011483010  0.6250000006889778  0.3020216928011052   F   F   F
  0.3750000011483010  0.8750000011483010  0.3020216928011052   F   F   F
  0.6250000006889778  0.1249999997703384  0.3020216928011052   F   F   F
  0.6250000006889778  0.3750000002296616  0.3020216928011052   F   F   F
  0.6250000016076172  0.6250000006889778  0.3020216928011052   F   F   F
  0.6250000016076172  0.8750000011483010  0.3020216928011052   F   F   F
  0.8750000011483010  0.1249999997703384  0.3020216928011052   F   F   F
  0.8750000011483010  0.3750000002296616  0.3020216928011052   F   F   F
  0.8750000011483010  0.6250000006889778  0.3020216928011052   F   F   F
  0.8750000020669404  0.8750000011483010  0.3020216928011052   F   F   F
  0.4048194937403053  0.4048343594070900  0.6401388155566750   T   T   T
  0.3719084478473960  0.5353171759526418  0.6437072162290178   T   T   T
  0.4646836813193360  0.6280329535085443  0.6437015548354665   T   T   T
  0.5951442558537678  0.5951294613874154  0.6401217960637311   T   T   T
  0.6280390496316741  0.4646703436092068  0.6436977710952760   T   T   T
  0.5352752045182001  0.3719484899131942  0.6436907693175868   T   T   T
  0.3048702854803977  0.3049055189650289  0.6937829378100773   T   T   T
  0.6951177186733446  0.6950883194490913  0.6937729383597642   T   T   T
  0.2804628938190490  0.5577605707635911  0.6661491628350475   T   T   T
  0.4422464189180531  0.7195592973368647  0.6661556049666473   T   T   T
  0.7195202060244767  0.4422263188642006  0.6661358670607882   T   T   T
  0.5577243629476243  0.2804249215064729  0.6661355950427179   T   T   T
 
  0.00000000E+00  0.00000000E+00  0.00000000E+00
  0.00000000E+00  0.00000000E+00  0.00000000E+00
  0.00000000E+00  0.00000000E+00  0.00000000E+00
  0.00000000E+00  0.00000000E+00  0.00000000E+00
  0.00000000E+00  0.00000000E+00  0.00000000E+00
  0.00000000E+00  0.00000000E+00  0.00000000E+00
  0.00000000E+00  0.00000000E+00  0.00000000E+00
  0.00000000E+00  0.00000000E+00  0.00000000E+00
  0.00000000E+00  0.00000000E+00  0.00000000E+00
  0.00000000E+00  0.00000000E+00  0.00000000E+00
  0.00000000E+00  0.00000000E+00  0.00000000E+00
  0.00000000E+00  0.00000000E+00  0.00000000E+00
  0.00000000E+00  0.00000000E+00  0.00000000E+00
  0.00000000E+00  0.00000000E+00  0.00000000E+00
  0.00000000E+00  0.00000000E+00  0.00000000E+00
  0.00000000E+00  0.00000000E+00  0.00000000E+00
  0.00000000E+00  0.00000000E+00  0.00000000E+00
  0.00000000E+00  0.00000000E+00  0.00000000E+00
  0.00000000E+00  0.00000000E+00  0.00000000E+00
  0.00000000E+00  0.00000000E+00  0.00000000E+00
  0.00000000E+00  0.00000000E+00  0.00000000E+00
  0.00000000E+00  0.00000000E+00  0.00000000E+00
  0.00000000E+00  0.00000000E+00  0.00000000E+00
  0.00000000E+00  0.00000000E+00  0.00000000E+00
  0.00000000E+00  0.00000000E+00  0.00000000E+00
  0.00000000E+00  0.00000000E+00  0.00000000E+00
  0.00000000E+00  0.00000000E+00  0.00000000E+00
  0.00000000E+00  0.00000000E+00  0.00000000E+00
  0.00000000E+00  0.00000000E+00  0.00000000E+00
  0.00000000E+00  0.00000000E+00  0.00000000E+00
  0.00000000E+00  0.00000000E+00  0.00000000E+00
  0.00000000E+00  0.00000000E+00  0.00000000E+00
  0.00000000E+00  0.00000000E+00  0.00000000E+00
  0.00000000E+00  0.00000000E+00  0.00000000E+00
  0.00000000E+00  0.00000000E+00  0.00000000E+00
  0.00000000E+00  0.00000000E+00  0.00000000E+00
  0.00000000E+00  0.00000000E+00  0.00000000E+00
  0.00000000E+00  0.00000000E+00  0.00000000E+00
  0.00000000E+00  0.00000000E+00  0.00000000E+00
  0.00000000E+00  0.00000000E+00  0.00000000E+00
  0.00000000E+00  0.00000000E+00  0.00000000E+00
  0.00000000E+00  0.00000000E+00  0.00000000E+00
  0.00000000E+00  0.00000000E+00  0.00000000E+00
  0.00000000E+00  0.00000000E+00  0.00000000E+00
  0.00000000E+00  0.00000000E+00  0.00000000E+00
  0.00000000E+00  0.00000000E+00  0.00000000E+00
  0.00000000E+00  0.00000000E+00  0.00000000E+00
  0.00000000E+00  0.00000000E+00  0.00000000E+00
  0.00000000E+00  0.00000000E+00  0.00000000E+00
  0.00000000E+00  0.00000000E+00  0.00000000E+00
  0.00000000E+00  0.00000000E+00  0.00000000E+00
  0.00000000E+00  0.00000000E+00  0.00000000E+00
  0.00000000E+00  0.00000000E+00  0.00000000E+00
  0.00000000E+00  0.00000000E+00  0.00000000E+00
  0.00000000E+00  0.00000000E+00  0.00000000E+00
  0.00000000E+00  0.00000000E+00  0.00000000E+00
  0.00000000E+00  0.00000000E+00  0.00000000E+00
  0.00000000E+00  0.00000000E+00  0.00000000E+00
  0.00000000E+00  0.00000000E+00  0.00000000E+00
  0.00000000E+00  0.00000000E+00  0.00000000E+00
