Cu  C Br                                
   1.00000000000000     
    10.2425003052000001    0.0000000000000000    0.0000000000000000
     0.0000000000000000   10.2425003052000001    0.0000000000000000
     0.0000000000000000    0.0000000000000000   23.4319000244000009
   Cu   C    Br
    64     6     6
Selective dynamics
Direct
  0.2499999999707114  0.0000000000000000  0.3200800120856613   F   F   F
  0.0000000000000000  0.5000000000390514  0.3200800120856613   F   F   F
  0.2499999999707114  0.2499999999707114  0.3200800120856613   F   F   F
  0.2499999999707114  0.5000000000390514  0.3200800120856613   F   F   F
  0.2499999999707114  0.7500000000097629  0.3200800120856613   F   F   F
  0.5000000000390514  0.0000000000000000  0.3200800120856613   F   F   F
  0.5000000000390514  0.2499999999707114  0.3200800120856613   F   F   F
  0.0000000000000000  0.7500000000097629  0.3200800120856613   F   F   F
  0.5000000000390514  0.5000000000390514  0.3200800120856613   F   F   F
  0.5000000000390514  0.7500000000097629  0.3200800120856613   F   F   F
  0.7500000000097629  0.0000000000000000  0.3200800120856613   F   F   F
  0.7500000000097629  0.2499999999707114  0.3200800120856613   F   F   F
  0.7500000000097629  0.5000000000390514  0.3200800120856613   F   F   F
  0.7500000000097629  0.7500000000097629  0.3200800120856613   F   F   F
  0.0000000000000000  0.0000000000000000  0.3200800120856613   F   F   F
  0.0000000000000000  0.2499999999707114  0.3200800120856613   F   F   F
  0.2500539783824111  0.0002447861794804  0.4743950868129629   T   T   T
  0.2500593114161677  0.2499786703887663  0.4742300363593266   T   T   T
  0.2492799291446969  0.5001179898949217  0.4740583296121446   T   T   T
  0.2496580485950521  0.7504122706966624  0.4741411322770043   T   T   T
  0.5000448010300208 -0.0000503926065540  0.4743861180321940   T   T   T
  0.5001977117718110  0.2492191500929401  0.4740538944210771   T   T   T
  0.5000866812427844  0.4999516332726341  0.4735229307947041   T   T   T
  0.5000182109157311  0.7509355748367297  0.4741241469934111   T   T   T
  0.7499679421366793 -0.0004143482082499  0.4744409394472189   T   T   T
  0.7504874946973437  0.2495599037379598  0.4741684247380260   T   T   T
  0.7511085108732221  0.4998981258010557  0.4741692177526818   T   T   T
  0.7501165533878793  0.7499644762379272  0.4743997757143477   T   T   T
  0.0000141437480386 -0.0000423699332078  0.4740874362659739   T   T   T
  0.0003527524213136  0.2499911246161824  0.4744062599404936   T   T   T
  0.0000416192475540  0.4999906075791898  0.4744900616776272   T   T   T
 -0.0002865628801268  0.7498535631330259  0.4744296493776733   T   T   T
  0.1249684326065156  0.1248993381253118  0.5501184272969069   T   T   T
  0.1254179441411417  0.3749191195003445  0.5502743505652967   T   T   T
  0.1249559123203242  0.6252884420193853  0.5499990304444591   T   T   T
  0.1245272479029985  0.8753869970173487  0.5499696269952248   T   T   T
  0.3750180387809737  0.1252299959580591  0.5502041503515592   T   T   T
  0.3757349354345625  0.3755484098756162  0.5488326280345933   T   T   T
  0.3755542622972804  0.6246672040383834  0.5486232622313414   T   T   T
  0.3745923836495262  0.8753787799173246  0.5500235810592710   T   T   T
  0.6253631289368430  0.1248205850968552  0.5499610563213085   T   T   T
  0.6248980850633076  0.3753658635138198  0.5486904132798984   T   T   T
  0.6244325325962534  0.6242966783971426  0.5487820738886373   T   T   T
  0.6250587839342082  0.8748574302998837  0.5504656373370331   T   T   T
  0.8754576747985381  0.1243709055633589  0.5499930727780918   T   T   T
  0.8756541179579225  0.3744002648743956  0.5500907888788982   T   T   T
  0.8750076084508163  0.6249483122246260  0.5506101398412930   T   T   T
  0.8752449562562029  0.8750332143366544  0.5501553178053226   T   T   T
  0.1249999999853557  0.1249999999853557  0.3973500132428285   F   F   F
  0.1249999999853557  0.3749999999560671  0.3973500132428285   F   F   F
  0.1249999999853557  0.6250000000244071  0.3973500132428285   F   F   F
  0.1249999999853557  0.8749999999951186  0.3973500132428285   F   F   F
  0.3749999999560671  0.1249999999853557  0.3973500132428285   F   F   F
  0.3749999999560671  0.3749999999560671  0.3973500132428285   F   F   F
  0.3749999999560671  0.6250000000244071  0.3973500132428285   F   F   F
  0.3749999999560671  0.8749999999951186  0.3973500132428285   F   F   F
  0.6250000000244071  0.1249999999853557  0.3973500132428285   F   F   F
  0.6250000000244071  0.3749999999560671  0.3973500132428285   F   F   F
  0.6250000000244071  0.6250000000244071  0.3973500132428285   F   F   F
  0.6250000000244071  0.8749999999951186  0.3973500132428285   F   F   F
  0.8749999999951186  0.1249999999853557  0.3973500132428285   F   F   F
  0.8749999999951186  0.3749999999560671  0.3973500132428285   F   F   F
  0.8749999999951186  0.6250000000244071  0.3973500132428285   F   F   F
  0.8749999999951186  0.8749999999951186  0.3973500132428285   F   F   F
  0.5465801582752774  0.6464352078521907  0.6795782491948711   T   T   T
  0.6467518690404005  0.5528725860217725  0.6794940524467321   T   T   T
  0.6154631065088857  0.4193645214864955  0.6794637404507531   T   T   T
  0.4841761822221339  0.3796415019597084  0.6801339285909302   T   T   T
  0.3841722061461868  0.4734020440284699  0.6800559494221878   T   T   T
  0.4154188946378987  0.6068050326367269  0.6793202903592427   T   T   T
  0.5888535978476889  0.8272429652223651  0.6780402161821798   T   T   T
  0.8249486812288318  0.6068112192966376  0.6768586494558971   T   T   T
  0.7509950477414207  0.2925771638991263  0.6762195822654092   T   T   T
  0.4404648782867966  0.1993415970450090  0.6791785962809326   T   T   T
  0.2063353143295203  0.4197776195725298  0.6789682183446837   T   T   T
  0.2797960666001875  0.7341088181378923  0.6750634739305024   T   T   T
 
  0.00000000E+00  0.00000000E+00  0.00000000E+00
  0.00000000E+00  0.00000000E+00  0.00000000E+00
  0.00000000E+00  0.00000000E+00  0.00000000E+00
  0.00000000E+00  0.00000000E+00  0.00000000E+00
  0.00000000E+00  0.00000000E+00  0.00000000E+00
  0.00000000E+00  0.00000000E+00  0.00000000E+00
  0.00000000E+00  0.00000000E+00  0.00000000E+00
  0.00000000E+00  0.00000000E+00  0.00000000E+00
  0.00000000E+00  0.00000000E+00  0.00000000E+00
  0.00000000E+00  0.00000000E+00  0.00000000E+00
  0.00000000E+00  0.00000000E+00  0.00000000E+00
  0.00000000E+00  0.00000000E+00  0.00000000E+00
  0.00000000E+00  0.00000000E+00  0.00000000E+00
  0.00000000E+00  0.00000000E+00  0.00000000E+00
  0.00000000E+00  0.00000000E+00  0.00000000E+00
  0.00000000E+00  0.00000000E+00  0.00000000E+00
  0.00000000E+00  0.00000000E+00  0.00000000E+00
  0.00000000E+00  0.00000000E+00  0.00000000E+00
  0.00000000E+00  0.00000000E+00  0.00000000E+00
  0.00000000E+00  0.00000000E+00  0.00000000E+00
  0.00000000E+00  0.00000000E+00  0.00000000E+00
  0.00000000E+00  0.00000000E+00  0.00000000E+00
  0.00000000E+00  0.00000000E+00  0.00000000E+00
  0.00000000E+00  0.00000000E+00  0.00000000E+00
  0.00000000E+00  0.00000000E+00  0.00000000E+00
  0.00000000E+00  0.00000000E+00  0.00000000E+00
  0.00000000E+00  0.00000000E+00  0.00000000E+00
  0.00000000E+00  0.00000000E+00  0.00000000E+00
  0.00000000E+00  0.00000000E+00  0.00000000E+00
  0.00000000E+00  0.00000000E+00  0.00000000E+00
  0.00000000E+00  0.00000000E+00  0.00000000E+00
  0.00000000E+00  0.00000000E+00  0.00000000E+00
  0.00000000E+00  0.00000000E+00  0.00000000E+00
  0.00000000E+00  0.00000000E+00  0.00000000E+00
  0.00000000E+00  0.00000000E+00  0.00000000E+00
  0.00000000E+00  0.00000000E+00  0.00000000E+00
  0.00000000E+00  0.00000000E+00  0.00000000E+00
  0.00000000E+00  0.00000000E+00  0.00000000E+00
  0.00000000E+00  0.00000000E+00  0.00000000E+00
  0.00000000E+00  0.00000000E+00  0.00000000E+00
  0.00000000E+00  0.00000000E+00  0.00000000E+00
  0.00000000E+00  0.00000000E+00  0.00000000E+00
  0.00000000E+00  0.00000000E+00  0.00000000E+00
  0.00000000E+00  0.00000000E+00  0.00000000E+00
  0.00000000E+00  0.00000000E+00  0.00000000E+00
  0.00000000E+00  0.00000000E+00  0.00000000E+00
  0.00000000E+00  0.00000000E+00  0.00000000E+00
  0.00000000E+00  0.00000000E+00  0.00000000E+00
  0.00000000E+00  0.00000000E+00  0.00000000E+00
  0.00000000E+00  0.00000000E+00  0.00000000E+00
  0.00000000E+00  0.00000000E+00  0.00000000E+00
  0.00000000E+00  0.00000000E+00  0.00000000E+00
  0.00000000E+00  0.00000000E+00  0.00000000E+00
  0.00000000E+00  0.00000000E+00  0.00000000E+00
  0.00000000E+00  0.00000000E+00  0.00000000E+00
  0.00000000E+00  0.00000000E+00  0.00000000E+00
  0.00000000E+00  0.00000000E+00  0.00000000E+00
  0.00000000E+00  0.00000000E+00  0.00000000E+00
  0.00000000E+00  0.00000000E+00  0.00000000E+00
  0.00000000E+00  0.00000000E+00  0.00000000E+00
  0.00000000E+00  0.00000000E+00  0.00000000E+00
  0.00000000E+00  0.00000000E+00  0.00000000E+00
  0.00000000E+00  0.00000000E+00  0.00000000E+00
  0.00000000E+00  0.00000000E+00  0.00000000E+00
  0.00000000E+00  0.00000000E+00  0.00000000E+00
  0.00000000E+00  0.00000000E+00  0.00000000E+00
  0.00000000E+00  0.00000000E+00  0.00000000E+00
  0.00000000E+00  0.00000000E+00  0.00000000E+00
  0.00000000E+00  0.00000000E+00  0.00000000E+00
  0.00000000E+00  0.00000000E+00  0.00000000E+00
  0.00000000E+00  0.00000000E+00  0.00000000E+00
  0.00000000E+00  0.00000000E+00  0.00000000E+00
  0.00000000E+00  0.00000000E+00  0.00000000E+00
  0.00000000E+00  0.00000000E+00  0.00000000E+00
  0.00000000E+00  0.00000000E+00  0.00000000E+00
  0.00000000E+00  0.00000000E+00  0.00000000E+00
