Ir  C  H Cl                             
    1.000000000000000     
    10.9622135000000007    0.0000000000000000    0.0000000000000000
     0.0000000000000000   15.5029109999999992    0.0000000000000000
     0.0000000000000000    0.0000000000000000   22.1108300437499992
   Ir   C    H    Cl
    64     6     2     4
Selective dynamics
Direct
  0.2499999995438884  0.0000000000000000  0.3392002916742598   F   F   F
  0.9999999981755536  0.4999999993549622  0.3392002916742598   F   F   F
  0.2499999995438884  0.2499999993549622  0.3392002916742598   F   F   F
  0.2499999995438884  0.4999999993549622  0.3392002916742598   F   F   F
  0.2499999995438884  0.7499999987099173  0.3392002916742598   F   F   F
  0.4999999990877768  0.0000000000000000  0.3392002916742598   F   F   F
  0.4999999990877768  0.2499999993549622  0.3392002916742598   F   F   F
  0.4999999990877768  0.4999999993549622  0.3392002916742598   F   F   F
  0.4999999990877768  0.7499999987099173  0.3392002916742598   F   F   F
  0.7499999986316652  0.0000000000000000  0.3392002916742598   F   F   F
  0.7499999986316652  0.2499999993549622  0.3392002916742598   F   F   F
  0.7499999986316652  0.4999999993549622  0.3392002916742598   F   F   F
  0.0000000000000000  0.0000000000000000  0.3392002916742598   F   F   F
  0.9999999981755536  0.2499999993549622  0.3392002916742598   F   F   F
  0.9999999981755536  0.7499999987099173  0.3392002916742598   F   F   F
  0.7499999986316652  0.7499999987099173  0.3392002916742598   F   F   F
  0.2501173308463041  0.0000644569411305  0.4632662779688320   T   T   T
  0.2495137109296851  0.2503107006819037  0.4631029255506403   T   T   T
  0.2496962023635155  0.4996714834536498  0.4606987208562900   T   T   T
  0.2530026499629904  0.7482844729338888  0.4636719193582129   T   T   T
  0.5000112274731288 -0.0000375707625312  0.4631552300265839   T   T   T
  0.4990155778908634  0.2508557451424718  0.4627834786079266   T   T   T
  0.4999797928605904  0.4999718839347724  0.4577517709015426   T   T   T
  0.5010187862536142  0.7489840993739703  0.4628491696059004   T   T   T
  0.7499010703870390  0.9998956522285957  0.4632713844628860   T   T   T
  0.7471834552062151  0.2515466955416611  0.4634267843155389   T   T   T
  0.7506175979627409  0.5003646600896251  0.4603793904854993   T   T   T
  0.7505559893259862  0.7497201899203931  0.4630209546029630   T   T   T
 -0.0000049396526848  0.9999706933364848  0.4633147421668882   T   T   T
  0.9977387590968041  0.2510867940396706  0.4633592088450114   T   T   T
 -0.0000226397901614  0.5000141565837434  0.4639149346330090   T   T   T
  0.0023192352035493  0.7490866953511428  0.4632083572219531   T   T   T
  0.1246702573746746  0.1256857187152404  0.5199153334564680   T   T   T
  0.1195686040668783  0.3749255500347310  0.5198660994954543   T   T   T
  0.1321466357733279  0.6226758561944249  0.5223051177177040   T   T   T
  0.1251177238391958  0.8743325128853926  0.5199115895706424   T   T   T
  0.3752429347158580  0.1254114371625289  0.5200732069268176   T   T   T
  0.3643012715974803  0.3749812094284191  0.5210951294622437   T   T   T
  0.3874166044491866  0.6138539820831583  0.5251451512687582   T   T   T
  0.3749843937335564  0.8741407055263991  0.5197364754598208   T   T   T
  0.6249640727738850  0.1257555457632289  0.5197642612534898   T   T   T
  0.6131509896454274  0.3856112761219379  0.5246526640347510   T   T   T
  0.6362715522743236  0.6250143956279678  0.5209867047247935   T   T   T
  0.6247064154003695  0.8744960594734492  0.5200537389820755   T   T   T
  0.8748605015791079  0.1256062023392276  0.5198649062717139   T   T   T
  0.8673551537727139  0.3774962938402157  0.5227594048582529   T   T   T
  0.8809306608647497  0.6252620091394600  0.5197711237817781   T   T   T
  0.8752091133682086  0.8742317705007867  0.5199071423702318   T   T   T
  0.1249999993158326  0.1249999996774775  0.4011733916681877   F   F   F
  0.1249999993158326  0.3749999996774775  0.4011733916681877   F   F   F
  0.1250000002280558  0.6249999990324397  0.4011733916681877   F   F   F
  0.1250000002280558  0.8749999983874019  0.4011733916681877   F   F   F
  0.3749999988597210  0.1249999996774775  0.4011733916681877   F   F   F
  0.3749999997719442  0.3749999996774775  0.4011733916681877   F   F   F
  0.3749999997719442  0.6249999990324397  0.4011733916681877   F   F   F
  0.3749999997719442  0.8749999983874019  0.4011733916681877   F   F   F
  0.6249999993158326  0.1249999996774775  0.4011733916681877   F   F   F
  0.6249999984036094  0.3749999996774775  0.4011733916681877   F   F   F
  0.6249999993158326  0.6249999990324397  0.4011733916681877   F   F   F
  0.6249999993158326  0.8749999983874019  0.4011733916681877   F   F   F
  0.8749999979474978  0.1249999996774775  0.4011733916681877   F   F   F
  0.8749999988597210  0.3749999996774775  0.4011733916681877   F   F   F
  0.8749999988597210  0.6249999990324397  0.4011733916681877   F   F   F
  0.8749999988597210  0.8749999983874019  0.4011733916681877   F   F   F
  0.6037043552493706  0.5637763917067123  0.6035943418653643   T   T   T
  0.6294110043750591  0.4674030656054325  0.6000421568792867   T   T   T
  0.5318569299779031  0.4057020651936197  0.6113804290000052   T   T   T
  0.4002060708099794  0.4347642131184661  0.6039693037322527   T   T   T
  0.3740552010100825  0.5312080923970601  0.6010185855789898   T   T   T
  0.4722051890191024  0.5929421848784427  0.6114593661486025   T   T   T
  0.6619505481961689  0.5931530457651248  0.6383841291737092   T   T   T
  0.3423870149006337  0.4049438663746467  0.6387638463957392   T   T   T
  0.7870492566899648  0.4438677028506304  0.6248952533917090   T   T   T
  0.5509893348493288  0.3205523164087561  0.6630848765939809   T   T   T
  0.2197342359618837  0.5541338479860218  0.6276133130358528   T   T   T
  0.4545476954723793  0.6787475046303457  0.6629801127460607   T   T   T
 
  0.00000000E+00  0.00000000E+00  0.00000000E+00
  0.00000000E+00  0.00000000E+00  0.00000000E+00
  0.00000000E+00  0.00000000E+00  0.00000000E+00
  0.00000000E+00  0.00000000E+00  0.00000000E+00
  0.00000000E+00  0.00000000E+00  0.00000000E+00
  0.00000000E+00  0.00000000E+00  0.00000000E+00
  0.00000000E+00  0.00000000E+00  0.00000000E+00
  0.00000000E+00  0.00000000E+00  0.00000000E+00
  0.00000000E+00  0.00000000E+00  0.00000000E+00
  0.00000000E+00  0.00000000E+00  0.00000000E+00
  0.00000000E+00  0.00000000E+00  0.00000000E+00
  0.00000000E+00  0.00000000E+00  0.00000000E+00
  0.00000000E+00  0.00000000E+00  0.00000000E+00
  0.00000000E+00  0.00000000E+00  0.00000000E+00
  0.00000000E+00  0.00000000E+00  0.00000000E+00
  0.00000000E+00  0.00000000E+00  0.00000000E+00
  0.00000000E+00  0.00000000E+00  0.00000000E+00
  0.00000000E+00  0.00000000E+00  0.00000000E+00
  0.00000000E+00  0.00000000E+00  0.00000000E+00
  0.00000000E+00  0.00000000E+00  0.00000000E+00
  0.00000000E+00  0.00000000E+00  0.00000000E+00
  0.00000000E+00  0.00000000E+00  0.00000000E+00
  0.00000000E+00  0.00000000E+00  0.00000000E+00
  0.00000000E+00  0.00000000E+00  0.00000000E+00
  0.00000000E+00  0.00000000E+00  0.00000000E+00
  0.00000000E+00  0.00000000E+00  0.00000000E+00
  0.00000000E+00  0.00000000E+00  0.00000000E+00
  0.00000000E+00  0.00000000E+00  0.00000000E+00
  0.00000000E+00  0.00000000E+00  0.00000000E+00
  0.00000000E+00  0.00000000E+00  0.00000000E+00
  0.00000000E+00  0.00000000E+00  0.00000000E+00
  0.00000000E+00  0.00000000E+00  0.00000000E+00
  0.00000000E+00  0.00000000E+00  0.00000000E+00
  0.00000000E+00  0.00000000E+00  0.00000000E+00
  0.00000000E+00  0.00000000E+00  0.00000000E+00
  0.00000000E+00  0.00000000E+00  0.00000000E+00
  0.00000000E+00  0.00000000E+00  0.00000000E+00
  0.00000000E+00  0.00000000E+00  0.00000000E+00
  0.00000000E+00  0.00000000E+00  0.00000000E+00
  0.00000000E+00  0.00000000E+00  0.00000000E+00
  0.00000000E+00  0.00000000E+00  0.00000000E+00
  0.00000000E+00  0.00000000E+00  0.00000000E+00
  0.00000000E+00  0.00000000E+00  0.00000000E+00
  0.00000000E+00  0.00000000E+00  0.00000000E+00
  0.00000000E+00  0.00000000E+00  0.00000000E+00
  0.00000000E+00  0.00000000E+00  0.00000000E+00
  0.00000000E+00  0.00000000E+00  0.00000000E+00
  0.00000000E+00  0.00000000E+00  0.00000000E+00
  0.00000000E+00  0.00000000E+00  0.00000000E+00
  0.00000000E+00  0.00000000E+00  0.00000000E+00
  0.00000000E+00  0.00000000E+00  0.00000000E+00
  0.00000000E+00  0.00000000E+00  0.00000000E+00
  0.00000000E+00  0.00000000E+00  0.00000000E+00
  0.00000000E+00  0.00000000E+00  0.00000000E+00
  0.00000000E+00  0.00000000E+00  0.00000000E+00
  0.00000000E+00  0.00000000E+00  0.00000000E+00
  0.00000000E+00  0.00000000E+00  0.00000000E+00
  0.00000000E+00  0.00000000E+00  0.00000000E+00
  0.00000000E+00  0.00000000E+00  0.00000000E+00
  0.00000000E+00  0.00000000E+00  0.00000000E+00
  0.00000000E+00  0.00000000E+00  0.00000000E+00
  0.00000000E+00  0.00000000E+00  0.00000000E+00
  0.00000000E+00  0.00000000E+00  0.00000000E+00
  0.00000000E+00  0.00000000E+00  0.00000000E+00
  0.00000000E+00  0.00000000E+00  0.00000000E+00
  0.00000000E+00  0.00000000E+00  0.00000000E+00
  0.00000000E+00  0.00000000E+00  0.00000000E+00
  0.00000000E+00  0.00000000E+00  0.00000000E+00
  0.00000000E+00  0.00000000E+00  0.00000000E+00
  0.00000000E+00  0.00000000E+00  0.00000000E+00
  0.00000000E+00  0.00000000E+00  0.00000000E+00
  0.00000000E+00  0.00000000E+00  0.00000000E+00
  0.00000000E+00  0.00000000E+00  0.00000000E+00
  0.00000000E+00  0.00000000E+00  0.00000000E+00
  0.00000000E+00  0.00000000E+00  0.00000000E+00
  0.00000000E+00  0.00000000E+00  0.00000000E+00
