Rh48 C6 H2 Br4                          
    1.000000000000000     
    10.8856652999999994    0.0000000000000000    0.0000000000000000
     0.0000000000000000   15.3946555000000007    0.0000000000000000
     0.0000000000000000    0.0000000000000000   15.4515069700000005
   Rh   C    H    Br
    48     6     2     4
Selective dynamics
Direct
  0.2500150605659002  0.2513532787045918  0.4051195451130312   T   T   T
  0.2479379595031261  0.5001948063780546  0.4027147896517320   T   T   T
  0.2496726231102784  0.7496790573341769  0.4034235925184007   T   T   T
  0.2495922185332589  0.9991922802813420  0.4020924704447992   T   T   T
  0.5000274641475997  0.2502536982817887  0.4045339636529306   T   T   T
  0.4998905408167857  0.4999707754977862  0.3987826557987972   T   T   T
  0.4999874855722908  0.7497028555058094  0.4046054429553294   T   T   T
  0.4999693508355563  0.0000117098225161  0.4034091883984985   T   T   T
  0.7502270993537934  0.2502692309979651  0.4033758566474930   T   T   T
  0.7518838267100563  0.4997893718095625  0.4028494899230637   T   T   T
  0.7498623659967265  0.7486244936115583  0.4051590124068341   T   T   T
  0.7503406209452947  0.0008022379779788  0.4021047690150041   T   T   T
  0.0001286121849091  0.2499268221393862  0.4031339112755674   T   T   T
  0.9999598011413937  0.5000037202723320  0.4010108610365180   T   T   T
  0.9997445219383536  0.7500625645120635  0.4032044216626787   T   T   T
  0.9999671787076352  0.9999949740419893  0.4013331636913762   T   T   T
  0.1257600849130469  0.1246080035834680  0.4814497489676555   T   T   T
  0.1223650107176439  0.3752910051542955  0.4846031772978563   T   T   T
  0.1222172385695259  0.6251526956033118  0.4844972540056531   T   T   T
  0.1234897087246623  0.8747404271586916  0.4845605641456245   T   T   T
  0.3740780176642104  0.1246781012570537  0.4813308783818968   T   T   T
  0.3706996095292254  0.3775585135177124  0.4863754859646150   T   T   T
  0.3706543608663679  0.6237448017838574  0.4857397335631788   T   T   T
  0.3757679316617271  0.8751266439957703  0.4844737413278679   T   T   T
  0.6241438678308953  0.1248368169768028  0.4844584295255103   T   T   T
  0.6292095164670215  0.3762229037292002  0.4857184352026849   T   T   T
  0.6290509610161337  0.6223014559387039  0.4864220534682815   T   T   T
  0.6258004480730435  0.8753331527663732  0.4813508062059384   T   T   T
  0.8763797940641567  0.1252237791746964  0.4845546669232377   T   T   T
  0.8775001848439246  0.3748743301117585  0.4844520233903395   T   T   T
  0.8773869558061094  0.6246477016558600  0.4845949969338434   T   T   T
  0.8740890046092602  0.8753756507296799  0.4814243058938459   T   T   T
  0.1249999997703384  0.1250000001623945  0.3235930326865741   F   F   F
  0.1249999997703384  0.3750000004871836  0.3235930326865741   F   F   F
  0.1250000006889778  0.6250000014615438  0.3235930326865741   F   F   F
  0.1250000006889778  0.8750000017863329  0.3235930326865741   F   F   F
  0.3750000002296616  0.1250000001623945  0.3235930326865741   F   F   F
  0.3750000002296616  0.3750000004871836  0.3235930326865741   F   F   F
  0.3750000011483010  0.6250000014615438  0.3235930326865741   F   F   F
  0.3750000011483010  0.8750000017863329  0.3235930326865741   F   F   F
  0.6250000006889778  0.1250000001623945  0.3235930326865741   F   F   F
  0.6250000006889778  0.3750000004871836  0.3235930326865741   F   F   F
  0.6250000006889778  0.6250000014615438  0.3235930326865741   F   F   F
  0.6250000006889778  0.8750000017863329  0.3235930326865741   F   F   F
  0.8750000011483010  0.1250000001623945  0.3235930326865741   F   F   F
  0.8750000011483010  0.3750000004871836  0.3235930326865741   F   F   F
  0.8750000020669404  0.6250000014615438  0.3235930326865741   F   F   F
  0.8750000011483010  0.8750000017863329  0.3235930326865741   F   F   F
  0.4967173551565125  0.4046377778431278  0.6030416334317081   T   T   T
  0.3875902640348201  0.4571294978069531  0.5851578102319053   T   T   T
  0.3891242384316769  0.5452819540329017  0.5846399029019906   T   T   T
  0.5010486095273023  0.5951931914144737  0.6029395784065414   T   T   T
  0.6100549046243415  0.5426702423167669  0.5849539929835430   T   T   T
  0.6085823151231651  0.4544896861781922  0.5845682165265984   T   T   T
  0.4955163507989511  0.3471970996149025  0.6443344076365420   T   T   T
  0.5022706519313971  0.6524493899525723  0.6444413004011693   T   T   T
  0.9999254846213788  0.3671534327707562  0.6214088839119256   T   T   T
  0.2502171808538094  0.8780176196594738  0.6200504848082176   T   T   T
  0.9995070871874532  0.6325408562623593  0.6214244298059555   T   T   T
  0.7496120628518383  0.1223458825416373  0.6200628868118585   T   T   T
 
  0.00000000E+00  0.00000000E+00  0.00000000E+00
  0.00000000E+00  0.00000000E+00  0.00000000E+00
  0.00000000E+00  0.00000000E+00  0.00000000E+00
  0.00000000E+00  0.00000000E+00  0.00000000E+00
  0.00000000E+00  0.00000000E+00  0.00000000E+00
  0.00000000E+00  0.00000000E+00  0.00000000E+00
  0.00000000E+00  0.00000000E+00  0.00000000E+00
  0.00000000E+00  0.00000000E+00  0.00000000E+00
  0.00000000E+00  0.00000000E+00  0.00000000E+00
  0.00000000E+00  0.00000000E+00  0.00000000E+00
  0.00000000E+00  0.00000000E+00  0.00000000E+00
  0.00000000E+00  0.00000000E+00  0.00000000E+00
  0.00000000E+00  0.00000000E+00  0.00000000E+00
  0.00000000E+00  0.00000000E+00  0.00000000E+00
  0.00000000E+00  0.00000000E+00  0.00000000E+00
  0.00000000E+00  0.00000000E+00  0.00000000E+00
  0.00000000E+00  0.00000000E+00  0.00000000E+00
  0.00000000E+00  0.00000000E+00  0.00000000E+00
  0.00000000E+00  0.00000000E+00  0.00000000E+00
  0.00000000E+00  0.00000000E+00  0.00000000E+00
  0.00000000E+00  0.00000000E+00  0.00000000E+00
  0.00000000E+00  0.00000000E+00  0.00000000E+00
  0.00000000E+00  0.00000000E+00  0.00000000E+00
  0.00000000E+00  0.00000000E+00  0.00000000E+00
  0.00000000E+00  0.00000000E+00  0.00000000E+00
  0.00000000E+00  0.00000000E+00  0.00000000E+00
  0.00000000E+00  0.00000000E+00  0.00000000E+00
  0.00000000E+00  0.00000000E+00  0.00000000E+00
  0.00000000E+00  0.00000000E+00  0.00000000E+00
  0.00000000E+00  0.00000000E+00  0.00000000E+00
  0.00000000E+00  0.00000000E+00  0.00000000E+00
  0.00000000E+00  0.00000000E+00  0.00000000E+00
  0.00000000E+00  0.00000000E+00  0.00000000E+00
  0.00000000E+00  0.00000000E+00  0.00000000E+00
  0.00000000E+00  0.00000000E+00  0.00000000E+00
  0.00000000E+00  0.00000000E+00  0.00000000E+00
  0.00000000E+00  0.00000000E+00  0.00000000E+00
  0.00000000E+00  0.00000000E+00  0.00000000E+00
  0.00000000E+00  0.00000000E+00  0.00000000E+00
  0.00000000E+00  0.00000000E+00  0.00000000E+00
  0.00000000E+00  0.00000000E+00  0.00000000E+00
  0.00000000E+00  0.00000000E+00  0.00000000E+00
  0.00000000E+00  0.00000000E+00  0.00000000E+00
  0.00000000E+00  0.00000000E+00  0.00000000E+00
  0.00000000E+00  0.00000000E+00  0.00000000E+00
  0.00000000E+00  0.00000000E+00  0.00000000E+00
  0.00000000E+00  0.00000000E+00  0.00000000E+00
  0.00000000E+00  0.00000000E+00  0.00000000E+00
  0.00000000E+00  0.00000000E+00  0.00000000E+00
  0.00000000E+00  0.00000000E+00  0.00000000E+00
  0.00000000E+00  0.00000000E+00  0.00000000E+00
  0.00000000E+00  0.00000000E+00  0.00000000E+00
  0.00000000E+00  0.00000000E+00  0.00000000E+00
  0.00000000E+00  0.00000000E+00  0.00000000E+00
  0.00000000E+00  0.00000000E+00  0.00000000E+00
  0.00000000E+00  0.00000000E+00  0.00000000E+00
  0.00000000E+00  0.00000000E+00  0.00000000E+00
  0.00000000E+00  0.00000000E+00  0.00000000E+00
  0.00000000E+00  0.00000000E+00  0.00000000E+00
  0.00000000E+00  0.00000000E+00  0.00000000E+00
