Rh48 C6 F2 H4                           
    1.000000000000000     
    10.8856652999999994    0.0000000000000000    0.0000000000000000
     0.0000000000000000   15.3946555000000007    0.0000000000000000
     0.0000000000000000    0.0000000000000000   15.4470210800000007
   Rh   C    F    H 
    48     6     2     4
Selective dynamics
Direct
  0.2515221108764507  0.2514174486458529  0.4036919659518645   T   T   T
  0.2487038542354938  0.5000759641535950  0.4035315604298972   T   T   T
  0.2501081287024789  0.7490611465342099  0.4040752606404681   T   T   T
  0.2502394285321685  0.9999521746590077  0.4030316379338572   T   T   T
  0.5002465893943580  0.2516486514870380  0.4045904503860598   T   T   T
  0.4999685518381582  0.4999909812095993  0.3998232884377444   T   T   T
  0.4997101925794567  0.7483050639361366  0.4046476814827216   T   T   T
  0.5000027289139553  0.0000050905737154  0.4047257742723858   T   T   T
  0.7499217483663827  0.2509110418747298  0.4040582292609898   T   T   T
  0.7512984401711904  0.4998850835375350  0.4035460235696959   T   T   T
  0.7484782886105279  0.7485768911519557  0.4037179009427803   T   T   T
  0.7497599976415188  0.0000487128081232  0.4030311713663153   T   T   T
  0.0007025632894653  0.2501710137702631  0.4031375927773695   T   T   T
  0.9999915552911673  0.4999811270790815  0.4027645641966444   T   T   T
  0.9992934638407647  0.7498318228172494  0.4031574572499537   T   T   T
  0.9999991990176227  0.9999879440385229  0.4007608414523460   T   T   T
  0.1253429396009054  0.1250689597584795  0.4820202276214758   T   T   T
  0.1257653177677085  0.3754632906525046  0.4823143215545258   T   T   T
  0.1229962190216440  0.6252770391549447  0.4818609426808464   T   T   T
  0.1247928700036667  0.8751741190814784  0.4820294094572617   T   T   T
  0.3751239540875559  0.1254989156744699  0.4819839913533812   T   T   T
  0.3800743875861698  0.3824894671155405  0.4868772621538753   T   T   T
  0.3725307344422077  0.6220906892975222  0.4852561822470918   T   T   T
  0.3749063905123364  0.8744766106737814  0.4819413333028777   T   T   T
  0.6251063279260478  0.1255136298866191  0.4819509619440012   T   T   T
  0.6274752961798455  0.3778155660282820  0.4852477488697957   T   T   T
  0.6198782668425551  0.6173796019207671  0.4869536618705794   T   T   T
  0.6248843276478055  0.8744936438059483  0.4820157572377823   T   T   T
  0.8752018536254624  0.1247949238932975  0.4820273221244165   T   T   T
  0.8769944516559391  0.3747194881250238  0.4818115409895469   T   T   T
  0.8742107158183003  0.6245147791129000  0.4823025455112457   T   T   T
  0.8746488490527469  0.8748989060919001  0.4820103669837650   T   T   T
  0.1249999997703384  0.1250000001623945  0.3236870056760495   F   F   F
  0.1249999997703384  0.3750000004871836  0.3236870056760495   F   F   F
  0.1250000006889778  0.6250000014615438  0.3236870056760495   F   F   F
  0.1250000006889778  0.8750000017863329  0.3236870056760495   F   F   F
  0.3750000002296616  0.1250000001623945  0.3236870056760495   F   F   F
  0.3750000002296616  0.3750000004871836  0.3236870056760495   F   F   F
  0.3750000011483010  0.6250000014615438  0.3236870056760495   F   F   F
  0.3750000011483010  0.8750000017863329  0.3236870056760495   F   F   F
  0.6250000006889778  0.1250000001623945  0.3236870056760495   F   F   F
  0.6250000006889778  0.3750000004871836  0.3236870056760495   F   F   F
  0.6250000006889778  0.6250000014615438  0.3236870056760495   F   F   F
  0.6250000006889778  0.8750000017863329  0.3236870056760495   F   F   F
  0.8750000011483010  0.1250000001623945  0.3236870056760495   F   F   F
  0.8750000011483010  0.3750000004871836  0.3236870056760495   F   F   F
  0.8750000020669404  0.6250000014615438  0.3236870056760495   F   F   F
  0.8750000011483010  0.8750000017863329  0.3236870056760495   F   F   F
  0.3815822900698933  0.4554458567780415  0.6020678436523639   T   T   T
  0.3863235514200980  0.5514918568483509  0.6031443896438091   T   T   T
  0.5056383968847271  0.5944013225714286  0.6096196183919034   T   T   T
  0.6181828483459171  0.5444049277047469  0.6021110496600741   T   T   T
  0.6134813470290084  0.4483641342441089  0.6031585658500447   T   T   T
  0.4941211896731588  0.4053435428027754  0.6095311329880602   T   T   T
  0.2833472821874850  0.4246851278976465  0.6531520247287546   T   T   T
  0.7162764782377735  0.5749909198201948  0.6532733454688611   T   T   T
  0.3130372292868984  0.5789734133449471  0.6433282798937086   T   T   T
  0.5102037637904147  0.6554242765994331  0.6453841176443476   T   T   T
  0.6866890595977324  0.4207236792992575  0.6433575858048570   T   T   T
  0.4895190165581482  0.3442025392893129  0.6452843631466649   T   T   T
 
  0.00000000E+00  0.00000000E+00  0.00000000E+00
  0.00000000E+00  0.00000000E+00  0.00000000E+00
  0.00000000E+00  0.00000000E+00  0.00000000E+00
  0.00000000E+00  0.00000000E+00  0.00000000E+00
  0.00000000E+00  0.00000000E+00  0.00000000E+00
  0.00000000E+00  0.00000000E+00  0.00000000E+00
  0.00000000E+00  0.00000000E+00  0.00000000E+00
  0.00000000E+00  0.00000000E+00  0.00000000E+00
  0.00000000E+00  0.00000000E+00  0.00000000E+00
  0.00000000E+00  0.00000000E+00  0.00000000E+00
  0.00000000E+00  0.00000000E+00  0.00000000E+00
  0.00000000E+00  0.00000000E+00  0.00000000E+00
  0.00000000E+00  0.00000000E+00  0.00000000E+00
  0.00000000E+00  0.00000000E+00  0.00000000E+00
  0.00000000E+00  0.00000000E+00  0.00000000E+00
  0.00000000E+00  0.00000000E+00  0.00000000E+00
  0.00000000E+00  0.00000000E+00  0.00000000E+00
  0.00000000E+00  0.00000000E+00  0.00000000E+00
  0.00000000E+00  0.00000000E+00  0.00000000E+00
  0.00000000E+00  0.00000000E+00  0.00000000E+00
  0.00000000E+00  0.00000000E+00  0.00000000E+00
  0.00000000E+00  0.00000000E+00  0.00000000E+00
  0.00000000E+00  0.00000000E+00  0.00000000E+00
  0.00000000E+00  0.00000000E+00  0.00000000E+00
  0.00000000E+00  0.00000000E+00  0.00000000E+00
  0.00000000E+00  0.00000000E+00  0.00000000E+00
  0.00000000E+00  0.00000000E+00  0.00000000E+00
  0.00000000E+00  0.00000000E+00  0.00000000E+00
  0.00000000E+00  0.00000000E+00  0.00000000E+00
  0.00000000E+00  0.00000000E+00  0.00000000E+00
  0.00000000E+00  0.00000000E+00  0.00000000E+00
  0.00000000E+00  0.00000000E+00  0.00000000E+00
  0.00000000E+00  0.00000000E+00  0.00000000E+00
  0.00000000E+00  0.00000000E+00  0.00000000E+00
  0.00000000E+00  0.00000000E+00  0.00000000E+00
  0.00000000E+00  0.00000000E+00  0.00000000E+00
  0.00000000E+00  0.00000000E+00  0.00000000E+00
  0.00000000E+00  0.00000000E+00  0.00000000E+00
  0.00000000E+00  0.00000000E+00  0.00000000E+00
  0.00000000E+00  0.00000000E+00  0.00000000E+00
  0.00000000E+00  0.00000000E+00  0.00000000E+00
  0.00000000E+00  0.00000000E+00  0.00000000E+00
  0.00000000E+00  0.00000000E+00  0.00000000E+00
  0.00000000E+00  0.00000000E+00  0.00000000E+00
  0.00000000E+00  0.00000000E+00  0.00000000E+00
  0.00000000E+00  0.00000000E+00  0.00000000E+00
  0.00000000E+00  0.00000000E+00  0.00000000E+00
  0.00000000E+00  0.00000000E+00  0.00000000E+00
  0.00000000E+00  0.00000000E+00  0.00000000E+00
  0.00000000E+00  0.00000000E+00  0.00000000E+00
  0.00000000E+00  0.00000000E+00  0.00000000E+00
  0.00000000E+00  0.00000000E+00  0.00000000E+00
  0.00000000E+00  0.00000000E+00  0.00000000E+00
  0.00000000E+00  0.00000000E+00  0.00000000E+00
  0.00000000E+00  0.00000000E+00  0.00000000E+00
  0.00000000E+00  0.00000000E+00  0.00000000E+00
  0.00000000E+00  0.00000000E+00  0.00000000E+00
  0.00000000E+00  0.00000000E+00  0.00000000E+00
  0.00000000E+00  0.00000000E+00  0.00000000E+00
  0.00000000E+00  0.00000000E+00  0.00000000E+00
