Ag  C  H  F                             
    1.000000000000000     
    11.7702790000000004    0.0000000000000000    0.0000000000000000
     0.0000000000000000   16.6456881000000010    0.0000000000000000
     0.0000000000000000    0.0000000000000000   22.4138546100000013
   Ag   C    H    F 
    64     6     4     2
Selective dynamics
Direct
  0.0000000000000000  0.2500000003003748  0.3346144663869595   F   F   F
  0.7499999974512050  0.7500000015018884  0.3346144663869595   F   F   F
  0.0000000000000000  0.5000000012015136  0.3346144663869595   F   F   F
  0.0000000000000000  0.7500000015018884  0.3346144663869595   F   F   F
  0.0000000000000000  0.0000000000000000  0.3346144663869595   F   F   F
  0.2499999991504041  0.2500000003003748  0.3346144663869595   F   F   F
  0.2499999991504041  0.5000000012015136  0.3346144663869595   F   F   F
  0.7499999974512050  0.0000000000000000  0.3346144663869595   F   F   F
  0.2499999991504041  0.7500000015018884  0.3346144663869595   F   F   F
  0.2499999991504041  0.0000000000000000  0.3346144663869595   F   F   F
  0.4999999983008081  0.2500000003003748  0.3346144663869595   F   F   F
  0.4999999983008081  0.5000000012015136  0.3346144663869595   F   F   F
  0.4999999983008081  0.7500000015018884  0.3346144663869595   F   F   F
  0.4999999983008081  0.0000000000000000  0.3346144663869595   F   F   F
  0.7499999974512050  0.2500000003003748  0.3346144663869595   F   F   F
  0.7499999974512050  0.5000000012015136  0.3346144663869595   F   F   F
 -0.0000969178124585  0.2500060474780218  0.4627488170485625   T   T   T
  0.0000005515655263  0.4999999477124209  0.4628638102636872   T   T   T
  0.0000978506148601  0.7499926205837592  0.4627486059323733   T   T   T
  0.0000007837762322 -0.0000003993891064  0.4627962874793595   T   T   T
  0.2498542661289734  0.2499263184890733  0.4626559517472860   T   T   T
  0.2499733320501806  0.5000236580987776  0.4627711515963996   T   T   T
  0.2502293656871310  0.7497595363538021  0.4629675677364732   T   T   T
  0.2500057137101933  0.0000012310330650  0.4627320833761129   T   T   T
  0.5002381083185230  0.2501249773306894  0.4628076300677419   T   T   T
  0.5000009922627136  0.4999997628770395  0.4622537701091993   T   T   T
  0.4997653791003354  0.7498736033074553  0.4628096201526011   T   T   T
  0.5000011062734477 -0.0000006023044282  0.4627399870703084   T   T   T
  0.7497733671590224  0.2502394133904572  0.4629681831198962   T   T   T
  0.7500284307233457  0.4999763518457687  0.4627721838702509   T   T   T
  0.7501465973563138  0.7500714158005164  0.4626578943804457   T   T   T
  0.7499963361655310 -0.0000022388327016  0.4627321340058726   T   T   T
  0.1249020827064315  0.1249923491017615  0.5213553665954898   T   T   T
  0.1245151044969572  0.3750683148877924  0.5212778305092206   T   T   T
  0.1251574123231907  0.6249266400274335  0.5214160982082935   T   T   T
  0.1249854727508479  0.8749667741360443  0.5213524869691295   T   T   T
  0.3750621966691714  0.1250694851020326  0.5212999052967628   T   T   T
  0.3747963715715201  0.3748896237570995  0.5208497281516223   T   T   T
  0.3752642372318026  0.6243836266536174  0.5216853404080409   T   T   T
  0.3750045149855292  0.8749548613186575  0.5213359366246882   T   T   T
  0.6249982254362233  0.1250441881452301  0.5213362651768392   T   T   T
  0.6247397541175576  0.3756158098059871  0.5216841058129069   T   T   T
  0.6252044907701950  0.6251074594263146  0.5208539297169773   T   T   T
  0.6249405096724694  0.8749294419795242  0.5212994476401713   T   T   T
  0.8750168713481087  0.1250322533788802  0.5213519805800616   T   T   T
  0.8748449570184488  0.3750725678215194  0.5214161691236342   T   T   T
  0.8754852892663044  0.6249305841575705  0.5212779876861127   T   T   T
  0.8751000383756936  0.8750066457841458  0.5213557610101314   T   T   T
  0.1249999995752020  0.1250000004505694  0.4002562266107219   F   F   F
  0.1249999995752020  0.3750000007509442  0.4002562266107219   F   F   F
  0.1249999995752020  0.6250000016520829  0.4002562266107219   F   F   F
  0.1249999995752020  0.8750000019524578  0.4002562266107219   F   F   F
  0.3749999987256061  0.1250000004505694  0.4002562266107219   F   F   F
  0.3749999987256061  0.3750000007509442  0.4002562266107219   F   F   F
  0.3749999987256061  0.6250000016520829  0.4002562266107219   F   F   F
  0.3749999987256061  0.8750000019524578  0.4002562266107219   F   F   F
  0.6249999978760030  0.1250000004505694  0.4002562266107219   F   F   F
  0.6249999978760030  0.3750000007509442  0.4002562266107219   F   F   F
  0.6249999978760030  0.6250000016520829  0.4002562266107219   F   F   F
  0.6249999978760030  0.8750000019524578  0.4002562266107219   F   F   F
  0.8749999970264071  0.1250000004505694  0.4002562266107219   F   F   F
  0.8749999970264071  0.3750000007509442  0.4002562266107219   F   F   F
  0.8749999970264071  0.6250000016520829  0.4002562266107219   F   F   F
  0.8749999970264071  0.8750000019524578  0.4002562266107219   F   F   F
  0.4329430035649769  0.4331791152509776  0.6542140257883047   T   T   T
  0.3809302163883501  0.5080854033755366  0.6539590117277263   T   T   T
  0.4495711886001204  0.5767186103067957  0.6537145540166580   T   T   T
  0.5670764805262870  0.5668644476289261  0.6542545362972115   T   T   T
  0.6190878475766944  0.4919543013258901  0.6539704534807801   T   T   T
  0.5504461808831883  0.4233201069657199  0.6536849085083585   T   T   T
  0.2886034157724154  0.5125740576168955  0.6541787337392034   T   T   T
  0.4128599758795591  0.6368711483295807  0.6548609162564564   T   T   T
  0.7114080422717647  0.4874544568199947  0.6542133432904557   T   T   T
  0.5871553998130644  0.3631540165605102  0.6548107413318938   T   T   T
  0.3657785502311999  0.3660606940792384  0.6549984275227694   T   T   T
  0.6342383189036278  0.6339686778903294  0.6551078775708424   T   T   T
 
  0.00000000E+00  0.00000000E+00  0.00000000E+00
  0.00000000E+00  0.00000000E+00  0.00000000E+00
  0.00000000E+00  0.00000000E+00  0.00000000E+00
  0.00000000E+00  0.00000000E+00  0.00000000E+00
  0.00000000E+00  0.00000000E+00  0.00000000E+00
  0.00000000E+00  0.00000000E+00  0.00000000E+00
  0.00000000E+00  0.00000000E+00  0.00000000E+00
  0.00000000E+00  0.00000000E+00  0.00000000E+00
  0.00000000E+00  0.00000000E+00  0.00000000E+00
  0.00000000E+00  0.00000000E+00  0.00000000E+00
  0.00000000E+00  0.00000000E+00  0.00000000E+00
  0.00000000E+00  0.00000000E+00  0.00000000E+00
  0.00000000E+00  0.00000000E+00  0.00000000E+00
  0.00000000E+00  0.00000000E+00  0.00000000E+00
  0.00000000E+00  0.00000000E+00  0.00000000E+00
  0.00000000E+00  0.00000000E+00  0.00000000E+00
  0.00000000E+00  0.00000000E+00  0.00000000E+00
  0.00000000E+00  0.00000000E+00  0.00000000E+00
  0.00000000E+00  0.00000000E+00  0.00000000E+00
  0.00000000E+00  0.00000000E+00  0.00000000E+00
  0.00000000E+00  0.00000000E+00  0.00000000E+00
  0.00000000E+00  0.00000000E+00  0.00000000E+00
  0.00000000E+00  0.00000000E+00  0.00000000E+00
  0.00000000E+00  0.00000000E+00  0.00000000E+00
  0.00000000E+00  0.00000000E+00  0.00000000E+00
  0.00000000E+00  0.00000000E+00  0.00000000E+00
  0.00000000E+00  0.00000000E+00  0.00000000E+00
  0.00000000E+00  0.00000000E+00  0.00000000E+00
  0.00000000E+00  0.00000000E+00  0.00000000E+00
  0.00000000E+00  0.00000000E+00  0.00000000E+00
  0.00000000E+00  0.00000000E+00  0.00000000E+00
  0.00000000E+00  0.00000000E+00  0.00000000E+00
  0.00000000E+00  0.00000000E+00  0.00000000E+00
  0.00000000E+00  0.00000000E+00  0.00000000E+00
  0.00000000E+00  0.00000000E+00  0.00000000E+00
  0.00000000E+00  0.00000000E+00  0.00000000E+00
  0.00000000E+00  0.00000000E+00  0.00000000E+00
  0.00000000E+00  0.00000000E+00  0.00000000E+00
  0.00000000E+00  0.00000000E+00  0.00000000E+00
  0.00000000E+00  0.00000000E+00  0.00000000E+00
  0.00000000E+00  0.00000000E+00  0.00000000E+00
  0.00000000E+00  0.00000000E+00  0.00000000E+00
  0.00000000E+00  0.00000000E+00  0.00000000E+00
  0.00000000E+00  0.00000000E+00  0.00000000E+00
  0.00000000E+00  0.00000000E+00  0.00000000E+00
  0.00000000E+00  0.00000000E+00  0.00000000E+00
  0.00000000E+00  0.00000000E+00  0.00000000E+00
  0.00000000E+00  0.00000000E+00  0.00000000E+00
  0.00000000E+00  0.00000000E+00  0.00000000E+00
  0.00000000E+00  0.00000000E+00  0.00000000E+00
  0.00000000E+00  0.00000000E+00  0.00000000E+00
  0.00000000E+00  0.00000000E+00  0.00000000E+00
  0.00000000E+00  0.00000000E+00  0.00000000E+00
  0.00000000E+00  0.00000000E+00  0.00000000E+00
  0.00000000E+00  0.00000000E+00  0.00000000E+00
  0.00000000E+00  0.00000000E+00  0.00000000E+00
  0.00000000E+00  0.00000000E+00  0.00000000E+00
  0.00000000E+00  0.00000000E+00  0.00000000E+00
  0.00000000E+00  0.00000000E+00  0.00000000E+00
  0.00000000E+00  0.00000000E+00  0.00000000E+00
  0.00000000E+00  0.00000000E+00  0.00000000E+00
  0.00000000E+00  0.00000000E+00  0.00000000E+00
  0.00000000E+00  0.00000000E+00  0.00000000E+00
  0.00000000E+00  0.00000000E+00  0.00000000E+00
  0.00000000E+00  0.00000000E+00  0.00000000E+00
  0.00000000E+00  0.00000000E+00  0.00000000E+00
  0.00000000E+00  0.00000000E+00  0.00000000E+00
  0.00000000E+00  0.00000000E+00  0.00000000E+00
  0.00000000E+00  0.00000000E+00  0.00000000E+00
  0.00000000E+00  0.00000000E+00  0.00000000E+00
  0.00000000E+00  0.00000000E+00  0.00000000E+00
  0.00000000E+00  0.00000000E+00  0.00000000E+00
  0.00000000E+00  0.00000000E+00  0.00000000E+00
  0.00000000E+00  0.00000000E+00  0.00000000E+00
  0.00000000E+00  0.00000000E+00  0.00000000E+00
  0.00000000E+00  0.00000000E+00  0.00000000E+00
