Pt48 C6 Cl6                             
    1.000000000000000     
    11.2480069999999994    0.0000000000000000    0.0000000000000000
    -5.6240030000000001    9.7410599999999992    0.0000000000000000
     0.0000000000000000    0.0000000000000000   17.5931210000000000
   Pt   C    Cl
    48     6     6
Selective dynamics
Direct
  0.0833330000000032  0.1666669999999968  0.3410420000000016   F   F   F
  0.0833330000000032  0.4166669999999968  0.3410420000000016   F   F   F
  0.0833330000000032  0.6666669999999968  0.3410420000000016   F   F   F
  0.0833330000000032  0.9166669999999968  0.3410420000000016   F   F   F
  0.3333330000000032  0.1666669999999968  0.3410420000000016   F   F   F
  0.3333330000000032  0.4166669999999968  0.3410420000000016   F   F   F
  0.3333330000000032  0.6666669999999968  0.3410420000000016   F   F   F
  0.3333330000000032  0.9166669999999968  0.3410420000000016   F   F   F
  0.5833330000000032  0.1666669999999968  0.3410420000000016   F   F   F
  0.5833330000000032  0.4166669999999968  0.3410420000000016   F   F   F
  0.5833330000000032  0.6666669999999968  0.3410420000000016   F   F   F
  0.5833330000000032  0.9166669999999968  0.3410420000000016   F   F   F
  0.8333330000000032  0.1666669999999968  0.3410420000000016   F   F   F
  0.8333330000000032  0.4166669999999968  0.3410420000000016   F   F   F
  0.8333330000000032  0.6666669999999968  0.3410420000000016   F   F   F
  0.8333330000000032  0.9166669999999968  0.3410420000000016   F   F   F
  0.2498716152184457  0.2502369496116827  0.6059299364248290   T   T   T
  0.2496912528775610  0.5001872387801072  0.6062081285271006   T   T   T
  0.2497697092838322  0.7502053815849834  0.6059691360446422   T   T   T
  0.2498272985228098  0.0002158770088698  0.6058419155657475   T   T   T
  0.4997583677689050  0.2498221019525246  0.6061467443935555   T   T   T
  0.5001660747187202  0.5004479599341352  0.6045199443835756   T   T   T
  0.4995665127654689  0.7504740102948944  0.6044987808603111   T   T   T
  0.4998427610528609  0.0002660856572732  0.6059726599682378   T   T   T
  0.7500462439656843  0.2502215880147887  0.6059166361361505   T   T   T
  0.7499691945154154  0.5000538448907719  0.6045823110312085   T   T   T
  0.7495754702170601  0.7498637037552101  0.6045109442312864   T   T   T
  0.7498398403821795  0.0003408709423098  0.6062070320561048   T   T   T
  0.9998381051518805  0.2501850112447812  0.6057554926545379   T   T   T
  0.9997971585666932  0.4999767593942579  0.6059423195880242   T   T   T
  0.0002080947165766  0.7502695270454183  0.6061688890587789   T   T   T
  0.9997838155673691  0.0001624169950603  0.6059376969521324   T   T   T
  0.1664972080385851  0.0835109536001255  0.4733983417249448   T   T   T
  0.1665175206859715  0.3332405454679588  0.4733991999702596   T   T   T
  0.1666907712052605  0.5833456779469515  0.4735554426265054   T   T   T
  0.1667290368703362  0.8335088807937012  0.4734235144623682   T   T   T
  0.4165083932935687  0.0832773432675182  0.4734160248569950   T   T   T
  0.4163679631544852  0.3325397839431190  0.4732820270499403   T   T   T
  0.4161124908456060  0.5833666514820308  0.4730290036557605   T   T   T
  0.4161577298253718  0.8338594506611372  0.4729900839636656   T   T   T
  0.6666764044580091  0.0833153828071289  0.4735627179601067   T   T   T
  0.6660843081261305  0.3326872760648172  0.4731989448160547   T   T   T
  0.6666861227742658  0.5833471119790090  0.4726900288199687   T   T   T
  0.6666617573763318  0.8339089733513703  0.4730433449169951   T   T   T
  0.9167617274065023  0.0834932538140336  0.4734066945639057   T   T   T
  0.9164947702323047  0.3335255821041159  0.4733247954768061   T   T   T
  0.9173357610004302  0.5839382721685382  0.4732023017838429   T   T   T
  0.9174846014190905  0.8336407933773557  0.4732955069703735   T   T   T
  0.6971662824832947  0.7695897410579491  0.7904000750746079   T   T   T
  0.7695238125200135  0.6972406960666717  0.7904958829069102   T   T   T
  0.6971247447675921  0.5527756846107081  0.7915281242320091   T   T   T
  0.5526665090375573  0.4804122055334972  0.7904925361042388   T   T   T
  0.4803303241961103  0.5527850849901839  0.7903994793082703   T   T   T
  0.5527119572405823  0.6972334401503915  0.7913359208325090   T   T   T
  0.7844718763333276  0.9449927371976159  0.7905928413915930   T   T   T
  0.9449367370176844  0.7846493163442929  0.7906154672881627   T   T   T
  0.7848832710034586  0.4650075593048584  0.7930886634681400   T   T   T
  0.4652444549439707  0.3050048555145892  0.7905958071420471   T   T   T
  0.3049205349467954  0.4655022573336325  0.7905947017923722   T   T   T
  0.4649918316466142  0.7850289414715377  0.7928774819588114   T   T   T
 
  0.00000000E+00  0.00000000E+00  0.00000000E+00
  0.00000000E+00  0.00000000E+00  0.00000000E+00
  0.00000000E+00  0.00000000E+00  0.00000000E+00
  0.00000000E+00  0.00000000E+00  0.00000000E+00
  0.00000000E+00  0.00000000E+00  0.00000000E+00
  0.00000000E+00  0.00000000E+00  0.00000000E+00
  0.00000000E+00  0.00000000E+00  0.00000000E+00
  0.00000000E+00  0.00000000E+00  0.00000000E+00
  0.00000000E+00  0.00000000E+00  0.00000000E+00
  0.00000000E+00  0.00000000E+00  0.00000000E+00
  0.00000000E+00  0.00000000E+00  0.00000000E+00
  0.00000000E+00  0.00000000E+00  0.00000000E+00
  0.00000000E+00  0.00000000E+00  0.00000000E+00
  0.00000000E+00  0.00000000E+00  0.00000000E+00
  0.00000000E+00  0.00000000E+00  0.00000000E+00
  0.00000000E+00  0.00000000E+00  0.00000000E+00
  0.00000000E+00  0.00000000E+00  0.00000000E+00
  0.00000000E+00  0.00000000E+00  0.00000000E+00
  0.00000000E+00  0.00000000E+00  0.00000000E+00
  0.00000000E+00  0.00000000E+00  0.00000000E+00
  0.00000000E+00  0.00000000E+00  0.00000000E+00
  0.00000000E+00  0.00000000E+00  0.00000000E+00
  0.00000000E+00  0.00000000E+00  0.00000000E+00
  0.00000000E+00  0.00000000E+00  0.00000000E+00
  0.00000000E+00  0.00000000E+00  0.00000000E+00
  0.00000000E+00  0.00000000E+00  0.00000000E+00
  0.00000000E+00  0.00000000E+00  0.00000000E+00
  0.00000000E+00  0.00000000E+00  0.00000000E+00
  0.00000000E+00  0.00000000E+00  0.00000000E+00
  0.00000000E+00  0.00000000E+00  0.00000000E+00
  0.00000000E+00  0.00000000E+00  0.00000000E+00
  0.00000000E+00  0.00000000E+00  0.00000000E+00
  0.00000000E+00  0.00000000E+00  0.00000000E+00
  0.00000000E+00  0.00000000E+00  0.00000000E+00
  0.00000000E+00  0.00000000E+00  0.00000000E+00
  0.00000000E+00  0.00000000E+00  0.00000000E+00
  0.00000000E+00  0.00000000E+00  0.00000000E+00
  0.00000000E+00  0.00000000E+00  0.00000000E+00
  0.00000000E+00  0.00000000E+00  0.00000000E+00
  0.00000000E+00  0.00000000E+00  0.00000000E+00
  0.00000000E+00  0.00000000E+00  0.00000000E+00
  0.00000000E+00  0.00000000E+00  0.00000000E+00
  0.00000000E+00  0.00000000E+00  0.00000000E+00
  0.00000000E+00  0.00000000E+00  0.00000000E+00
  0.00000000E+00  0.00000000E+00  0.00000000E+00
  0.00000000E+00  0.00000000E+00  0.00000000E+00
  0.00000000E+00  0.00000000E+00  0.00000000E+00
  0.00000000E+00  0.00000000E+00  0.00000000E+00
  0.00000000E+00  0.00000000E+00  0.00000000E+00
  0.00000000E+00  0.00000000E+00  0.00000000E+00
  0.00000000E+00  0.00000000E+00  0.00000000E+00
  0.00000000E+00  0.00000000E+00  0.00000000E+00
  0.00000000E+00  0.00000000E+00  0.00000000E+00
  0.00000000E+00  0.00000000E+00  0.00000000E+00
  0.00000000E+00  0.00000000E+00  0.00000000E+00
  0.00000000E+00  0.00000000E+00  0.00000000E+00
  0.00000000E+00  0.00000000E+00  0.00000000E+00
  0.00000000E+00  0.00000000E+00  0.00000000E+00
  0.00000000E+00  0.00000000E+00  0.00000000E+00
  0.00000000E+00  0.00000000E+00  0.00000000E+00
