Rh  C  F                                
    1.000000000000000     
    10.8856652999999994    0.0000000000000000    0.0000000000000000
     0.0000000000000000   15.3946555000000007    0.0000000000000000
     0.0000000000000000    0.0000000000000000   22.0821244799999974
   Rh   C    F 
    64     6     6
Selective dynamics
Direct
  0.2500000004593161  0.2500000003247891  0.3396412336499992   F   F   F
  0.0000000018372788  0.7500000016239383  0.3396412336499992   F   F   F
  0.2500000004593161  0.5000000012991492  0.3396412336499992   F   F   F
  0.2500000004593161  0.7500000016239383  0.3396412336499992   F   F   F
  0.2500000004593161  0.0000000019487274  0.3396412336499992   F   F   F
  0.5000000009186394  0.2500000003247891  0.3396412336499992   F   F   F
  0.5000000009186394  0.5000000012991492  0.3396412336499992   F   F   F
  0.0000000018372788  0.0000000019487274  0.3396412336499992   F   F   F
  0.5000000009186394  0.7500000016239383  0.3396412336499992   F   F   F
  0.5000000009186394  0.0000000019487274  0.3396412336499992   F   F   F
  0.7500000013779555  0.2500000003247891  0.3396412336499992   F   F   F
  0.7500000013779555  0.5000000012991492  0.3396412336499992   F   F   F
  0.7500000013779555  0.7500000016239383  0.3396412336499992   F   F   F
  0.7500000013779555  0.0000000019487274  0.3396412336499992   F   F   F
  0.0000000018372788  0.2500000003247891  0.3396412336499992   F   F   F
  0.0000000018372788  0.5000000012991492  0.3396412336499992   F   F   F
  0.2499784824533265  0.2504803601191712  0.4586725492649911   T   T   T
  0.2489916318836219  0.4996670148670579  0.4574587234278167   T   T   T
  0.2513167284110220  0.7485242178182868  0.4592774869229603   T   T   T
  0.2501805167595358  0.0001740366839844  0.4591420009520117   T   T   T
  0.4997614877403786  0.2520243826069034  0.4590272214806060   T   T   T
  0.5000000009186394  0.5000000012991492  0.4556180578696935   T   T   T
  0.5002385140969001  0.7479756193418242  0.4590272214806060   T   T   T
  0.5000000009186394  0.0000000019487274  0.4591984504923283   T   T   T
  0.7486832734262495  0.2514757841304409  0.4592774869229603   T   T   T
  0.7510083699536496  0.5003329877312405  0.4574587234278167   T   T   T
  0.7500215193839453  0.7495196418295562  0.4586725492649911   T   T   T
  0.7498194850777430  0.9998259672134706  0.4591420009520117   T   T   T
  0.9987469602756652  0.2502693217240287  0.4590572674514341   T   T   T
  0.0000000018372788  0.5000000012991492  0.4588007221615381   T   T   T
  0.0012530433988923  0.7497306802246986  0.4590572674514341   T   T   T
  0.0000000018372788  0.0000000019487274  0.4592220720175684   T   T   T
  0.1244640255126893  0.1254154866114853  0.5150179823970088   T   T   T
  0.1218383719173933  0.3748183857076260  0.5150208225837106   T   T   T
  0.1253233575992256  0.6244682022049410  0.5153391131056365   T   T   T
  0.1258863143994456  0.8745818151139935  0.5150778932484551   T   T   T
  0.3752022144438242  0.1257351462248851  0.5150482840504530   T   T   T
  0.3683848749897495  0.3769693873480439  0.5170757962813259   T   T   T
  0.3824041093685545  0.6124257742240554  0.5209012230675172   T   T   T
  0.3750082931817365  0.8743974157391736  0.5148419257583591   T   T   T
  0.6249917086555425  0.1256025862095538  0.5148419257583591   T   T   T
  0.6175958933873636  0.3875742277246720  0.5209012230675172   T   T   T
  0.6316151277661689  0.6230306146006834  0.5170757962813259   T   T   T
  0.6247977864748152  0.8742648557238424  0.5150482840504530   T   T   T
  0.8741136874378329  0.1254181868347338  0.5150778932484551   T   T   T
  0.8746766442380530  0.3755317997437864  0.5153391131056365   T   T   T
  0.8781616308385249  0.6251816162411012  0.5150208225837106   T   T   T
  0.8755359754059499  0.8745845153372422  0.5150179823970088   T   T   T
  0.1249999997703384  0.1250000001623945  0.4012615800633341   F   F   F
  0.1249999997703384  0.3750000004871836  0.4012615800633341   F   F   F
  0.1250000006889778  0.6250000014615438  0.4012615800633341   F   F   F
  0.1250000006889778  0.8750000017863329  0.4012615800633341   F   F   F
  0.3750000002296616  0.1250000001623945  0.4012615800633341   F   F   F
  0.3750000002296616  0.3750000004871836  0.4012615800633341   F   F   F
  0.3750000011483010  0.6250000014615438  0.4012615800633341   F   F   F
  0.3750000011483010  0.8750000017863329  0.4012615800633341   F   F   F
  0.6250000006889778  0.1250000001623945  0.4012615800633341   F   F   F
  0.6250000006889778  0.3750000004871836  0.4012615800633341   F   F   F
  0.6250000006889778  0.6250000014615438  0.4012615800633341   F   F   F
  0.6250000006889778  0.8750000017863329  0.4012615800633341   F   F   F
  0.8750000011483010  0.1250000001623945  0.4012615800633341   F   F   F
  0.8750000011483010  0.3750000004871836  0.4012615800633341   F   F   F
  0.8750000020669404  0.6250000014615438  0.4012615800633341   F   F   F
  0.8750000011483010  0.8750000017863329  0.4012615800633341   F   F   F
  0.6278688668940300  0.4664223786134041  0.5984442704041251   T   T   T
  0.5257641830082914  0.4064803524972128  0.6045923153752357   T   T   T
  0.3947379398942372  0.4360809821482969  0.5987067880499710   T   T   T
  0.3721311625024231  0.5335776363268439  0.5984442704041251   T   T   T
  0.4742357931070915  0.5935196364599936  0.6045923153752357   T   T   T
  0.6052620628616809  0.5639190198004306  0.5987067880499710   T   T   T
  0.7328250365830067  0.4459736829889125  0.6307666704000255   T   T   T
  0.5411345136023034  0.3377822392225491  0.6433859713660259   T   T   T
  0.3217482125905778  0.3971868534273194  0.6431062369424637   T   T   T
  0.2671749661729112  0.5540263189598149  0.6307666704000255   T   T   T
  0.4588654211743071  0.6622177412901626  0.6433859713660259   T   T   T
  0.6782517644434377  0.6028131355298874  0.6431062369424637   T   T   T
 
  0.00000000E+00  0.00000000E+00  0.00000000E+00
  0.00000000E+00  0.00000000E+00  0.00000000E+00
  0.00000000E+00  0.00000000E+00  0.00000000E+00
  0.00000000E+00  0.00000000E+00  0.00000000E+00
  0.00000000E+00  0.00000000E+00  0.00000000E+00
  0.00000000E+00  0.00000000E+00  0.00000000E+00
  0.00000000E+00  0.00000000E+00  0.00000000E+00
  0.00000000E+00  0.00000000E+00  0.00000000E+00
  0.00000000E+00  0.00000000E+00  0.00000000E+00
  0.00000000E+00  0.00000000E+00  0.00000000E+00
  0.00000000E+00  0.00000000E+00  0.00000000E+00
  0.00000000E+00  0.00000000E+00  0.00000000E+00
  0.00000000E+00  0.00000000E+00  0.00000000E+00
  0.00000000E+00  0.00000000E+00  0.00000000E+00
  0.00000000E+00  0.00000000E+00  0.00000000E+00
  0.00000000E+00  0.00000000E+00  0.00000000E+00
  0.00000000E+00  0.00000000E+00  0.00000000E+00
  0.00000000E+00  0.00000000E+00  0.00000000E+00
  0.00000000E+00  0.00000000E+00  0.00000000E+00
  0.00000000E+00  0.00000000E+00  0.00000000E+00
  0.00000000E+00  0.00000000E+00  0.00000000E+00
  0.00000000E+00  0.00000000E+00  0.00000000E+00
  0.00000000E+00  0.00000000E+00  0.00000000E+00
  0.00000000E+00  0.00000000E+00  0.00000000E+00
  0.00000000E+00  0.00000000E+00  0.00000000E+00
  0.00000000E+00  0.00000000E+00  0.00000000E+00
  0.00000000E+00  0.00000000E+00  0.00000000E+00
  0.00000000E+00  0.00000000E+00  0.00000000E+00
  0.00000000E+00  0.00000000E+00  0.00000000E+00
  0.00000000E+00  0.00000000E+00  0.00000000E+00
  0.00000000E+00  0.00000000E+00  0.00000000E+00
  0.00000000E+00  0.00000000E+00  0.00000000E+00
  0.00000000E+00  0.00000000E+00  0.00000000E+00
  0.00000000E+00  0.00000000E+00  0.00000000E+00
  0.00000000E+00  0.00000000E+00  0.00000000E+00
  0.00000000E+00  0.00000000E+00  0.00000000E+00
  0.00000000E+00  0.00000000E+00  0.00000000E+00
  0.00000000E+00  0.00000000E+00  0.00000000E+00
  0.00000000E+00  0.00000000E+00  0.00000000E+00
  0.00000000E+00  0.00000000E+00  0.00000000E+00
  0.00000000E+00  0.00000000E+00  0.00000000E+00
  0.00000000E+00  0.00000000E+00  0.00000000E+00
  0.00000000E+00  0.00000000E+00  0.00000000E+00
  0.00000000E+00  0.00000000E+00  0.00000000E+00
  0.00000000E+00  0.00000000E+00  0.00000000E+00
  0.00000000E+00  0.00000000E+00  0.00000000E+00
  0.00000000E+00  0.00000000E+00  0.00000000E+00
  0.00000000E+00  0.00000000E+00  0.00000000E+00
  0.00000000E+00  0.00000000E+00  0.00000000E+00
  0.00000000E+00  0.00000000E+00  0.00000000E+00
  0.00000000E+00  0.00000000E+00  0.00000000E+00
  0.00000000E+00  0.00000000E+00  0.00000000E+00
  0.00000000E+00  0.00000000E+00  0.00000000E+00
  0.00000000E+00  0.00000000E+00  0.00000000E+00
  0.00000000E+00  0.00000000E+00  0.00000000E+00
  0.00000000E+00  0.00000000E+00  0.00000000E+00
  0.00000000E+00  0.00000000E+00  0.00000000E+00
  0.00000000E+00  0.00000000E+00  0.00000000E+00
  0.00000000E+00  0.00000000E+00  0.00000000E+00
  0.00000000E+00  0.00000000E+00  0.00000000E+00
  0.00000000E+00  0.00000000E+00  0.00000000E+00
  0.00000000E+00  0.00000000E+00  0.00000000E+00
  0.00000000E+00  0.00000000E+00  0.00000000E+00
  0.00000000E+00  0.00000000E+00  0.00000000E+00
  0.00000000E+00  0.00000000E+00  0.00000000E+00
  0.00000000E+00  0.00000000E+00  0.00000000E+00
  0.00000000E+00  0.00000000E+00  0.00000000E+00
  0.00000000E+00  0.00000000E+00  0.00000000E+00
  0.00000000E+00  0.00000000E+00  0.00000000E+00
  0.00000000E+00  0.00000000E+00  0.00000000E+00
  0.00000000E+00  0.00000000E+00  0.00000000E+00
  0.00000000E+00  0.00000000E+00  0.00000000E+00
  0.00000000E+00  0.00000000E+00  0.00000000E+00
  0.00000000E+00  0.00000000E+00  0.00000000E+00
  0.00000000E+00  0.00000000E+00  0.00000000E+00
  0.00000000E+00  0.00000000E+00  0.00000000E+00
