H4 Pt48 C6 Br2                          
    1.000000000000000     
    11.2480069999999994    0.0000000000000000    0.0000000000000000
    -5.6240030000000001    9.7410599999999992    0.0000000000000000
     0.0000000000000000    0.0000000000000000   17.5952680000000008
   H    Pt   C    Br
     4    48     6     2
Selective dynamics
Direct
  0.4991082652605314  0.3688914614828676  0.7742685340633528   T   T   T
  0.3688838124648939  0.4991102003616774  0.7739228382997396   T   T   T
  0.7509154840752430  0.8812174777069330  0.7739377178538120   T   T   T
  0.8811465954120479  0.7508289927196472  0.7742953019578209   T   T   T
  0.0833330000000032  0.1666669999999968  0.3410009999999986   F   F   F
  0.0833330000000032  0.4166669999999968  0.3410009999999986   F   F   F
  0.0833330000000032  0.6666669999999968  0.3410009999999986   F   F   F
  0.0833330000000032  0.9166669999999968  0.3410009999999986   F   F   F
  0.3333330000000032  0.1666669999999968  0.3410009999999986   F   F   F
  0.3333330000000032  0.4166669999999968  0.3410009999999986   F   F   F
  0.3333330000000032  0.6666669999999968  0.3410009999999986   F   F   F
  0.3333330000000032  0.9166669999999968  0.3410009999999986   F   F   F
  0.5833330000000032  0.1666669999999968  0.3410009999999986   F   F   F
  0.5833330000000032  0.4166669999999968  0.3410009999999986   F   F   F
  0.5833330000000032  0.6666669999999968  0.3410009999999986   F   F   F
  0.5833330000000032  0.9166669999999968  0.3410009999999986   F   F   F
  0.8333330000000032  0.1666669999999968  0.3410009999999986   F   F   F
  0.8333330000000032  0.4166669999999968  0.3410009999999986   F   F   F
  0.8333330000000032  0.6666669999999968  0.3410009999999986   F   F   F
  0.8333330000000032  0.9166669999999968  0.3410009999999986   F   F   F
  0.2496389005994573  0.2499973623758365  0.6035556409262952   T   T   T
  0.2488801063016268  0.4996162385660980  0.6019308819681726   T   T   T
  0.2488519368480837  0.7502537165631438  0.6019073096455330   T   T   T
  0.2494926853668247  0.0005123079837972  0.6029732644159367   T   T   T
  0.4994223995452742  0.2494846137129088  0.6020102158941540   T   T   T
  0.4987245029162040  0.4990024203123511  0.6021022809787766   T   T   T
  0.4988989921179510  0.7510919080825857  0.6009673127807602   T   T   T
  0.4997273410885583  0.0011429725812988  0.6018969415112991   T   T   T
  0.7503256785226142  0.2495747421470185  0.6016759436933796   T   T   T
  0.7506963376952882  0.4992534847869976  0.6005496276934679   T   T   T
  0.7509551486093429  0.7512466893478802  0.6021227288813122   T   T   T
  0.7503565962914180  0.0011160718970231  0.6019413838324965   T   T   T
  0.0002686881674450  0.2497022963058342  0.6027468305002017   T   T   T
  0.0003824636572531  0.4996293471871454  0.6016790231027613   T   T   T
  0.0004857105231295  0.7505549773156943  0.6020301989305352   T   T   T
  0.0000037134382112  0.0003652550092994  0.6035521088250775   T   T   T
  0.1663297664363768  0.0836895602236609  0.4720526005764896   T   T   T
  0.1668265655865113  0.3328857730292398  0.4717536347428464   T   T   T
  0.1670890409863475  0.5837331523195886  0.4711428326777565   T   T   T
  0.1668737894961296  0.8342847554097546  0.4714687524424761   T   T   T
  0.4156902087774412  0.0831044584721923  0.4714800149064544   T   T   T
  0.4155296796818533  0.3324497939646065  0.4716930087709343   T   T   T
  0.4164601244349129  0.5833468616912398  0.4714713795926855   T   T   T
  0.4160626155368234  0.8339128532442643  0.4709390515959697   T   T   T
  0.6662474161879217  0.0828997692922400  0.4711475618142771   T   T   T
  0.6660284808489010  0.3324703789184440  0.4710269340628983   T   T   T
  0.6667258644608296  0.5832575676564389  0.4714491181886586   T   T   T
  0.6666534453108213  0.8335255160624229  0.4714638716382353   T   T   T
  0.9171060129158732  0.0831582044736479  0.4717367714973264   T   T   T
  0.9170804850421561  0.3329311079199684  0.4713547252420511   T   T   T
  0.9175352074798155  0.5839716215047588  0.4710130693004473   T   T   T
  0.9175357320710162  0.8344526331434992  0.4716724108861641   T   T   T
  0.6960140131013617  0.5540848729053351  0.7800213885416412   T   T   T
  0.5529221173985093  0.4808670969625908  0.7765897845457843   T   T   T
  0.4808475836473605  0.5528292567438697  0.7763746170627215   T   T   T
  0.5541815626537456  0.6958750405301686  0.7795868186131685   T   T   T
  0.6972916374974716  0.7692223693746101  0.7763840689506480   T   T   T
  0.7692569937327889  0.6971222100730117  0.7766042251160101   T   T   T
  0.7934108717147126  0.4565768873731386  0.7850624333994105   T   T   T
  0.4565542510683898  0.7935960332211636  0.7837383624046694   T   T   T
 
  0.00000000E+00  0.00000000E+00  0.00000000E+00
  0.00000000E+00  0.00000000E+00  0.00000000E+00
  0.00000000E+00  0.00000000E+00  0.00000000E+00
  0.00000000E+00  0.00000000E+00  0.00000000E+00
  0.00000000E+00  0.00000000E+00  0.00000000E+00
  0.00000000E+00  0.00000000E+00  0.00000000E+00
  0.00000000E+00  0.00000000E+00  0.00000000E+00
  0.00000000E+00  0.00000000E+00  0.00000000E+00
  0.00000000E+00  0.00000000E+00  0.00000000E+00
  0.00000000E+00  0.00000000E+00  0.00000000E+00
  0.00000000E+00  0.00000000E+00  0.00000000E+00
  0.00000000E+00  0.00000000E+00  0.00000000E+00
  0.00000000E+00  0.00000000E+00  0.00000000E+00
  0.00000000E+00  0.00000000E+00  0.00000000E+00
  0.00000000E+00  0.00000000E+00  0.00000000E+00
  0.00000000E+00  0.00000000E+00  0.00000000E+00
  0.00000000E+00  0.00000000E+00  0.00000000E+00
  0.00000000E+00  0.00000000E+00  0.00000000E+00
  0.00000000E+00  0.00000000E+00  0.00000000E+00
  0.00000000E+00  0.00000000E+00  0.00000000E+00
  0.00000000E+00  0.00000000E+00  0.00000000E+00
  0.00000000E+00  0.00000000E+00  0.00000000E+00
  0.00000000E+00  0.00000000E+00  0.00000000E+00
  0.00000000E+00  0.00000000E+00  0.00000000E+00
  0.00000000E+00  0.00000000E+00  0.00000000E+00
  0.00000000E+00  0.00000000E+00  0.00000000E+00
  0.00000000E+00  0.00000000E+00  0.00000000E+00
  0.00000000E+00  0.00000000E+00  0.00000000E+00
  0.00000000E+00  0.00000000E+00  0.00000000E+00
  0.00000000E+00  0.00000000E+00  0.00000000E+00
  0.00000000E+00  0.00000000E+00  0.00000000E+00
  0.00000000E+00  0.00000000E+00  0.00000000E+00
  0.00000000E+00  0.00000000E+00  0.00000000E+00
  0.00000000E+00  0.00000000E+00  0.00000000E+00
  0.00000000E+00  0.00000000E+00  0.00000000E+00
  0.00000000E+00  0.00000000E+00  0.00000000E+00
  0.00000000E+00  0.00000000E+00  0.00000000E+00
  0.00000000E+00  0.00000000E+00  0.00000000E+00
  0.00000000E+00  0.00000000E+00  0.00000000E+00
  0.00000000E+00  0.00000000E+00  0.00000000E+00
  0.00000000E+00  0.00000000E+00  0.00000000E+00
  0.00000000E+00  0.00000000E+00  0.00000000E+00
  0.00000000E+00  0.00000000E+00  0.00000000E+00
  0.00000000E+00  0.00000000E+00  0.00000000E+00
  0.00000000E+00  0.00000000E+00  0.00000000E+00
  0.00000000E+00  0.00000000E+00  0.00000000E+00
  0.00000000E+00  0.00000000E+00  0.00000000E+00
  0.00000000E+00  0.00000000E+00  0.00000000E+00
  0.00000000E+00  0.00000000E+00  0.00000000E+00
  0.00000000E+00  0.00000000E+00  0.00000000E+00
  0.00000000E+00  0.00000000E+00  0.00000000E+00
  0.00000000E+00  0.00000000E+00  0.00000000E+00
  0.00000000E+00  0.00000000E+00  0.00000000E+00
  0.00000000E+00  0.00000000E+00  0.00000000E+00
  0.00000000E+00  0.00000000E+00  0.00000000E+00
  0.00000000E+00  0.00000000E+00  0.00000000E+00
  0.00000000E+00  0.00000000E+00  0.00000000E+00
  0.00000000E+00  0.00000000E+00  0.00000000E+00
  0.00000000E+00  0.00000000E+00  0.00000000E+00
  0.00000000E+00  0.00000000E+00  0.00000000E+00
