H2 Ir48 C6 F4                           
    1.000000000000000     
    10.9622130000000002    0.0000000000000000    0.0000000000000000
    -5.4811069999999997    9.4935550000000006    0.0000000000000000
     0.0000000000000000    0.0000000000000000   17.6996110000000009
   H    Ir   C    F 
     2    48     6     4
Selective dynamics
Direct
  0.2425737352121686  0.5067340167059342  0.7720007785129965   T   T   T
  0.5058993383548085  0.2426836089176660  0.7735076131397776   T   T   T
  0.0833330000000032  0.1666669999999968  0.3389900000000026   F   F   F
  0.0833330000000032  0.4166669999999968  0.3389900000000026   F   F   F
  0.0833330000000032  0.6666669999999968  0.3389900000000026   F   F   F
  0.0833330000000032  0.9166669999999968  0.3389900000000026   F   F   F
  0.3333330000000032  0.1666669999999968  0.3389900000000026   F   F   F
  0.3333330000000032  0.4166669999999968  0.3389900000000026   F   F   F
  0.3333330000000032  0.6666669999999968  0.3389900000000026   F   F   F
  0.3333330000000032  0.9166669999999968  0.3389900000000026   F   F   F
  0.5833330000000032  0.1666669999999968  0.3389900000000026   F   F   F
  0.5833330000000032  0.4166669999999968  0.3389900000000026   F   F   F
  0.5833330000000032  0.6666669999999968  0.3389900000000026   F   F   F
  0.5833330000000032  0.9166669999999968  0.3389900000000026   F   F   F
  0.8333330000000032  0.1666669999999968  0.3389900000000026   F   F   F
  0.8333330000000032  0.4166669999999968  0.3389900000000026   F   F   F
  0.8333330000000032  0.6666669999999968  0.3389900000000026   F   F   F
  0.8333330000000032  0.9166669999999968  0.3389900000000026   F   F   F
  0.9999952181324616  0.0001154684793860  0.5840761500225540   T   T   T
  0.9997639513506584  0.2500485218851622  0.5840699755757726   T   T   T
  0.9999726501691200  0.5001509217573172  0.5842015431677581   T   T   T
  0.0000309217595316  0.7501251606766175  0.5841262577662221   T   T   T
  0.2499365539290750  0.9998602873388478  0.5840957780135412   T   T   T
  0.2499528022775195  0.2498006670665731  0.5838955019839460   T   T   T
  0.2499433960557056  0.5002328978474040  0.5841722515862529   T   T   T
  0.2500051291265564  0.7501853028427519  0.5842009900100180   T   T   T
  0.5000489777216330  0.0000252076220164  0.5842447451801718   T   T   T
  0.5002151136773776  0.2499344897565194  0.5842556239653192   T   T   T
  0.5003362981368014  0.5001949496874190  0.5839131200714505   T   T   T
  0.5001011188306919  0.7503590026883842  0.5840806343501015   T   T   T
  0.7500352293821493  0.0001078484314618  0.5841298191122632   T   T   T
  0.7501320181137885  0.2501155078073296  0.5842425718676765   T   T   T
  0.7502687806616635  0.5002204984076002  0.5841029164584128   T   T   T
  0.7500282747384404  0.7501439305349393  0.5840804230305494   T   T   T
  0.1667090744845581  0.0833781653776384  0.4614393669611303   T   T   T
  0.1667515281088043  0.3334146347760552  0.4614993962710372   T   T   T
  0.1667380279284032  0.5833766427069449  0.4616249466049211   T   T   T
  0.1666539299549044  0.8333443712691064  0.4614620581998068   T   T   T
  0.4166736670526845  0.0834164274095812  0.4615509985596802   T   T   T
  0.4167249841348735  0.3333732316052931  0.4614210053896528   T   T   T
  0.4166879506863168  0.5833466093802073  0.4615025386065099   T   T   T
  0.4166328336917502  0.8334287946996071  0.4615762611273979   T   T   T
  0.6666655967732780  0.0834461303218674  0.4615688574589782   T   T   T
  0.6666962013768938  0.3334340243399510  0.4615469065107831   T   T   T
  0.6667204586857736  0.5833912967053791  0.4614408984071687   T   T   T
  0.6666845463533377  0.8333706293344818  0.4615126005363308   T   T   T
  0.9167245132868871  0.0834137608077654  0.4615144021980271   T   T   T
  0.9166664439801622  0.3334762132187024  0.4615765679929140   T   T   T
  0.9167417934679136  0.5834433401147905  0.4614639819815736   T   T   T
  0.9167100775353845  0.8333675152449089  0.4614950901529440   T   T   T
  0.2999278447783169  0.4490018527161368  0.7731814143851778   T   T   T
  0.4465874944421344  0.5206675450680081  0.7740459058285438   T   T   T
  0.5202138571270325  0.4469208199829495  0.7743081088379569   T   T   T
  0.4483161182831665  0.3002085460378296  0.7739052116534779   T   T   T
  0.3015721979180128  0.2285366498698949  0.7740780539528487   T   T   T
  0.2280057752852400  0.3022872442780766  0.7737360306175702   T   T   T
  0.5192584278256476  0.6631300674723732  0.7754755833701239   T   T   T
  0.6626225882729813  0.5193436495638153  0.7758182167264565   T   T   T
  0.2288129366742950  0.0860947526295490  0.7755052459313276   T   T   T
  0.0856209792127061  0.2297268976522062  0.7748800168300320   T   T   T
 
  0.00000000E+00  0.00000000E+00  0.00000000E+00
  0.00000000E+00  0.00000000E+00  0.00000000E+00
  0.00000000E+00  0.00000000E+00  0.00000000E+00
  0.00000000E+00  0.00000000E+00  0.00000000E+00
  0.00000000E+00  0.00000000E+00  0.00000000E+00
  0.00000000E+00  0.00000000E+00  0.00000000E+00
  0.00000000E+00  0.00000000E+00  0.00000000E+00
  0.00000000E+00  0.00000000E+00  0.00000000E+00
  0.00000000E+00  0.00000000E+00  0.00000000E+00
  0.00000000E+00  0.00000000E+00  0.00000000E+00
  0.00000000E+00  0.00000000E+00  0.00000000E+00
  0.00000000E+00  0.00000000E+00  0.00000000E+00
  0.00000000E+00  0.00000000E+00  0.00000000E+00
  0.00000000E+00  0.00000000E+00  0.00000000E+00
  0.00000000E+00  0.00000000E+00  0.00000000E+00
  0.00000000E+00  0.00000000E+00  0.00000000E+00
  0.00000000E+00  0.00000000E+00  0.00000000E+00
  0.00000000E+00  0.00000000E+00  0.00000000E+00
  0.00000000E+00  0.00000000E+00  0.00000000E+00
  0.00000000E+00  0.00000000E+00  0.00000000E+00
  0.00000000E+00  0.00000000E+00  0.00000000E+00
  0.00000000E+00  0.00000000E+00  0.00000000E+00
  0.00000000E+00  0.00000000E+00  0.00000000E+00
  0.00000000E+00  0.00000000E+00  0.00000000E+00
  0.00000000E+00  0.00000000E+00  0.00000000E+00
  0.00000000E+00  0.00000000E+00  0.00000000E+00
  0.00000000E+00  0.00000000E+00  0.00000000E+00
  0.00000000E+00  0.00000000E+00  0.00000000E+00
  0.00000000E+00  0.00000000E+00  0.00000000E+00
  0.00000000E+00  0.00000000E+00  0.00000000E+00
  0.00000000E+00  0.00000000E+00  0.00000000E+00
  0.00000000E+00  0.00000000E+00  0.00000000E+00
  0.00000000E+00  0.00000000E+00  0.00000000E+00
  0.00000000E+00  0.00000000E+00  0.00000000E+00
  0.00000000E+00  0.00000000E+00  0.00000000E+00
  0.00000000E+00  0.00000000E+00  0.00000000E+00
  0.00000000E+00  0.00000000E+00  0.00000000E+00
  0.00000000E+00  0.00000000E+00  0.00000000E+00
  0.00000000E+00  0.00000000E+00  0.00000000E+00
  0.00000000E+00  0.00000000E+00  0.00000000E+00
  0.00000000E+00  0.00000000E+00  0.00000000E+00
  0.00000000E+00  0.00000000E+00  0.00000000E+00
  0.00000000E+00  0.00000000E+00  0.00000000E+00
  0.00000000E+00  0.00000000E+00  0.00000000E+00
  0.00000000E+00  0.00000000E+00  0.00000000E+00
  0.00000000E+00  0.00000000E+00  0.00000000E+00
  0.00000000E+00  0.00000000E+00  0.00000000E+00
  0.00000000E+00  0.00000000E+00  0.00000000E+00
  0.00000000E+00  0.00000000E+00  0.00000000E+00
  0.00000000E+00  0.00000000E+00  0.00000000E+00
  0.00000000E+00  0.00000000E+00  0.00000000E+00
  0.00000000E+00  0.00000000E+00  0.00000000E+00
  0.00000000E+00  0.00000000E+00  0.00000000E+00
  0.00000000E+00  0.00000000E+00  0.00000000E+00
  0.00000000E+00  0.00000000E+00  0.00000000E+00
  0.00000000E+00  0.00000000E+00  0.00000000E+00
  0.00000000E+00  0.00000000E+00  0.00000000E+00
  0.00000000E+00  0.00000000E+00  0.00000000E+00
  0.00000000E+00  0.00000000E+00  0.00000000E+00
  0.00000000E+00  0.00000000E+00  0.00000000E+00
