Pt  C  H Br                             
    1.000000000000000     
    11.2480068000000006    0.0000000000000000    0.0000000000000000
     0.0000000000000000   15.9070838000000006    0.0000000000000000
     0.0000000000000000    0.0000000000000000   22.2180025631249976
   Pt   C    H    Br
    64     6     4     2
Selective dynamics
Direct
  0.2500000008890453  0.2500000006286527  0.3375640982438100   F   F   F
  0.2500000008890453  0.5000000006286527  0.3375640982438100   F   F   F
  0.2500000008890453  0.7500000012572983  0.3375640982438100   F   F   F
  0.2500000008890453  0.0000000000000000  0.3375640982438100   F   F   F
  0.5000000017780906  0.5000000006286527  0.3375640982438100   F   F   F
  0.0000000035561882  0.0000000000000000  0.3375640982438100   F   F   F
  0.5000000017780906  0.7500000012572983  0.3375640982438100   F   F   F
  0.5000000017780906  0.0000000000000000  0.3375640982438100   F   F   F
  0.7500000026671358  0.0000000000000000  0.3375640982438100   F   F   F
  0.0000000035561882  0.7500000012572983  0.3375640982438100   F   F   F
  0.5000000017780906  0.2500000006286527  0.3375640982438100   F   F   F
  0.7500000026671358  0.2500000006286527  0.3375640982438100   F   F   F
  0.7500000026671358  0.5000000006286527  0.3375640982438100   F   F   F
  0.7500000026671358  0.7500000012572983  0.3375640982438100   F   F   F
  0.0000000035561882  0.2500000006286527  0.3375640982438100   F   F   F
  0.0000000035561882  0.5000000006286527  0.3375640982438100   F   F   F
  0.2493582263198701  0.2507769179023137  0.4677889080350301   T   T   T
  0.2469739025247669  0.5002300345824545  0.4661023438423754   T   T   T
  0.2521010872361223  0.7468642804143808  0.4693119922974011   T   T   T
  0.2499288362692605  0.0000834937314829  0.4679873317522294   T   T   T
  0.5007266975912995  0.2518010113800545  0.4684869908428989   T   T   T
  0.5000127704427758  0.4999998862009006  0.4635287517030275   T   T   T
  0.4992583974707882  0.7482069366345790  0.4684876071953299   T   T   T
  0.4999916847351880  0.0000042791657846  0.4679454358774200   T   T   T
  0.7478954604164539  0.2531434674397880  0.4693077550485428   T   T   T
  0.7530186009596322  0.4997726659844049  0.4661018066013984   T   T   T
  0.7506201335435214  0.7492436499344819  0.4677824883268872   T   T   T
  0.7500460688443912  0.9999287939689787  0.4679831183058714   T   T   T
  0.9984218230223090  0.2504154418853219  0.4679568279704338   T   T   T
 -0.0000145079541923  0.5000023015455108  0.4683981161917842   T   T   T
  0.0015557301934108  0.7496024999446979  0.4679545953936406   T   T   T
 -0.0000106709646305  0.0000055830475094  0.4682624886941197   T   T   T
  0.1245848164255627  0.1259573264470515  0.5254524086831199   T   T   T
  0.1227083318611779  0.3750169507631852  0.5264322451470725   T   T   T
  0.1261711179873943  0.6244118781694070  0.5266213193929726   T   T   T
  0.1269035009434827  0.8738943804402545  0.5252940805289588   T   T   T
  0.3751710123592733  0.1261591287366250  0.5253032978165519   T   T   T
  0.3715815654911352  0.3786355276022771  0.5256733031923658   T   T   T
  0.3775852942904702  0.6158987788872026  0.5309024793979366   T   T   T
  0.3758450177193267  0.8740896976125297  0.5256035798997482   T   T   T
  0.6241268892171111  0.1259327258343782  0.5256037304774499   T   T   T
  0.6224137024882829  0.3840877060805664  0.5308898048505710   T   T   T
  0.6283817698746105  0.6213904087767392  0.5256427853962188   T   T   T
  0.6247981911139701  0.8738476184687763  0.5253092857673154   T   T   T
  0.8730792048184012  0.1261212137098515  0.5252950335913361   T   T   T
  0.8738005308509451  0.3755970357134625  0.5266110156627347   T   T   T
  0.8772543005901183  0.6249976520937816  0.5264265987066240   T   T   T
  0.8753761544388592  0.8740676814985210  0.5254607406496875   T   T   T
  0.1250000000000000  0.1250000003143228  0.4008461529820977   F   F   F
  0.1250000000000000  0.3750000003143228  0.4008461529820977   F   F   F
  0.1250000008890453  0.6250000009429755  0.4008461529820977   F   F   F
  0.1250000008890453  0.8750000009429755  0.4008461529820977   F   F   F
  0.3750000008890453  0.1250000003143228  0.4008461529820977   F   F   F
  0.3750000008890453  0.3750000003143228  0.4008461529820977   F   F   F
  0.3750000008890453  0.6250000009429755  0.4008461529820977   F   F   F
  0.3750000008890453  0.8750000009429755  0.4008461529820977   F   F   F
  0.6250000017780906  0.1250000003143228  0.4008461529820977   F   F   F
  0.6250000017780906  0.3750000003143228  0.4008461529820977   F   F   F
  0.6250000017780906  0.6250000009429755  0.4008461529820977   F   F   F
  0.6250000026671358  0.8750000009429755  0.4008461529820977   F   F   F
  0.8750000026671358  0.1250000003143228  0.4008461529820977   F   F   F
  0.8750000026671358  0.3750000003143228  0.4008461529820977   F   F   F
  0.8750000035561882  0.6250000009429755  0.4008461529820977   F   F   F
  0.8750000026671358  0.8750000009429755  0.4008461529820977   F   F   F
  0.4010413868923734  0.4384856467415703  0.6051880410932855   T   T   T
  0.3769650664751816  0.5313975782528193  0.6086716797636165   T   T   T
  0.4738547574671311  0.5893210993395063  0.6149265178400615   T   T   T
  0.5989415875536855  0.5614340728782148  0.6051388180030278   T   T   T
  0.6230674543281874  0.4685785716761998  0.6086285596497468   T   T   T
  0.5261877623280711  0.4106386479674166  0.6149186668836283   T   T   T
  0.2921411565837753  0.5473137810878942  0.6296874131886647   T   T   T
  0.4617370547324052  0.6468472813230448  0.6410724129569479   T   T   T
  0.7078420948913218  0.4526754122798188  0.6296784456152642   T   T   T
  0.5382972617285338  0.3531360692615524  0.6410842367430588   T   T   T
  0.2909887177403927  0.3791141470734585  0.6614950773712875   T   T   T
  0.7094020754768899  0.6206466998420023  0.6613500774907614   T   T   T
 
  0.00000000E+00  0.00000000E+00  0.00000000E+00
  0.00000000E+00  0.00000000E+00  0.00000000E+00
  0.00000000E+00  0.00000000E+00  0.00000000E+00
  0.00000000E+00  0.00000000E+00  0.00000000E+00
  0.00000000E+00  0.00000000E+00  0.00000000E+00
  0.00000000E+00  0.00000000E+00  0.00000000E+00
  0.00000000E+00  0.00000000E+00  0.00000000E+00
  0.00000000E+00  0.00000000E+00  0.00000000E+00
  0.00000000E+00  0.00000000E+00  0.00000000E+00
  0.00000000E+00  0.00000000E+00  0.00000000E+00
  0.00000000E+00  0.00000000E+00  0.00000000E+00
  0.00000000E+00  0.00000000E+00  0.00000000E+00
  0.00000000E+00  0.00000000E+00  0.00000000E+00
  0.00000000E+00  0.00000000E+00  0.00000000E+00
  0.00000000E+00  0.00000000E+00  0.00000000E+00
  0.00000000E+00  0.00000000E+00  0.00000000E+00
  0.00000000E+00  0.00000000E+00  0.00000000E+00
  0.00000000E+00  0.00000000E+00  0.00000000E+00
  0.00000000E+00  0.00000000E+00  0.00000000E+00
  0.00000000E+00  0.00000000E+00  0.00000000E+00
  0.00000000E+00  0.00000000E+00  0.00000000E+00
  0.00000000E+00  0.00000000E+00  0.00000000E+00
  0.00000000E+00  0.00000000E+00  0.00000000E+00
  0.00000000E+00  0.00000000E+00  0.00000000E+00
  0.00000000E+00  0.00000000E+00  0.00000000E+00
  0.00000000E+00  0.00000000E+00  0.00000000E+00
  0.00000000E+00  0.00000000E+00  0.00000000E+00
  0.00000000E+00  0.00000000E+00  0.00000000E+00
  0.00000000E+00  0.00000000E+00  0.00000000E+00
  0.00000000E+00  0.00000000E+00  0.00000000E+00
  0.00000000E+00  0.00000000E+00  0.00000000E+00
  0.00000000E+00  0.00000000E+00  0.00000000E+00
  0.00000000E+00  0.00000000E+00  0.00000000E+00
  0.00000000E+00  0.00000000E+00  0.00000000E+00
  0.00000000E+00  0.00000000E+00  0.00000000E+00
  0.00000000E+00  0.00000000E+00  0.00000000E+00
  0.00000000E+00  0.00000000E+00  0.00000000E+00
  0.00000000E+00  0.00000000E+00  0.00000000E+00
  0.00000000E+00  0.00000000E+00  0.00000000E+00
  0.00000000E+00  0.00000000E+00  0.00000000E+00
  0.00000000E+00  0.00000000E+00  0.00000000E+00
  0.00000000E+00  0.00000000E+00  0.00000000E+00
  0.00000000E+00  0.00000000E+00  0.00000000E+00
  0.00000000E+00  0.00000000E+00  0.00000000E+00
  0.00000000E+00  0.00000000E+00  0.00000000E+00
  0.00000000E+00  0.00000000E+00  0.00000000E+00
  0.00000000E+00  0.00000000E+00  0.00000000E+00
  0.00000000E+00  0.00000000E+00  0.00000000E+00
  0.00000000E+00  0.00000000E+00  0.00000000E+00
  0.00000000E+00  0.00000000E+00  0.00000000E+00
  0.00000000E+00  0.00000000E+00  0.00000000E+00
  0.00000000E+00  0.00000000E+00  0.00000000E+00
  0.00000000E+00  0.00000000E+00  0.00000000E+00
  0.00000000E+00  0.00000000E+00  0.00000000E+00
  0.00000000E+00  0.00000000E+00  0.00000000E+00
  0.00000000E+00  0.00000000E+00  0.00000000E+00
  0.00000000E+00  0.00000000E+00  0.00000000E+00
  0.00000000E+00  0.00000000E+00  0.00000000E+00
  0.00000000E+00  0.00000000E+00  0.00000000E+00
  0.00000000E+00  0.00000000E+00  0.00000000E+00
  0.00000000E+00  0.00000000E+00  0.00000000E+00
  0.00000000E+00  0.00000000E+00  0.00000000E+00
  0.00000000E+00  0.00000000E+00  0.00000000E+00
  0.00000000E+00  0.00000000E+00  0.00000000E+00
  0.00000000E+00  0.00000000E+00  0.00000000E+00
  0.00000000E+00  0.00000000E+00  0.00000000E+00
  0.00000000E+00  0.00000000E+00  0.00000000E+00
  0.00000000E+00  0.00000000E+00  0.00000000E+00
  0.00000000E+00  0.00000000E+00  0.00000000E+00
  0.00000000E+00  0.00000000E+00  0.00000000E+00
  0.00000000E+00  0.00000000E+00  0.00000000E+00
  0.00000000E+00  0.00000000E+00  0.00000000E+00
  0.00000000E+00  0.00000000E+00  0.00000000E+00
  0.00000000E+00  0.00000000E+00  0.00000000E+00
  0.00000000E+00  0.00000000E+00  0.00000000E+00
  0.00000000E+00  0.00000000E+00  0.00000000E+00
