Pt  C  F                                
   1.00000000000000     
    11.2480069999999994    0.0000000000000000    0.0000000000000000
    -5.6240030000000001    9.7410599999999992    0.0000000000000000
     0.0000000000000000    0.0000000000000000   24.8879693399999979
   Pt   C    F 
    64     6     6
Selective dynamics
Direct
  0.9999999587182344  0.7499999743354451  0.3013504194553178   F   F   F
  0.2499999964438118  0.0000000000000000  0.3013504194553178   F   F   F
  0.2499999825579735  0.2499999917873410  0.3013504194553178   F   F   F
  0.2499999690478916  0.4999999825481041  0.3013504194553178   F   F   F
  0.2499999551620533  0.7499999743354451  0.3013504194553178   F   F   F
  0.4999999928876306  0.0000000000000000  0.3013504194553178   F   F   F
  0.4999999790017924  0.2499999917873410  0.3013504194553178   F   F   F
  0.4999999654917033  0.4999999825481041  0.3013504194553178   F   F   F
  0.7499999893314424  0.0000000000000000  0.3013504194553178   F   F   F
  0.7499999754456042  0.2499999917873410  0.3013504194553178   F   F   F
  0.7499999619355222  0.4999999825481041  0.3013504194553178   F   F   F
  0.7499999480496840  0.7499999743354451  0.3013504194553178   F   F   F
  0.0000000000000000  0.0000000000000000  0.3013504194553178   F   F   F
  0.9999999861141617  0.2499999917873410  0.3013504194553178   F   F   F
  0.9999999583793340  0.4999999825481041  0.3013504194553178   F   F   F
  0.4999999516058651  0.7499999743354451  0.3013504194553178   F   F   F
  0.0833330000000032  0.1666669999999968  0.3936034172243978   F   F   F
  0.0833330000000032  0.4166669999999968  0.3936034172243978   F   F   F
  0.0833330000000032  0.6666669999999968  0.3936034172243978   F   F   F
  0.0833330000000032  0.9166669999999968  0.3936034172243978   F   F   F
  0.3333330000000032  0.1666669999999968  0.3936034172243978   F   F   F
  0.3333330000000032  0.4166669999999968  0.3936034172243978   F   F   F
  0.3333330000000032  0.6666669999999968  0.3936034172243978   F   F   F
  0.3333330000000032  0.9166669999999968  0.3936034172243978   F   F   F
  0.5833330000000032  0.1666669999999968  0.3936034172243978   F   F   F
  0.5833330000000032  0.4166669999999968  0.3936034172243978   F   F   F
  0.5833330000000032  0.6666669999999968  0.3936034172243978   F   F   F
  0.5833330000000032  0.9166669999999968  0.3936034172243978   F   F   F
  0.8333330000000032  0.1666669999999968  0.3936034172243978   F   F   F
  0.8333330000000032  0.4166669999999968  0.3936034172243978   F   F   F
  0.8333330000000032  0.6666669999999968  0.3936034172243978   F   F   F
  0.8333330000000032  0.9166669999999968  0.3936034172243978   F   F   F
  0.2458048326534436  0.2458069848003964  0.5775579833069577   T   T   T
  0.2430644320056813  0.4981177715032452  0.5767984451335013   T   T   T
  0.2507047294614568  0.7499911897224316  0.5787639244006986   T   T   T
  0.2507219248383837  0.9992786237755005  0.5781154138026957   T   T   T
  0.4977559144885270  0.2429749533821075  0.5768063834569901   T   T   T
  0.4909070847649641  0.4920696863434986  0.5844981923681876   T   T   T
  0.4989410961189092  0.7510590536908539  0.5860323259461228   T   T   T
  0.5000130158706690  0.9992913482939108  0.5787599752822341   T   T   T
  0.7495906065976279  0.2510863894438329  0.5786434115069689   T   T   T
  0.7496380892580463  0.5003653899476501  0.5853069547019824   T   T   T
  0.7579353567879026  0.7590995970726345  0.5844976428881594   T   T   T
  0.7518846285083295  0.0069329149000602  0.5767798611182867   T   T   T
  0.9991379255135938  0.2508614754384912  0.5781928865874671   T   T   T
  0.9989095456734823  0.5004043348341706  0.5786480248631312   T   T   T
  0.0070251523579491  0.7522445708808029  0.5768037385748014   T   T   T
  0.0041983501539864  0.0042095167419781  0.5775480930083643   T   T   T
  0.1675968265999384  0.0824088884237738  0.4841735754814608   T   T   T
  0.1665328182252747  0.3331109577828803  0.4845832636429943   T   T   T
  0.1659053973768629  0.5837847110743071  0.4845856240923538   T   T   T
  0.1677312024053022  0.8326700225765155  0.4842244998919139   T   T   T
  0.4173323818444570  0.0822655661913680  0.4842253186525208   T   T   T
  0.4183057087485305  0.3365810171021049  0.4865012072229342   T   T   T
  0.4187241534730060  0.5832929216824675  0.4879551835357088   T   T   T
  0.4197154031959380  0.8302851159146559  0.4872461988164870   T   T   T
  0.6662123903535691  0.0840951124212637  0.4845765102783086   T   T   T
  0.6676527611364991  0.3368266657131935  0.4866943271635463   T   T   T
  0.6659385136010068  0.5840627598410816  0.4884381208405145   T   T   T
  0.6667092376811746  0.8312763767247981  0.4879502665814430   T   T   T
  0.9168948828271469  0.0834753016546212  0.4845746737786316   T   T   T
  0.9161963069690715  0.3338050217544469  0.4851524744669023   T   T   T
  0.9131714250400272  0.5823440179403319  0.4866950430510636   T   T   T
  0.9134138769751831  0.8316982768910754  0.4864974275916378   T   T   T
  0.6978159117513414  0.7723385855472730  0.6644626992160055   T   T   T
  0.7723276849102224  0.6981855233544918  0.6643106040697959   T   T   T
  0.7060922506267232  0.5439105315909515  0.6621622908193217   T   T   T
  0.5518197912410598  0.4776732844089813  0.6643087474132312   T   T   T
  0.4776659692244344  0.5521802508059263  0.6644652459310753   T   T   T
  0.5436515693250650  0.7063389162731377  0.6624384722823409   T   T   T
  0.7606387333846200  0.8957608033427071  0.6896248097879044   T   T   T
  0.8956618450592553  0.7607468491892623  0.6895638909551602   T   T   T
  0.7535018490154631  0.4964922664294056  0.7033903074701645   T   T   T
  0.4892543453026869  0.3543370265073048  0.6895641498453879   T   T   T
  0.3542399351792805  0.4893556974311243  0.6896234787044997   T   T   T
  0.4964898087567566  0.7534964069087630  0.7038969686884671   T   T   T
 
  0.00000000E+00  0.00000000E+00  0.00000000E+00
  0.00000000E+00  0.00000000E+00  0.00000000E+00
  0.00000000E+00  0.00000000E+00  0.00000000E+00
  0.00000000E+00  0.00000000E+00  0.00000000E+00
  0.00000000E+00  0.00000000E+00  0.00000000E+00
  0.00000000E+00  0.00000000E+00  0.00000000E+00
  0.00000000E+00  0.00000000E+00  0.00000000E+00
  0.00000000E+00  0.00000000E+00  0.00000000E+00
  0.00000000E+00  0.00000000E+00  0.00000000E+00
  0.00000000E+00  0.00000000E+00  0.00000000E+00
  0.00000000E+00  0.00000000E+00  0.00000000E+00
  0.00000000E+00  0.00000000E+00  0.00000000E+00
  0.00000000E+00  0.00000000E+00  0.00000000E+00
  0.00000000E+00  0.00000000E+00  0.00000000E+00
  0.00000000E+00  0.00000000E+00  0.00000000E+00
  0.00000000E+00  0.00000000E+00  0.00000000E+00
  0.00000000E+00  0.00000000E+00  0.00000000E+00
  0.00000000E+00  0.00000000E+00  0.00000000E+00
  0.00000000E+00  0.00000000E+00  0.00000000E+00
  0.00000000E+00  0.00000000E+00  0.00000000E+00
  0.00000000E+00  0.00000000E+00  0.00000000E+00
  0.00000000E+00  0.00000000E+00  0.00000000E+00
  0.00000000E+00  0.00000000E+00  0.00000000E+00
  0.00000000E+00  0.00000000E+00  0.00000000E+00
  0.00000000E+00  0.00000000E+00  0.00000000E+00
  0.00000000E+00  0.00000000E+00  0.00000000E+00
  0.00000000E+00  0.00000000E+00  0.00000000E+00
  0.00000000E+00  0.00000000E+00  0.00000000E+00
  0.00000000E+00  0.00000000E+00  0.00000000E+00
  0.00000000E+00  0.00000000E+00  0.00000000E+00
  0.00000000E+00  0.00000000E+00  0.00000000E+00
  0.00000000E+00  0.00000000E+00  0.00000000E+00
  0.00000000E+00  0.00000000E+00  0.00000000E+00
  0.00000000E+00  0.00000000E+00  0.00000000E+00
  0.00000000E+00  0.00000000E+00  0.00000000E+00
  0.00000000E+00  0.00000000E+00  0.00000000E+00
  0.00000000E+00  0.00000000E+00  0.00000000E+00
  0.00000000E+00  0.00000000E+00  0.00000000E+00
  0.00000000E+00  0.00000000E+00  0.00000000E+00
  0.00000000E+00  0.00000000E+00  0.00000000E+00
  0.00000000E+00  0.00000000E+00  0.00000000E+00
  0.00000000E+00  0.00000000E+00  0.00000000E+00
  0.00000000E+00  0.00000000E+00  0.00000000E+00
  0.00000000E+00  0.00000000E+00  0.00000000E+00
  0.00000000E+00  0.00000000E+00  0.00000000E+00
  0.00000000E+00  0.00000000E+00  0.00000000E+00
  0.00000000E+00  0.00000000E+00  0.00000000E+00
  0.00000000E+00  0.00000000E+00  0.00000000E+00
  0.00000000E+00  0.00000000E+00  0.00000000E+00
  0.00000000E+00  0.00000000E+00  0.00000000E+00
  0.00000000E+00  0.00000000E+00  0.00000000E+00
  0.00000000E+00  0.00000000E+00  0.00000000E+00
  0.00000000E+00  0.00000000E+00  0.00000000E+00
  0.00000000E+00  0.00000000E+00  0.00000000E+00
  0.00000000E+00  0.00000000E+00  0.00000000E+00
  0.00000000E+00  0.00000000E+00  0.00000000E+00
  0.00000000E+00  0.00000000E+00  0.00000000E+00
  0.00000000E+00  0.00000000E+00  0.00000000E+00
  0.00000000E+00  0.00000000E+00  0.00000000E+00
  0.00000000E+00  0.00000000E+00  0.00000000E+00
  0.00000000E+00  0.00000000E+00  0.00000000E+00
  0.00000000E+00  0.00000000E+00  0.00000000E+00
  0.00000000E+00  0.00000000E+00  0.00000000E+00
  0.00000000E+00  0.00000000E+00  0.00000000E+00
  0.00000000E+00  0.00000000E+00  0.00000000E+00
  0.00000000E+00  0.00000000E+00  0.00000000E+00
  0.00000000E+00  0.00000000E+00  0.00000000E+00
  0.00000000E+00  0.00000000E+00  0.00000000E+00
  0.00000000E+00  0.00000000E+00  0.00000000E+00
  0.00000000E+00  0.00000000E+00  0.00000000E+00
  0.00000000E+00  0.00000000E+00  0.00000000E+00
  0.00000000E+00  0.00000000E+00  0.00000000E+00
  0.00000000E+00  0.00000000E+00  0.00000000E+00
  0.00000000E+00  0.00000000E+00  0.00000000E+00
  0.00000000E+00  0.00000000E+00  0.00000000E+00
  0.00000000E+00  0.00000000E+00  0.00000000E+00
