Ir48 C4 N2 Cl4                          
    1.000000000000000     
    10.9622135000000007    0.0000000000000000    0.0000000000000000
     0.0000000000000000   10.9622135000000007    0.0000000000000000
     0.0000000000000000    0.0000000000000000   16.7325000400000015
   Ir   C    N    Cl
    48     4     2     4
Selective dynamics
Direct
  0.9996260848027561  0.2499621537183643  0.4102247571730402   T   T   T
  0.9999987058330220  0.4999989003034244  0.4103257213378484   T   T   T
  0.0003730214704589  0.7500389563108598  0.4102219113929451   T   T   T
  0.9999999742201879  0.9999984691420138  0.4101613595840163   T   T   T
  0.2498877064731104  0.2498910411429165  0.4101830288499997   T   T   T
  0.2500230600911593  0.4999018386742478  0.4099476183192152   T   T   T
  0.2499667769194858  0.7500312587615880  0.4102554992251228   T   T   T
  0.2499593337146564  0.9996237469015838  0.4102226868839125   T   T   T
  0.4998979627798050  0.2500243237547650  0.4099493016424560   T   T   T
  0.4999991610444354  0.5000022872024061  0.4101745845973710   T   T   T
  0.5000980916895017  0.7499748134782678  0.4099462186317808   T   T   T
  0.4999979149234193  0.9999978039986956  0.4103240904157488   T   T   T
  0.7500335492683661  0.2499702226044960  0.4102590193230213   T   T   T
  0.7499757851982238  0.5001017337746347  0.4099492949609100   T   T   T
  0.7501098640001942  0.7501078998739459  0.4101806961343328   T   T   T
  0.7500393582962133  0.0003701343495308  0.4102222610923221   T   T   T
  0.1249437365225958  0.1249457085039012  0.5216187938811032   T   T   T
  0.1248545333706943  0.3746691020077506  0.5216629848429477   T   T   T
  0.1250576857981827  0.6249094902000323  0.5221078162751169   T   T   T
  0.1250057695589604  0.8749932417226702  0.5218054249119604   T   T   T
  0.3746687030535725  0.1248559100919806  0.5216635484234757   T   T   T
  0.3742730751653838  0.3742733270878631  0.5220331194604455   T   T   T
  0.3753203514989991  0.6246767775907784  0.5208560203018209   T   T   T
  0.3750865689232654  0.8749406538045434  0.5221088858165643   T   T   T
  0.6249111342071885  0.1250597407752494  0.5221091465877734   T   T   T
  0.6246782919599241  0.3753208297676451  0.5208549122280175   T   T   T
  0.6257265539765910  0.6257236848049743  0.5220344597216382   T   T   T
  0.6253297680770800  0.8751446059307071  0.5216644196153055   T   T   T
  0.8749923268182300  0.1250076845616235  0.5218081245158643   T   T   T
  0.8749397282373721  0.3750879043025890  0.5221075623016986   T   T   T
  0.8751431715986016  0.6253280294191157  0.5216622919426683   T   T   T
  0.8750537330464283  0.8750542406180983  0.5216200683881667   T   T   T
  0.1250000002280558  0.1250000002280558  0.2988196616194330   F   F   F
  0.1250000002280558  0.3749999997719442  0.2988196616194330   F   F   F
  0.1250000002280558  0.6249999993158326  0.2988196616194330   F   F   F
  0.1250000002280558  0.8749999988597210  0.2988196616194330   F   F   F
  0.3749999997719442  0.1250000002280558  0.2988196616194330   F   F   F
  0.3749999997719442  0.3749999997719442  0.2988196616194330   F   F   F
  0.3749999997719442  0.6249999993158326  0.2988196616194330   F   F   F
  0.3749999997719442  0.8749999988597210  0.2988196616194330   F   F   F
  0.6249999993158326  0.1250000002280558  0.2988196616194330   F   F   F
  0.6249999993158326  0.3749999997719442  0.2988196616194330   F   F   F
  0.6249999993158326  0.6249999993158326  0.2988196616194330   F   F   F
  0.6249999993158326  0.8749999988597210  0.2988196616194330   F   F   F
  0.8749999988597210  0.1250000002280558  0.2988196616194330   F   F   F
  0.8749999988597210  0.3749999997719442  0.2988196616194330   F   F   F
  0.8749999988597210  0.6249999993158326  0.2988196616194330   F   F   F
  0.8749999988597210  0.8749999988597210  0.2988196616194330   F   F   F
  0.5283797291824399  0.3802191660850553  0.6996249294482055   T   T   T
  0.6197988362171003  0.4716426140956287  0.6996259896275561   T   T   T
  0.4716337916802402  0.6197937161433416  0.6996280856763164   T   T   T
  0.3802134560606802  0.5283687843477196  0.6996262145459866   T   T   T
  0.5892879296135689  0.5892729980734330  0.6980164510784945   T   T   T
  0.4107204869007290  0.4107534811459104  0.6980121988950785   T   T   T
  0.2281893628637448  0.5629705000419776  0.7094567000898024   T   T   T
  0.4370466076783899  0.7718473993447148  0.7094641071417840   T   T   T
  0.5629772046647901  0.2281670800227218  0.7094562528372137   T   T   T
  0.7718248150272728  0.4370379045395794  0.7094567806340848   T   T   T
 
  0.00000000E+00  0.00000000E+00  0.00000000E+00
  0.00000000E+00  0.00000000E+00  0.00000000E+00
  0.00000000E+00  0.00000000E+00  0.00000000E+00
  0.00000000E+00  0.00000000E+00  0.00000000E+00
  0.00000000E+00  0.00000000E+00  0.00000000E+00
  0.00000000E+00  0.00000000E+00  0.00000000E+00
  0.00000000E+00  0.00000000E+00  0.00000000E+00
  0.00000000E+00  0.00000000E+00  0.00000000E+00
  0.00000000E+00  0.00000000E+00  0.00000000E+00
  0.00000000E+00  0.00000000E+00  0.00000000E+00
  0.00000000E+00  0.00000000E+00  0.00000000E+00
  0.00000000E+00  0.00000000E+00  0.00000000E+00
  0.00000000E+00  0.00000000E+00  0.00000000E+00
  0.00000000E+00  0.00000000E+00  0.00000000E+00
  0.00000000E+00  0.00000000E+00  0.00000000E+00
  0.00000000E+00  0.00000000E+00  0.00000000E+00
  0.00000000E+00  0.00000000E+00  0.00000000E+00
  0.00000000E+00  0.00000000E+00  0.00000000E+00
  0.00000000E+00  0.00000000E+00  0.00000000E+00
  0.00000000E+00  0.00000000E+00  0.00000000E+00
  0.00000000E+00  0.00000000E+00  0.00000000E+00
  0.00000000E+00  0.00000000E+00  0.00000000E+00
  0.00000000E+00  0.00000000E+00  0.00000000E+00
  0.00000000E+00  0.00000000E+00  0.00000000E+00
  0.00000000E+00  0.00000000E+00  0.00000000E+00
  0.00000000E+00  0.00000000E+00  0.00000000E+00
  0.00000000E+00  0.00000000E+00  0.00000000E+00
  0.00000000E+00  0.00000000E+00  0.00000000E+00
  0.00000000E+00  0.00000000E+00  0.00000000E+00
  0.00000000E+00  0.00000000E+00  0.00000000E+00
  0.00000000E+00  0.00000000E+00  0.00000000E+00
  0.00000000E+00  0.00000000E+00  0.00000000E+00
  0.00000000E+00  0.00000000E+00  0.00000000E+00
  0.00000000E+00  0.00000000E+00  0.00000000E+00
  0.00000000E+00  0.00000000E+00  0.00000000E+00
  0.00000000E+00  0.00000000E+00  0.00000000E+00
  0.00000000E+00  0.00000000E+00  0.00000000E+00
  0.00000000E+00  0.00000000E+00  0.00000000E+00
  0.00000000E+00  0.00000000E+00  0.00000000E+00
  0.00000000E+00  0.00000000E+00  0.00000000E+00
  0.00000000E+00  0.00000000E+00  0.00000000E+00
  0.00000000E+00  0.00000000E+00  0.00000000E+00
  0.00000000E+00  0.00000000E+00  0.00000000E+00
  0.00000000E+00  0.00000000E+00  0.00000000E+00
  0.00000000E+00  0.00000000E+00  0.00000000E+00
  0.00000000E+00  0.00000000E+00  0.00000000E+00
  0.00000000E+00  0.00000000E+00  0.00000000E+00
  0.00000000E+00  0.00000000E+00  0.00000000E+00
  0.00000000E+00  0.00000000E+00  0.00000000E+00
  0.00000000E+00  0.00000000E+00  0.00000000E+00
  0.00000000E+00  0.00000000E+00  0.00000000E+00
  0.00000000E+00  0.00000000E+00  0.00000000E+00
  0.00000000E+00  0.00000000E+00  0.00000000E+00
  0.00000000E+00  0.00000000E+00  0.00000000E+00
  0.00000000E+00  0.00000000E+00  0.00000000E+00
  0.00000000E+00  0.00000000E+00  0.00000000E+00
  0.00000000E+00  0.00000000E+00  0.00000000E+00
  0.00000000E+00  0.00000000E+00  0.00000000E+00
