Ag48 C6 H2 Cl4                          
    1.000000000000000     
    11.7702790000000004    0.0000000000000000    0.0000000000000000
     0.0000000000000000   16.6456881000000010    0.0000000000000000
     0.0000000000000000    0.0000000000000000   15.7072424900000005
   Ag   C    H    Cl
    48     6     2     4
Selective dynamics
Direct
  0.9999710320361999  0.2501231424866219  0.4045174537032494   T   T   T
  0.9999991468609011  0.5000020883257577  0.4045833911117143   T   T   T
  0.0000279278050641  0.7498748755659008  0.4045155636718576   T   T   T
  0.9999996872602352  0.9999998093571136  0.4043863044261329   T   T   T
  0.2501199656962996  0.2501518521886368  0.4047843075702389   T   T   T
  0.2500518101600662  0.4999442285104365  0.4043256858951167   T   T   T
  0.2497258795309421  0.7501303435777800  0.4042471737351292   T   T   T
  0.2499662599401020  0.0000239265470157  0.4044851099918105   T   T   T
  0.4997575478743101  0.2498711122627384  0.4042095731265150   T   T   T
  0.4999986202494568  0.5000031676443371  0.4044507642123349   T   T   T
  0.5002407316674109  0.7501256161306173  0.4042065290776407   T   T   T
  0.5000001242164416  0.9999999539692297  0.4044408125853636   T   T   T
  0.7502762201323989  0.2498662185419320  0.4042495052132011   T   T   T
  0.7499506182010194  0.5000613361917701  0.4043253105613260   T   T   T
  0.7498807229418460  0.7498461399591037  0.4047818051943395   T   T   T
  0.7500339406838350  0.9999758461125765  0.4044849479363180   T   T   T
  0.1250529520793791  0.1250160017034361  0.4905638602284341   T   T   T
  0.1250796199628894  0.3751798936503192  0.4908766823281354   T   T   T
  0.1245687066709635  0.6247981977709571  0.4908548824767891   T   T   T
  0.1250887062824404  0.8749163295592410  0.4905739587352329   T   T   T
  0.3751129509390481  0.1251648688680831  0.4906460618376087   T   T   T
  0.3749748307003955  0.3755696709342402  0.4908364695704748   T   T   T
  0.3745246593969682  0.6251616480925435  0.4892495118919697   T   T   T
  0.3750825576823686  0.8749060355298184  0.4905586092175938   T   T   T
  0.6249175592177707  0.1250934629425231  0.4905587619140093   T   T   T
  0.6254750899251675  0.3748379515565290  0.4892633235506736   T   T   T
  0.6250243009069081  0.6244320256026867  0.4908278140698741   T   T   T
  0.6248867485779073  0.8748346765454116  0.4906455853340859   T   T   T
  0.8749114868519143  0.1250833616771985  0.4905740356660928   T   T   T
  0.8754319585784387  0.3752014300865483  0.4908576092996526   T   T   T
  0.8749206468742869  0.6248207106957651  0.4908677198992990   T   T   T
  0.8749469745306300  0.8749837985985636  0.4905619176444986   T   T   T
  0.1249999995752020  0.1250000004505694  0.3183244928690243   F   F   F
  0.1249999995752020  0.3750000007509442  0.3183244928690243   F   F   F
  0.1249999995752020  0.6250000016520829  0.3183244928690243   F   F   F
  0.1249999995752020  0.8750000019524578  0.3183244928690243   F   F   F
  0.3749999987256061  0.1250000004505694  0.3183244928690243   F   F   F
  0.3749999987256061  0.3750000007509442  0.3183244928690243   F   F   F
  0.3749999987256061  0.6250000016520829  0.3183244928690243   F   F   F
  0.3749999987256061  0.8750000019524578  0.3183244928690243   F   F   F
  0.6249999978760030  0.1250000004505694  0.3183244928690243   F   F   F
  0.6249999978760030  0.3750000007509442  0.3183244928690243   F   F   F
  0.6249999978760030  0.6250000016520829  0.3183244928690243   F   F   F
  0.6249999978760030  0.8750000019524578  0.3183244928690243   F   F   F
  0.8749999970264071  0.1250000004505694  0.3183244928690243   F   F   F
  0.8749999970264071  0.3750000007509442  0.3183244928690243   F   F   F
  0.8749999970264071  0.6250000016520829  0.3183244928690243   F   F   F
  0.8749999970264071  0.8750000019524578  0.3183244928690243   F   F   F
  0.4314959667128022  0.4316465121950372  0.6807111484406434   T   T   T
  0.3810276178069429  0.5076200790417644  0.6815865517796240   T   T   T
  0.4502348848243543  0.5763353099658275  0.6819674394182371   T   T   T
  0.5684996412180041  0.5683532474233957  0.6806946354575061   T   T   T
  0.6189703404927940  0.4923792861952165  0.6815545563963425   T   T   T
  0.5497632302818545  0.4236631721638986  0.6819537510113705   T   T   T
  0.3782004297919741  0.3780799693570316  0.6814213214034197   T   T   T
  0.6217987921820836  0.6219209172267028  0.6813921765428006   T   T   T
  0.2355342799408007  0.5147261452041434  0.6811751843203240   T   T   T
  0.3922501275339130  0.6712921765533224  0.6831342432416818   T   T   T
  0.7644627851581802  0.4852743976269025  0.6810991836413507   T   T   T
  0.6077478460684347  0.3287099043754367  0.6831063659292909   T   T   T
 
  0.00000000E+00  0.00000000E+00  0.00000000E+00
  0.00000000E+00  0.00000000E+00  0.00000000E+00
  0.00000000E+00  0.00000000E+00  0.00000000E+00
  0.00000000E+00  0.00000000E+00  0.00000000E+00
  0.00000000E+00  0.00000000E+00  0.00000000E+00
  0.00000000E+00  0.00000000E+00  0.00000000E+00
  0.00000000E+00  0.00000000E+00  0.00000000E+00
  0.00000000E+00  0.00000000E+00  0.00000000E+00
  0.00000000E+00  0.00000000E+00  0.00000000E+00
  0.00000000E+00  0.00000000E+00  0.00000000E+00
  0.00000000E+00  0.00000000E+00  0.00000000E+00
  0.00000000E+00  0.00000000E+00  0.00000000E+00
  0.00000000E+00  0.00000000E+00  0.00000000E+00
  0.00000000E+00  0.00000000E+00  0.00000000E+00
  0.00000000E+00  0.00000000E+00  0.00000000E+00
  0.00000000E+00  0.00000000E+00  0.00000000E+00
  0.00000000E+00  0.00000000E+00  0.00000000E+00
  0.00000000E+00  0.00000000E+00  0.00000000E+00
  0.00000000E+00  0.00000000E+00  0.00000000E+00
  0.00000000E+00  0.00000000E+00  0.00000000E+00
  0.00000000E+00  0.00000000E+00  0.00000000E+00
  0.00000000E+00  0.00000000E+00  0.00000000E+00
  0.00000000E+00  0.00000000E+00  0.00000000E+00
  0.00000000E+00  0.00000000E+00  0.00000000E+00
  0.00000000E+00  0.00000000E+00  0.00000000E+00
  0.00000000E+00  0.00000000E+00  0.00000000E+00
  0.00000000E+00  0.00000000E+00  0.00000000E+00
  0.00000000E+00  0.00000000E+00  0.00000000E+00
  0.00000000E+00  0.00000000E+00  0.00000000E+00
  0.00000000E+00  0.00000000E+00  0.00000000E+00
  0.00000000E+00  0.00000000E+00  0.00000000E+00
  0.00000000E+00  0.00000000E+00  0.00000000E+00
  0.00000000E+00  0.00000000E+00  0.00000000E+00
  0.00000000E+00  0.00000000E+00  0.00000000E+00
  0.00000000E+00  0.00000000E+00  0.00000000E+00
  0.00000000E+00  0.00000000E+00  0.00000000E+00
  0.00000000E+00  0.00000000E+00  0.00000000E+00
  0.00000000E+00  0.00000000E+00  0.00000000E+00
  0.00000000E+00  0.00000000E+00  0.00000000E+00
  0.00000000E+00  0.00000000E+00  0.00000000E+00
  0.00000000E+00  0.00000000E+00  0.00000000E+00
  0.00000000E+00  0.00000000E+00  0.00000000E+00
  0.00000000E+00  0.00000000E+00  0.00000000E+00
  0.00000000E+00  0.00000000E+00  0.00000000E+00
  0.00000000E+00  0.00000000E+00  0.00000000E+00
  0.00000000E+00  0.00000000E+00  0.00000000E+00
  0.00000000E+00  0.00000000E+00  0.00000000E+00
  0.00000000E+00  0.00000000E+00  0.00000000E+00
  0.00000000E+00  0.00000000E+00  0.00000000E+00
  0.00000000E+00  0.00000000E+00  0.00000000E+00
  0.00000000E+00  0.00000000E+00  0.00000000E+00
  0.00000000E+00  0.00000000E+00  0.00000000E+00
  0.00000000E+00  0.00000000E+00  0.00000000E+00
  0.00000000E+00  0.00000000E+00  0.00000000E+00
  0.00000000E+00  0.00000000E+00  0.00000000E+00
  0.00000000E+00  0.00000000E+00  0.00000000E+00
  0.00000000E+00  0.00000000E+00  0.00000000E+00
  0.00000000E+00  0.00000000E+00  0.00000000E+00
  0.00000000E+00  0.00000000E+00  0.00000000E+00
  0.00000000E+00  0.00000000E+00  0.00000000E+00
