Cu  C  H  F                             
   1.00000000000000     
    10.2424769999999992    0.0000000000000000    0.0000000000000000
    -5.1212390000000001    8.8702459999999999    0.0000000000000000
     0.0000000000000000    0.0000000000000000   24.2722108799999958
   Cu   C    H    F 
    64     6     2     4
Selective dynamics
Direct
  0.7500000436217675  0.9999999661790682  0.3089953377992387   F   F   F
  0.0000000023248248  0.2499999909810811  0.3089953377992387   F   F   F
  0.0000000042370090  0.4999999830895305  0.3089953377992387   F   F   F
  0.0000000055855054  0.7499999740706187  0.3089953377992387   F   F   F
  0.0000000084740179  0.9999999661790682  0.3089953377992387   F   F   F
  0.2500000140407437  0.2499999909810811  0.3089953377992387   F   F   F
  0.2500000159529208  0.4999999830895305  0.3089953377992387   F   F   F
  0.2500000173014243  0.7499999740706187  0.3089953377992387   F   F   F
  0.5000000257566555  0.2499999909810811  0.3089953377992387   F   F   F
  0.5000000276688397  0.4999999830895305  0.3089953377992387   F   F   F
  0.5000000290173432  0.7499999740706187  0.3089953377992387   F   F   F
  0.5000000319058486  0.9999999661790682  0.3089953377992387   F   F   F
  0.7500000374725744  0.2499999909810811  0.3089953377992387   F   F   F
  0.7500000393847586  0.4999999830895305  0.3089953377992387   F   F   F
  0.7500000417095833  0.7499999740706187  0.3089953377992387   F   F   F
  0.2500000201899297  0.9999999661790682  0.3089953377992387   F   F   F
  0.0833330000000032  0.1666669999999968  0.3951324008931820   F   F   F
  0.0833330000000032  0.4166669999999968  0.3951324008931820   F   F   F
  0.0833330000000032  0.6666669999999968  0.3951324008931820   F   F   F
  0.0833330000000032  0.9166669999999968  0.3951324008931820   F   F   F
  0.3333330000000032  0.1666669999999968  0.3951324008931820   F   F   F
  0.3333330000000032  0.4166669999999968  0.3951324008931820   F   F   F
  0.3333330000000032  0.6666669999999968  0.3951324008931820   F   F   F
  0.3333330000000032  0.9166669999999968  0.3951324008931820   F   F   F
  0.5833330000000032  0.1666669999999968  0.3951324008931820   F   F   F
  0.5833330000000032  0.4166669999999968  0.3951324008931820   F   F   F
  0.5833330000000032  0.6666669999999968  0.3951324008931820   F   F   F
  0.5833330000000032  0.9166669999999968  0.3951324008931820   F   F   F
  0.8333330000000032  0.1666669999999968  0.3951324008931820   F   F   F
  0.8333330000000032  0.4166669999999968  0.3951324008931820   F   F   F
  0.8333330000000032  0.6666669999999968  0.3951324008931820   F   F   F
  0.8333330000000032  0.9166669999999968  0.3951324008931820   F   F   F
  0.9992260769590462  0.9991926671292300  0.5647753461839746   T   T   T
  0.9989868191742782  0.2492967341088179  0.5649138358883659   T   T   T
 -0.0005210161157904  0.4992798311233622  0.5648804212221572   T   T   T
 -0.0004406570216236  0.7493608574372361  0.5650083504992131   T   T   T
  0.2493319573486550  0.9992529947565119  0.5650648276506829   T   T   T
  0.2490809142596402  0.2490787249565478  0.5639666359753585   T   T   T
  0.2494666638245889  0.4994197420177419  0.5649176736274876   T   T   T
  0.2494648131298421  0.7492861531463696  0.5649783126932464   T   T   T
  0.4993180232372899 -0.0003413905509061  0.5649777780719942   T   T   T
  0.4993039849643274  0.2496459940145752  0.5651355349000319   T   T   T
  0.4996775514121494  0.4997742611868468  0.5640362155285424   T   T   T
  0.4995167100283933  0.7498641219021290  0.5648763541543570   T   T   T
  0.7493019277090803 -0.0004048179565137  0.5649846128325215   T   T   T
  0.7491891047364656  0.2495149385254137  0.5650407927432657   T   T   T
  0.7496796313243604  0.4996268222931000  0.5649918545402934   T   T   T
  0.7495924217613151  0.7496477258536107  0.5648924895641374   T   T   T
  0.1661770153656938  0.0825729654911042  0.4799027492693446   T   T   T
  0.1661428496465846  0.3331027098116093  0.4799718648573413   T   T   T
  0.1662572019774431  0.5830000339929038  0.4800571048563435   T   T   T
  0.1663845382037467  0.8329428009655797  0.4800867312323167   T   T   T
  0.4162335709578245  0.0830434470517519  0.4801560206322796   T   T   T
  0.4163552065128267  0.3328484478666314  0.4798605572923523   T   T   T
  0.4161037261737353  0.5831039674587393  0.4799356399281355   T   T   T
  0.4163577435443417  0.8330819567757269  0.4800373908378138   T   T   T
  0.6662427071997264  0.0830475405727414  0.4800652544300369   T   T   T
  0.6662028622060234  0.3330932189504938  0.4801547779382587   T   T   T
  0.6666602750646338  0.5832063751771470  0.4799449205658591   T   T   T
  0.6663802181085821  0.8330628654205607  0.4800827710964006   T   T   T
  0.9162587894517581  0.0829715052449381  0.4800659671495375   T   T   T
  0.9160585273932434  0.3328210451087520  0.4800376680165151   T   T   T
  0.9163521651500949  0.5829716912275714  0.4800524552957509   T   T   T
  0.9164150907621661  0.8328778161149637  0.4800181072261743   T   T   T
  0.2995954200934192  0.4578658889807179  0.6869280115817682   T   T   T
  0.4566059190610976  0.5343106941270858  0.6884384252003709   T   T   T
  0.5346205842062152  0.4549002154395546  0.6894407275355346   T   T   T
  0.4570129781186448  0.2979438633999701  0.6897479279300848   T   T   T
  0.3000906770116625  0.2216054423187126  0.6895624206207075   T   T   T
  0.2220627223838973  0.3009781736544008  0.6879783683866763   T   T   T
  0.2385500369137023  0.5198106743057119  0.6862097222237324   T   T   T
  0.5178883727768564  0.2359099320650196  0.6904900349872612   T   T   T
  0.5338771744300350  0.6867312603221741  0.6897132668960789   T   T   T
  0.6870729044692943  0.5315298135670653  0.6905447776436239   T   T   T
  0.2221415198970021  0.0692798582331362  0.6910454926482553   T   T   T
  0.0694933178370998  0.2243427727622850  0.6878006978709214   T   T   T
 
  0.00000000E+00  0.00000000E+00  0.00000000E+00
  0.00000000E+00  0.00000000E+00  0.00000000E+00
  0.00000000E+00  0.00000000E+00  0.00000000E+00
  0.00000000E+00  0.00000000E+00  0.00000000E+00
  0.00000000E+00  0.00000000E+00  0.00000000E+00
  0.00000000E+00  0.00000000E+00  0.00000000E+00
  0.00000000E+00  0.00000000E+00  0.00000000E+00
  0.00000000E+00  0.00000000E+00  0.00000000E+00
  0.00000000E+00  0.00000000E+00  0.00000000E+00
  0.00000000E+00  0.00000000E+00  0.00000000E+00
  0.00000000E+00  0.00000000E+00  0.00000000E+00
  0.00000000E+00  0.00000000E+00  0.00000000E+00
  0.00000000E+00  0.00000000E+00  0.00000000E+00
  0.00000000E+00  0.00000000E+00  0.00000000E+00
  0.00000000E+00  0.00000000E+00  0.00000000E+00
  0.00000000E+00  0.00000000E+00  0.00000000E+00
  0.00000000E+00  0.00000000E+00  0.00000000E+00
  0.00000000E+00  0.00000000E+00  0.00000000E+00
  0.00000000E+00  0.00000000E+00  0.00000000E+00
  0.00000000E+00  0.00000000E+00  0.00000000E+00
  0.00000000E+00  0.00000000E+00  0.00000000E+00
  0.00000000E+00  0.00000000E+00  0.00000000E+00
  0.00000000E+00  0.00000000E+00  0.00000000E+00
  0.00000000E+00  0.00000000E+00  0.00000000E+00
  0.00000000E+00  0.00000000E+00  0.00000000E+00
  0.00000000E+00  0.00000000E+00  0.00000000E+00
  0.00000000E+00  0.00000000E+00  0.00000000E+00
  0.00000000E+00  0.00000000E+00  0.00000000E+00
  0.00000000E+00  0.00000000E+00  0.00000000E+00
  0.00000000E+00  0.00000000E+00  0.00000000E+00
  0.00000000E+00  0.00000000E+00  0.00000000E+00
  0.00000000E+00  0.00000000E+00  0.00000000E+00
  0.00000000E+00  0.00000000E+00  0.00000000E+00
  0.00000000E+00  0.00000000E+00  0.00000000E+00
  0.00000000E+00  0.00000000E+00  0.00000000E+00
  0.00000000E+00  0.00000000E+00  0.00000000E+00
  0.00000000E+00  0.00000000E+00  0.00000000E+00
  0.00000000E+00  0.00000000E+00  0.00000000E+00
  0.00000000E+00  0.00000000E+00  0.00000000E+00
  0.00000000E+00  0.00000000E+00  0.00000000E+00
  0.00000000E+00  0.00000000E+00  0.00000000E+00
  0.00000000E+00  0.00000000E+00  0.00000000E+00
  0.00000000E+00  0.00000000E+00  0.00000000E+00
  0.00000000E+00  0.00000000E+00  0.00000000E+00
  0.00000000E+00  0.00000000E+00  0.00000000E+00
  0.00000000E+00  0.00000000E+00  0.00000000E+00
  0.00000000E+00  0.00000000E+00  0.00000000E+00
  0.00000000E+00  0.00000000E+00  0.00000000E+00
  0.00000000E+00  0.00000000E+00  0.00000000E+00
  0.00000000E+00  0.00000000E+00  0.00000000E+00
  0.00000000E+00  0.00000000E+00  0.00000000E+00
  0.00000000E+00  0.00000000E+00  0.00000000E+00
  0.00000000E+00  0.00000000E+00  0.00000000E+00
  0.00000000E+00  0.00000000E+00  0.00000000E+00
  0.00000000E+00  0.00000000E+00  0.00000000E+00
  0.00000000E+00  0.00000000E+00  0.00000000E+00
  0.00000000E+00  0.00000000E+00  0.00000000E+00
  0.00000000E+00  0.00000000E+00  0.00000000E+00
  0.00000000E+00  0.00000000E+00  0.00000000E+00
  0.00000000E+00  0.00000000E+00  0.00000000E+00
  0.00000000E+00  0.00000000E+00  0.00000000E+00
  0.00000000E+00  0.00000000E+00  0.00000000E+00
  0.00000000E+00  0.00000000E+00  0.00000000E+00
  0.00000000E+00  0.00000000E+00  0.00000000E+00
  0.00000000E+00  0.00000000E+00  0.00000000E+00
  0.00000000E+00  0.00000000E+00  0.00000000E+00
  0.00000000E+00  0.00000000E+00  0.00000000E+00
  0.00000000E+00  0.00000000E+00  0.00000000E+00
  0.00000000E+00  0.00000000E+00  0.00000000E+00
  0.00000000E+00  0.00000000E+00  0.00000000E+00
  0.00000000E+00  0.00000000E+00  0.00000000E+00
  0.00000000E+00  0.00000000E+00  0.00000000E+00
  0.00000000E+00  0.00000000E+00  0.00000000E+00
  0.00000000E+00  0.00000000E+00  0.00000000E+00
  0.00000000E+00  0.00000000E+00  0.00000000E+00
  0.00000000E+00  0.00000000E+00  0.00000000E+00
