Cu48 C6 F2 H4                           
    1.000000000000000     
    10.2424774999999997    0.0000000000000000    0.0000000000000000
     0.0000000000000000   10.2424774999999997    0.0000000000000000
     0.0000000000000000    0.0000000000000000   16.5496807100000005
   Cu   C    F    H 
    48     6     2     4
Selective dynamics
Direct
  0.2497439207589238  0.9998230072306171  0.4091451494199703   T   T   T
  0.2498521324134160  0.2498421728808822  0.4089552087212311   T   T   T
  0.2501928288700341  0.5003425562822201  0.4092715954809094   T   T   T
  0.2500347422023950  0.7499719680476176  0.4094939239073199   T   T   T
  0.5000096216180481  0.9999912454721454  0.4089365205779742   T   T   T
  0.5003399380614439  0.2501849272806709  0.4092619500296308   T   T   T
  0.5000237337706466  0.5000226085005437  0.4094207137967203   T   T   T
  0.4996948016781744  0.7498026063794470  0.4092377501697868   T   T   T
  0.7502610306187592  0.0001562724280220  0.4091244916849348   T   T   T
  0.7499736321641990  0.2500334750696425  0.4094866762579983   T   T   T
  0.7498077467515785  0.4996951706027701  0.4092374873951599   T   T   T
  0.7501456795967130  0.7501395239291853  0.4089090716473578   T   T   T
  0.9999862257246050  0.9999909601453609  0.4093791055961518   T   T   T
  0.9998127165586439  0.2497388276804955  0.4091466821566385   T   T   T
  0.9999762404253616  0.5000127171151405  0.4089453662900766   T   T   T
  0.0001475918946312  0.7502595179962555  0.4091308997258878   T   T   T
  0.1250593430816522  0.1250613767545019  0.5163463970973581   T   T   T
  0.1247178909075757  0.3751309407605561  0.5157366343730700   T   T   T
  0.1246480408295128  0.6249190864214214  0.5162070574196704   T   T   T
  0.1251680026586044  0.8748172135560068  0.5165225728601683   T   T   T
  0.3751278264571098  0.1247185032084772  0.5157282085010735   T   T   T
  0.3746554417200656  0.3746581419070267  0.5151676872099387   T   T   T
  0.3746617964221954  0.6253410910818218  0.5169766320233578   T   T   T
  0.3750908816258587  0.8753400711705623  0.5162184192271795   T   T   T
  0.6249191341972349  0.1246484306617646  0.5162116417288587   T   T   T
  0.6253433785584477  0.3746660542348792  0.5169706210413452   T   T   T
  0.6253552873231740  0.6253551662119037  0.5151736896166383   T   T   T
  0.6248876063784721  0.8752719406087337  0.5157326549205976   T   T   T
  0.8748195989124667  0.1251690728776467  0.5165286043800208   T   T   T
  0.8753436958645580  0.3750937699528052  0.5162198135387541   T   T   T
  0.8752736952827362  0.6248869697256865  0.5157255369662224   T   T   T
  0.8749301774615148  0.8749285235808415  0.5163376802451936   T   T   T
  0.1250000002440785  0.1249999992677573  0.3021206322717020   F   F   F
  0.1250000002440785  0.3749999997559215  0.3021206322717020   F   F   F
  0.1250000002440785  0.6249999982914289  0.3021206322717020   F   F   F
  0.1250000002440785  0.8749999987795931  0.3021206322717020   F   F   F
  0.3749999997559215  0.1249999992677573  0.3021206322717020   F   F   F
  0.3749999997559215  0.3749999997559215  0.3021206322717020   F   F   F
  0.3749999997559215  0.6249999982914289  0.3021206322717020   F   F   F
  0.3749999997559215  0.8749999987795931  0.3021206322717020   F   F   F
  0.6249999982914289  0.1249999992677573  0.3021206322717020   F   F   F
  0.6249999982914289  0.3749999997559215  0.3021206322717020   F   F   F
  0.6249999992677573  0.6249999982914289  0.3021206322717020   F   F   F
  0.6249999992677573  0.8749999987795931  0.3021206322717020   F   F   F
  0.8749999987795931  0.1249999992677573  0.3021206322717020   F   F   F
  0.8749999978032648  0.3749999997559215  0.3021206322717020   F   F   F
  0.8749999987795931  0.6249999982914289  0.3021206322717020   F   F   F
  0.8749999987795931  0.8749999987795931  0.3021206322717020   F   F   F
  0.5944344396973520  0.5944660921982248  0.6868269543952081   T   T   T
  0.6329767596577796  0.4639584273431083  0.6843609534971193   T   T   T
  0.5360556084504609  0.3670355035280579  0.6843718214104442   T   T   T
  0.4054273592089430  0.4053940535327953  0.6867867774305054   T   T   T
  0.3670413059746522  0.5359813543743215  0.6843750313111130   T   T   T
  0.4639079633977019  0.6329422489681704  0.6843496767198971   T   T   T
  0.6882537818015209  0.6882859046554017  0.6927829898194489   T   T   T
  0.3115678829372541  0.3115580595995127  0.6927877911537976   T   T   T
  0.7364077586941846  0.4389824319428826  0.6850666971936477   T   T   T
  0.5608598926267092  0.2635241008985503  0.6850395815827426   T   T   T
  0.2634874843765687  0.5609580829715313  0.6850388609860261   T   T   T
  0.4391090383699421  0.7364118273066467  0.6850569487648812   T   T   T
 
  0.00000000E+00  0.00000000E+00  0.00000000E+00
  0.00000000E+00  0.00000000E+00  0.00000000E+00
  0.00000000E+00  0.00000000E+00  0.00000000E+00
  0.00000000E+00  0.00000000E+00  0.00000000E+00
  0.00000000E+00  0.00000000E+00  0.00000000E+00
  0.00000000E+00  0.00000000E+00  0.00000000E+00
  0.00000000E+00  0.00000000E+00  0.00000000E+00
  0.00000000E+00  0.00000000E+00  0.00000000E+00
  0.00000000E+00  0.00000000E+00  0.00000000E+00
  0.00000000E+00  0.00000000E+00  0.00000000E+00
  0.00000000E+00  0.00000000E+00  0.00000000E+00
  0.00000000E+00  0.00000000E+00  0.00000000E+00
  0.00000000E+00  0.00000000E+00  0.00000000E+00
  0.00000000E+00  0.00000000E+00  0.00000000E+00
  0.00000000E+00  0.00000000E+00  0.00000000E+00
  0.00000000E+00  0.00000000E+00  0.00000000E+00
  0.00000000E+00  0.00000000E+00  0.00000000E+00
  0.00000000E+00  0.00000000E+00  0.00000000E+00
  0.00000000E+00  0.00000000E+00  0.00000000E+00
  0.00000000E+00  0.00000000E+00  0.00000000E+00
  0.00000000E+00  0.00000000E+00  0.00000000E+00
  0.00000000E+00  0.00000000E+00  0.00000000E+00
  0.00000000E+00  0.00000000E+00  0.00000000E+00
  0.00000000E+00  0.00000000E+00  0.00000000E+00
  0.00000000E+00  0.00000000E+00  0.00000000E+00
  0.00000000E+00  0.00000000E+00  0.00000000E+00
  0.00000000E+00  0.00000000E+00  0.00000000E+00
  0.00000000E+00  0.00000000E+00  0.00000000E+00
  0.00000000E+00  0.00000000E+00  0.00000000E+00
  0.00000000E+00  0.00000000E+00  0.00000000E+00
  0.00000000E+00  0.00000000E+00  0.00000000E+00
  0.00000000E+00  0.00000000E+00  0.00000000E+00
  0.00000000E+00  0.00000000E+00  0.00000000E+00
  0.00000000E+00  0.00000000E+00  0.00000000E+00
  0.00000000E+00  0.00000000E+00  0.00000000E+00
  0.00000000E+00  0.00000000E+00  0.00000000E+00
  0.00000000E+00  0.00000000E+00  0.00000000E+00
  0.00000000E+00  0.00000000E+00  0.00000000E+00
  0.00000000E+00  0.00000000E+00  0.00000000E+00
  0.00000000E+00  0.00000000E+00  0.00000000E+00
  0.00000000E+00  0.00000000E+00  0.00000000E+00
  0.00000000E+00  0.00000000E+00  0.00000000E+00
  0.00000000E+00  0.00000000E+00  0.00000000E+00
  0.00000000E+00  0.00000000E+00  0.00000000E+00
  0.00000000E+00  0.00000000E+00  0.00000000E+00
  0.00000000E+00  0.00000000E+00  0.00000000E+00
  0.00000000E+00  0.00000000E+00  0.00000000E+00
  0.00000000E+00  0.00000000E+00  0.00000000E+00
  0.00000000E+00  0.00000000E+00  0.00000000E+00
  0.00000000E+00  0.00000000E+00  0.00000000E+00
  0.00000000E+00  0.00000000E+00  0.00000000E+00
  0.00000000E+00  0.00000000E+00  0.00000000E+00
  0.00000000E+00  0.00000000E+00  0.00000000E+00
  0.00000000E+00  0.00000000E+00  0.00000000E+00
  0.00000000E+00  0.00000000E+00  0.00000000E+00
  0.00000000E+00  0.00000000E+00  0.00000000E+00
  0.00000000E+00  0.00000000E+00  0.00000000E+00
  0.00000000E+00  0.00000000E+00  0.00000000E+00
  0.00000000E+00  0.00000000E+00  0.00000000E+00
  0.00000000E+00  0.00000000E+00  0.00000000E+00
