Ir48 C6 F6                              
    1.000000000000000     
    10.9622130000000002    0.0000000000000000    0.0000000000000000
    -5.4811069999999997    9.4935550000000006    0.0000000000000000
     0.0000000000000000    0.0000000000000000   17.4753049999999988
   Ir   C    F 
    48     6     6
Selective dynamics
Direct
  0.0833330000000032  0.1666669999999968  0.3433419999999998   F   F   F
  0.0833330000000032  0.4166669999999968  0.3433419999999998   F   F   F
  0.0833330000000032  0.6666669999999968  0.3433419999999998   F   F   F
  0.0833330000000032  0.9166669999999968  0.3433419999999998   F   F   F
  0.3333330000000032  0.1666669999999968  0.3433419999999998   F   F   F
  0.3333330000000032  0.4166669999999968  0.3433419999999998   F   F   F
  0.3333330000000032  0.6666669999999968  0.3433419999999998   F   F   F
  0.3333330000000032  0.9166669999999968  0.3433419999999998   F   F   F
  0.5833330000000032  0.1666669999999968  0.3433419999999998   F   F   F
  0.5833330000000032  0.4166669999999968  0.3433419999999998   F   F   F
  0.5833330000000032  0.6666669999999968  0.3433419999999998   F   F   F
  0.5833330000000032  0.9166669999999968  0.3433419999999998   F   F   F
  0.8333330000000032  0.1666669999999968  0.3433419999999998   F   F   F
  0.8333330000000032  0.4166669999999968  0.3433419999999998   F   F   F
  0.8333330000000032  0.6666669999999968  0.3433419999999998   F   F   F
  0.8333330000000032  0.9166669999999968  0.3433419999999998   F   F   F
  0.0001172799433817  0.0003086986413408  0.5942231220957908   T   T   T
  0.0000701776770953  0.2503259736799635  0.5941082499306560   T   T   T
  0.0001047656040853  0.5003308057562492  0.5940990585502632   T   T   T
  0.9999921732196810  0.7503043443379696  0.5941867499013824   T   T   T
  0.2501394429337367  0.0002375932874870  0.5940835963337960   T   T   T
  0.2501507427919307  0.2502787902601824  0.5940854189114972   T   T   T
  0.2499255837988201  0.5003717504770151  0.5936953495828519   T   T   T
  0.2499747700600565  0.7501901267494731  0.5940993230658265   T   T   T
  0.5000005630986450  0.0001982489375365  0.5941497249458578   T   T   T
  0.5001747793124380  0.2501193570445679  0.5937061336157896   T   T   T
  0.4999712804848571  0.5000955230271984  0.5940747809128268   T   T   T
  0.4999644960673990  0.7501993135895617  0.5941031398228205   T   T   T
  0.7500687132701245  0.0002266809414095  0.5942165473429171   T   T   T
  0.7500977002554734  0.2503076482348661  0.5941484819236820   T   T   T
  0.7500397051959240  0.5001521049809270  0.5940812016822150   T   T   T
  0.7499640653428798  0.7501587808256929  0.5942219375590341   T   T   T
  0.1666440103901010  0.0834415075011847  0.4687117308140856   T   T   T
  0.1666953860632034  0.3334390776530753  0.4685943136807609   T   T   T
  0.1666851966509100  0.5835123785974474  0.4686251615579948   T   T   T
  0.1666258534724889  0.8335020663141250  0.4687806471791802   T   T   T
  0.4166354417233151  0.0833893548319509  0.4686060876480553   T   T   T
  0.4167350896730824  0.3334446097697068  0.4684883994984759   T   T   T
  0.4167493879377915  0.5834894055496775  0.4685961664793368   T   T   T
  0.4167344953838992  0.8334821903322336  0.4688092698039767   T   T   T
  0.6667518175619449  0.0834528090712610  0.4688404970777498   T   T   T
  0.6667961291120363  0.3335457728572848  0.4686050073527639   T   T   T
  0.6667204378735363  0.5835334613819043  0.4687136652534676   T   T   T
  0.6667182814463146  0.8334893952953735  0.4688021688194368   T   T   T
  0.9166953066343879  0.0834653007916657  0.4687957475687057   T   T   T
  0.9166954120327091  0.3334533036685841  0.4688041793900339   T   T   T
  0.9166808756004059  0.5835607353252001  0.4687775072453491   T   T   T
  0.9166735374538462  0.8335130706636562  0.4688462842989196   T   T   T
  0.3002209409217897  0.2264752973986859  0.7805381425111904   T   T   T
  0.2264387967881234  0.3002255844954718  0.7805648794586375   T   T   T
  0.3002010512389077  0.4473827495992637  0.7814950073685552   T   T   T
  0.4473398534288222  0.5211266328199500  0.7806495542645351   T   T   T
  0.5211148136913479  0.4473812069794718  0.7806248262925308   T   T   T
  0.4473703967550122  0.3002281894610306  0.7814585719483844   T   T   T
  0.2294879278353008  0.0848586517139651  0.7825609105544444   T   T   T
  0.0848359543012336  0.2294924973491632  0.7825611317456165   T   T   T
  0.2292375739341210  0.5180934894744382  0.7840119034189357   T   T   T
  0.5178592453771600  0.6626860327958681  0.7827046789815313   T   T   T
  0.6626498260411395  0.5179041141495802  0.7827140946566402   T   T   T
  0.5180748203137711  0.2292787885447893  0.7841525096415793   T   T   T
 
  0.00000000E+00  0.00000000E+00  0.00000000E+00
  0.00000000E+00  0.00000000E+00  0.00000000E+00
  0.00000000E+00  0.00000000E+00  0.00000000E+00
  0.00000000E+00  0.00000000E+00  0.00000000E+00
  0.00000000E+00  0.00000000E+00  0.00000000E+00
  0.00000000E+00  0.00000000E+00  0.00000000E+00
  0.00000000E+00  0.00000000E+00  0.00000000E+00
  0.00000000E+00  0.00000000E+00  0.00000000E+00
  0.00000000E+00  0.00000000E+00  0.00000000E+00
  0.00000000E+00  0.00000000E+00  0.00000000E+00
  0.00000000E+00  0.00000000E+00  0.00000000E+00
  0.00000000E+00  0.00000000E+00  0.00000000E+00
  0.00000000E+00  0.00000000E+00  0.00000000E+00
  0.00000000E+00  0.00000000E+00  0.00000000E+00
  0.00000000E+00  0.00000000E+00  0.00000000E+00
  0.00000000E+00  0.00000000E+00  0.00000000E+00
  0.00000000E+00  0.00000000E+00  0.00000000E+00
  0.00000000E+00  0.00000000E+00  0.00000000E+00
  0.00000000E+00  0.00000000E+00  0.00000000E+00
  0.00000000E+00  0.00000000E+00  0.00000000E+00
  0.00000000E+00  0.00000000E+00  0.00000000E+00
  0.00000000E+00  0.00000000E+00  0.00000000E+00
  0.00000000E+00  0.00000000E+00  0.00000000E+00
  0.00000000E+00  0.00000000E+00  0.00000000E+00
  0.00000000E+00  0.00000000E+00  0.00000000E+00
  0.00000000E+00  0.00000000E+00  0.00000000E+00
  0.00000000E+00  0.00000000E+00  0.00000000E+00
  0.00000000E+00  0.00000000E+00  0.00000000E+00
  0.00000000E+00  0.00000000E+00  0.00000000E+00
  0.00000000E+00  0.00000000E+00  0.00000000E+00
  0.00000000E+00  0.00000000E+00  0.00000000E+00
  0.00000000E+00  0.00000000E+00  0.00000000E+00
  0.00000000E+00  0.00000000E+00  0.00000000E+00
  0.00000000E+00  0.00000000E+00  0.00000000E+00
  0.00000000E+00  0.00000000E+00  0.00000000E+00
  0.00000000E+00  0.00000000E+00  0.00000000E+00
  0.00000000E+00  0.00000000E+00  0.00000000E+00
  0.00000000E+00  0.00000000E+00  0.00000000E+00
  0.00000000E+00  0.00000000E+00  0.00000000E+00
  0.00000000E+00  0.00000000E+00  0.00000000E+00
  0.00000000E+00  0.00000000E+00  0.00000000E+00
  0.00000000E+00  0.00000000E+00  0.00000000E+00
  0.00000000E+00  0.00000000E+00  0.00000000E+00
  0.00000000E+00  0.00000000E+00  0.00000000E+00
  0.00000000E+00  0.00000000E+00  0.00000000E+00
  0.00000000E+00  0.00000000E+00  0.00000000E+00
  0.00000000E+00  0.00000000E+00  0.00000000E+00
  0.00000000E+00  0.00000000E+00  0.00000000E+00
  0.00000000E+00  0.00000000E+00  0.00000000E+00
  0.00000000E+00  0.00000000E+00  0.00000000E+00
  0.00000000E+00  0.00000000E+00  0.00000000E+00
  0.00000000E+00  0.00000000E+00  0.00000000E+00
  0.00000000E+00  0.00000000E+00  0.00000000E+00
  0.00000000E+00  0.00000000E+00  0.00000000E+00
  0.00000000E+00  0.00000000E+00  0.00000000E+00
  0.00000000E+00  0.00000000E+00  0.00000000E+00
  0.00000000E+00  0.00000000E+00  0.00000000E+00
  0.00000000E+00  0.00000000E+00  0.00000000E+00
  0.00000000E+00  0.00000000E+00  0.00000000E+00
  0.00000000E+00  0.00000000E+00  0.00000000E+00
