Ir48 C6 H2 Cl4                          
    1.000000000000000     
    10.9622135000000007    0.0000000000000000    0.0000000000000000
     0.0000000000000000   10.9622135000000007    0.0000000000000000
     0.0000000000000000    0.0000000000000000   16.7345937700000000
   Ir   C    H    Cl
    48     6     2     4
Selective dynamics
Direct
  0.9985211837549883  0.2498586486642580  0.4095107272025587   T   T   T
  0.0000007494146956  0.4999980415215575  0.4098417450401683   T   T   T
  0.0014840466127524  0.7501411642569806  0.4095107221084362   T   T   T
  0.0000035877916034  0.9999982845978082  0.4092329421470282   T   T   T
  0.2500915912101291  0.2500930171261047  0.4096986009608159   T   T   T
  0.2505080462488962  0.5000350822776269  0.4102730605681373   T   T   T
  0.2527478677858142  0.7472549839355409  0.4120753421723151   T   T   T
  0.2498591308960130  0.9985176568435321  0.4095115047645876   T   T   T
  0.5000369554766380  0.2505025838399888  0.4102697739080554   T   T   T
  0.4999991225146871  0.5000040238330499  0.4104546187157183   T   T   T
  0.4999630549387319  0.7494924472869187  0.4102684367748495   T   T   T
  0.5000005377229257  0.9999973593869953  0.4098419040162042   T   T   T
  0.7472606640378672  0.2527401456190503  0.4120747926955062   T   T   T
  0.7495006635300783  0.4999627751693509  0.4102664193477636   T   T   T
  0.7499097995419248  0.7499044331549314  0.4096937758385266   T   T   T
  0.7501452566293523  0.0014848052746999  0.4095099504552735   T   T   T
  0.1247248713722442  0.1247181915763989  0.5209279382440712   T   T   T
  0.1234298282052748  0.3736037135422237  0.5209750082948545   T   T   T
  0.1232142831534020  0.6250450877031000  0.5227408573860899   T   T   T
  0.1244979699340689  0.8755023149403911  0.5212981474139653   T   T   T
  0.3736104484584075  0.1234218384313905  0.5209748919983426   T   T   T
  0.3723660801963362  0.3723653461885448  0.5216871680823871   T   T   T
  0.3753499426187759  0.6246529442094726  0.5303774286227565   T   T   T
  0.3749563824552240  0.8767889583503177  0.5227403049828609   T   T   T
  0.6250504696016108  0.1232059464203417  0.5227381378006939   T   T   T
  0.6246447949556284  0.3753409973117954  0.5303756471087766   T   T   T
  0.6276349312800562  0.6276328191337726  0.5216879100282270   T   T   T
  0.6263974272339468  0.8765756386655994  0.5209743725180118   T   T   T
  0.8755049249337290  0.1244922390968881  0.5212975279675689   T   T   T
  0.8767948669729577  0.3749495398946934  0.5227429652344568   T   T   T
  0.8765802214852201  0.6263949120790784  0.5209759885599325   T   T   T
  0.8752855776008843  0.8752792639221170  0.5209272804234004   T   T   T
  0.1250000002280558  0.1250000002280558  0.2987822751313800   F   F   F
  0.1250000002280558  0.3749999997719442  0.2987822751313800   F   F   F
  0.1250000002280558  0.6249999993158326  0.2987822751313800   F   F   F
  0.1250000002280558  0.8749999988597210  0.2987822751313800   F   F   F
  0.3749999997719442  0.1250000002280558  0.2987822751313800   F   F   F
  0.3749999997719442  0.3749999997719442  0.2987822751313800   F   F   F
  0.3749999997719442  0.6249999993158326  0.2987822751313800   F   F   F
  0.3749999997719442  0.8749999988597210  0.2987822751313800   F   F   F
  0.6249999993158326  0.1250000002280558  0.2987822751313800   F   F   F
  0.6249999993158326  0.3749999997719442  0.2987822751313800   F   F   F
  0.6249999993158326  0.6249999993158326  0.2987822751313800   F   F   F
  0.6249999993158326  0.8749999988597210  0.2987822751313800   F   F   F
  0.8749999988597210  0.1250000002280558  0.2987822751313800   F   F   F
  0.8749999988597210  0.3749999997719442  0.2987822751313800   F   F   F
  0.8749999988597210  0.6249999993158326  0.2987822751313800   F   F   F
  0.8749999988597210  0.8749999988597210  0.2987822751313800   F   F   F
  0.5961354668396694  0.5961830025595276  0.6443200162416716   T   T   T
  0.6296654670810469  0.4642029106270016  0.6472343569271573   T   T   T
  0.5357882943073520  0.3703248099151395  0.6472415115265093   T   T   T
  0.4038278515890639  0.4038736368965630  0.6443241665078929   T   T   T
  0.3703164672345025  0.5358212385828338  0.6472443907671703   T   T   T
  0.4641846177661009  0.6297101517936028  0.6472409797344483   T   T   T
  0.6542536772901002  0.6542594449021024  0.6813228183107327   T   T   T
  0.3457437852292102  0.3457576870573362  0.6813284492446172   T   T   T
  0.7700892160400770  0.4373719585056293  0.6951586243739456   T   T   T
  0.5626076896475354  0.2299196153738663  0.6951981628910175   T   T   T
  0.2299118812019358  0.5626611496420750  0.6951943863330428   T   T   T
  0.4373577230855332  0.7701242253874341  0.6951779217893090   T   T   T
 
  0.00000000E+00  0.00000000E+00  0.00000000E+00
  0.00000000E+00  0.00000000E+00  0.00000000E+00
  0.00000000E+00  0.00000000E+00  0.00000000E+00
  0.00000000E+00  0.00000000E+00  0.00000000E+00
  0.00000000E+00  0.00000000E+00  0.00000000E+00
  0.00000000E+00  0.00000000E+00  0.00000000E+00
  0.00000000E+00  0.00000000E+00  0.00000000E+00
  0.00000000E+00  0.00000000E+00  0.00000000E+00
  0.00000000E+00  0.00000000E+00  0.00000000E+00
  0.00000000E+00  0.00000000E+00  0.00000000E+00
  0.00000000E+00  0.00000000E+00  0.00000000E+00
  0.00000000E+00  0.00000000E+00  0.00000000E+00
  0.00000000E+00  0.00000000E+00  0.00000000E+00
  0.00000000E+00  0.00000000E+00  0.00000000E+00
  0.00000000E+00  0.00000000E+00  0.00000000E+00
  0.00000000E+00  0.00000000E+00  0.00000000E+00
  0.00000000E+00  0.00000000E+00  0.00000000E+00
  0.00000000E+00  0.00000000E+00  0.00000000E+00
  0.00000000E+00  0.00000000E+00  0.00000000E+00
  0.00000000E+00  0.00000000E+00  0.00000000E+00
  0.00000000E+00  0.00000000E+00  0.00000000E+00
  0.00000000E+00  0.00000000E+00  0.00000000E+00
  0.00000000E+00  0.00000000E+00  0.00000000E+00
  0.00000000E+00  0.00000000E+00  0.00000000E+00
  0.00000000E+00  0.00000000E+00  0.00000000E+00
  0.00000000E+00  0.00000000E+00  0.00000000E+00
  0.00000000E+00  0.00000000E+00  0.00000000E+00
  0.00000000E+00  0.00000000E+00  0.00000000E+00
  0.00000000E+00  0.00000000E+00  0.00000000E+00
  0.00000000E+00  0.00000000E+00  0.00000000E+00
  0.00000000E+00  0.00000000E+00  0.00000000E+00
  0.00000000E+00  0.00000000E+00  0.00000000E+00
  0.00000000E+00  0.00000000E+00  0.00000000E+00
  0.00000000E+00  0.00000000E+00  0.00000000E+00
  0.00000000E+00  0.00000000E+00  0.00000000E+00
  0.00000000E+00  0.00000000E+00  0.00000000E+00
  0.00000000E+00  0.00000000E+00  0.00000000E+00
  0.00000000E+00  0.00000000E+00  0.00000000E+00
  0.00000000E+00  0.00000000E+00  0.00000000E+00
  0.00000000E+00  0.00000000E+00  0.00000000E+00
  0.00000000E+00  0.00000000E+00  0.00000000E+00
  0.00000000E+00  0.00000000E+00  0.00000000E+00
  0.00000000E+00  0.00000000E+00  0.00000000E+00
  0.00000000E+00  0.00000000E+00  0.00000000E+00
  0.00000000E+00  0.00000000E+00  0.00000000E+00
  0.00000000E+00  0.00000000E+00  0.00000000E+00
  0.00000000E+00  0.00000000E+00  0.00000000E+00
  0.00000000E+00  0.00000000E+00  0.00000000E+00
  0.00000000E+00  0.00000000E+00  0.00000000E+00
  0.00000000E+00  0.00000000E+00  0.00000000E+00
  0.00000000E+00  0.00000000E+00  0.00000000E+00
  0.00000000E+00  0.00000000E+00  0.00000000E+00
  0.00000000E+00  0.00000000E+00  0.00000000E+00
  0.00000000E+00  0.00000000E+00  0.00000000E+00
  0.00000000E+00  0.00000000E+00  0.00000000E+00
  0.00000000E+00  0.00000000E+00  0.00000000E+00
  0.00000000E+00  0.00000000E+00  0.00000000E+00
  0.00000000E+00  0.00000000E+00  0.00000000E+00
  0.00000000E+00  0.00000000E+00  0.00000000E+00
  0.00000000E+00  0.00000000E+00  0.00000000E+00
