Cu  C  N  F                             
    1.000000000000000     
    10.2424774999999997    0.0000000000000000    0.0000000000000000
     0.0000000000000000   10.2424774999999997    0.0000000000000000
     0.0000000000000000    0.0000000000000000   23.4318939600000000
   Cu   C    N    F 
    64     4     2     4
Selective dynamics
Direct
  0.2499999995118358  0.0000000000000000  0.3200765594451340   F   F   F
  0.0000000000000000  0.4999999990236716  0.3200765594451340   F   F   F
  0.2499999995118358  0.2499999995118358  0.3200765594451340   F   F   F
  0.2499999995118358  0.4999999990236716  0.3200765594451340   F   F   F
  0.2499999995118358  0.7499999985355075  0.3200765594451340   F   F   F
  0.4999999990236716  0.0000000000000000  0.3200765594451340   F   F   F
  0.4999999990236716  0.2499999995118358  0.3200765594451340   F   F   F
  0.0000000000000000  0.7499999985355075  0.3200765594451340   F   F   F
  0.4999999990236716  0.4999999990236716  0.3200765594451340   F   F   F
  0.4999999990236716  0.7499999985355075  0.3200765594451340   F   F   F
  0.7499999985355075  0.0000000000000000  0.3200765594451340   F   F   F
  0.7499999985355075  0.2499999995118358  0.3200765594451340   F   F   F
  0.7499999985355075  0.4999999990236716  0.3200765594451340   F   F   F
  0.7499999985355075  0.7499999985355075  0.3200765594451340   F   F   F
  0.0000000000000000  0.0000000000000000  0.3200765594451340   F   F   F
  0.0000000000000000  0.2499999995118358  0.3200765594451340   F   F   F
  0.2500225843370414  0.9999482382954641  0.4741402273524660   T   T   T
  0.2499419745043159  0.2499454455614845  0.4740939818502342   T   T   T
  0.2498547385792420  0.4998411913757027  0.4740655705627121   T   T   T
  0.2499795731215924  0.7500193858955831  0.4740922947731629   T   T   T
  0.4999999739804770  0.0000003437975775  0.4741194006251118   T   T   T
  0.4998386060168359  0.2498597549679143  0.4740697665911358   T   T   T
  0.5000003225874622  0.4999986872278824  0.4739834826736120   T   T   T
  0.5001594053249798  0.7501427454097206  0.4740668983986639   T   T   T
  0.7499769451852716  0.0000523193179457  0.4741404544197065   T   T   T
  0.7500204246803213  0.2499828438659772  0.4740950290616567   T   T   T
  0.7501438543223149  0.5001605613618788  0.4740691360484695   T   T   T
  0.7500581273004291  0.7500561938543666  0.4740936014645893   T   T   T
 -0.0000001647313726  0.0000005744699387  0.4740590753302850   T   T   T
  0.9999472525241581  0.2500259861687471  0.4741401277667487   T   T   T
 -0.0000008430520053  0.4999992812773466  0.4741184204299070   T   T   T
  0.0000515073768431  0.7499752871659884  0.4741396641678919   T   T   T
  0.1249949210318140  0.1249976555244155  0.5494948656831792   T   T   T
  0.1248272154399761  0.3749141368896322  0.5494939800712720   T   T   T
  0.1252942619878322  0.6250078043472519  0.5495135826244592   T   T   T
  0.1250163942373193  0.8749834343268256  0.5494223646263600   T   T   T
  0.3749142884521487  0.1248316161922322  0.5494941825565580   T   T   T
  0.3748339701008889  0.3748386410820493  0.5494796975839279   T   T   T
  0.3753703943076286  0.6246291905773035  0.5490367788444528   T   T   T
  0.3749923157190453  0.8747043565418037  0.5495120797266632   T   T   T
  0.6250098341857667  0.1252930344362979  0.5495135367418370   T   T   T
  0.6246328642781429  0.3753695588219191  0.5490298711099404   T   T   T
  0.6251637016162540  0.6251657897203106  0.5494804409586961   T   T   T
  0.6250869222223345  0.8751705887784533  0.5494936071918788   T   T   T
  0.8749821200601587  0.1250192805316130  0.5494225966189429   T   T   T
  0.8747068836421428  0.3749920239683635  0.5495135768142974   T   T   T
  0.8751691282048686  0.6250842862911965  0.5494955867875327   T   T   T
  0.8750021814743418  0.8750037531909928  0.5494955741075606   T   T   T
  0.1250000002440785  0.1249999992677573  0.3973486452223582   F   F   F
  0.1250000002440785  0.3749999997559215  0.3973486452223582   F   F   F
  0.1250000002440785  0.6249999982914289  0.3973486452223582   F   F   F
  0.1250000002440785  0.8749999987795931  0.3973486452223582   F   F   F
  0.3749999997559215  0.1249999992677573  0.3973486452223582   F   F   F
  0.3749999997559215  0.3749999997559215  0.3973486452223582   F   F   F
  0.3749999997559215  0.6249999982914289  0.3973486452223582   F   F   F
  0.3749999997559215  0.8749999987795931  0.3973486452223582   F   F   F
  0.6249999982914289  0.1249999992677573  0.3973486452223582   F   F   F
  0.6249999982914289  0.3749999997559215  0.3973486452223582   F   F   F
  0.6249999992677573  0.6249999982914289  0.3973486452223582   F   F   F
  0.6249999992677573  0.8749999987795931  0.3973486452223582   F   F   F
  0.8749999987795931  0.1249999992677573  0.3973486452223582   F   F   F
  0.8749999978032648  0.3749999997559215  0.3973486452223582   F   F   F
  0.8749999987795931  0.6249999982914289  0.3973486452223582   F   F   F
  0.8749999987795931  0.8749999987795931  0.3973486452223582   F   F   F
  0.5293789991495550  0.3737115117154516  0.6760937223326040   T   T   T
  0.6262973325819050  0.4706266495296492  0.6760936569666394   T   T   T
  0.4705881196124863  0.6262684897377554  0.6760954656256031   T   T   T
  0.3737264139255463  0.5294125509006415  0.6760938366311144   T   T   T
  0.5957008244585561  0.5957031792417478  0.6766281855151086   T   T   T
  0.4042622504201357  0.4043348836803062  0.6766281302299323   T   T   T
  0.2466094565919278  0.5616143881572582  0.6779492521747640   T   T   T
  0.4384288036304592  0.7534144958254575  0.6779501956564568   T   T   T
  0.5616024197805037  0.2465411155226639  0.6779500767238319   T   T   T
  0.7534375636060384  0.4383598091923844  0.6779480979580925   T   T   T
 
  0.00000000E+00  0.00000000E+00  0.00000000E+00
  0.00000000E+00  0.00000000E+00  0.00000000E+00
  0.00000000E+00  0.00000000E+00  0.00000000E+00
  0.00000000E+00  0.00000000E+00  0.00000000E+00
  0.00000000E+00  0.00000000E+00  0.00000000E+00
  0.00000000E+00  0.00000000E+00  0.00000000E+00
  0.00000000E+00  0.00000000E+00  0.00000000E+00
  0.00000000E+00  0.00000000E+00  0.00000000E+00
  0.00000000E+00  0.00000000E+00  0.00000000E+00
  0.00000000E+00  0.00000000E+00  0.00000000E+00
  0.00000000E+00  0.00000000E+00  0.00000000E+00
  0.00000000E+00  0.00000000E+00  0.00000000E+00
  0.00000000E+00  0.00000000E+00  0.00000000E+00
  0.00000000E+00  0.00000000E+00  0.00000000E+00
  0.00000000E+00  0.00000000E+00  0.00000000E+00
  0.00000000E+00  0.00000000E+00  0.00000000E+00
  0.00000000E+00  0.00000000E+00  0.00000000E+00
  0.00000000E+00  0.00000000E+00  0.00000000E+00
  0.00000000E+00  0.00000000E+00  0.00000000E+00
  0.00000000E+00  0.00000000E+00  0.00000000E+00
  0.00000000E+00  0.00000000E+00  0.00000000E+00
  0.00000000E+00  0.00000000E+00  0.00000000E+00
  0.00000000E+00  0.00000000E+00  0.00000000E+00
  0.00000000E+00  0.00000000E+00  0.00000000E+00
  0.00000000E+00  0.00000000E+00  0.00000000E+00
  0.00000000E+00  0.00000000E+00  0.00000000E+00
  0.00000000E+00  0.00000000E+00  0.00000000E+00
  0.00000000E+00  0.00000000E+00  0.00000000E+00
  0.00000000E+00  0.00000000E+00  0.00000000E+00
  0.00000000E+00  0.00000000E+00  0.00000000E+00
  0.00000000E+00  0.00000000E+00  0.00000000E+00
  0.00000000E+00  0.00000000E+00  0.00000000E+00
  0.00000000E+00  0.00000000E+00  0.00000000E+00
  0.00000000E+00  0.00000000E+00  0.00000000E+00
  0.00000000E+00  0.00000000E+00  0.00000000E+00
  0.00000000E+00  0.00000000E+00  0.00000000E+00
  0.00000000E+00  0.00000000E+00  0.00000000E+00
  0.00000000E+00  0.00000000E+00  0.00000000E+00
  0.00000000E+00  0.00000000E+00  0.00000000E+00
  0.00000000E+00  0.00000000E+00  0.00000000E+00
  0.00000000E+00  0.00000000E+00  0.00000000E+00
  0.00000000E+00  0.00000000E+00  0.00000000E+00
  0.00000000E+00  0.00000000E+00  0.00000000E+00
  0.00000000E+00  0.00000000E+00  0.00000000E+00
  0.00000000E+00  0.00000000E+00  0.00000000E+00
  0.00000000E+00  0.00000000E+00  0.00000000E+00
  0.00000000E+00  0.00000000E+00  0.00000000E+00
  0.00000000E+00  0.00000000E+00  0.00000000E+00
  0.00000000E+00  0.00000000E+00  0.00000000E+00
  0.00000000E+00  0.00000000E+00  0.00000000E+00
  0.00000000E+00  0.00000000E+00  0.00000000E+00
  0.00000000E+00  0.00000000E+00  0.00000000E+00
  0.00000000E+00  0.00000000E+00  0.00000000E+00
  0.00000000E+00  0.00000000E+00  0.00000000E+00
  0.00000000E+00  0.00000000E+00  0.00000000E+00
  0.00000000E+00  0.00000000E+00  0.00000000E+00
  0.00000000E+00  0.00000000E+00  0.00000000E+00
  0.00000000E+00  0.00000000E+00  0.00000000E+00
  0.00000000E+00  0.00000000E+00  0.00000000E+00
  0.00000000E+00  0.00000000E+00  0.00000000E+00
  0.00000000E+00  0.00000000E+00  0.00000000E+00
  0.00000000E+00  0.00000000E+00  0.00000000E+00
  0.00000000E+00  0.00000000E+00  0.00000000E+00
  0.00000000E+00  0.00000000E+00  0.00000000E+00
  0.00000000E+00  0.00000000E+00  0.00000000E+00
  0.00000000E+00  0.00000000E+00  0.00000000E+00
  0.00000000E+00  0.00000000E+00  0.00000000E+00
  0.00000000E+00  0.00000000E+00  0.00000000E+00
  0.00000000E+00  0.00000000E+00  0.00000000E+00
  0.00000000E+00  0.00000000E+00  0.00000000E+00
  0.00000000E+00  0.00000000E+00  0.00000000E+00
  0.00000000E+00  0.00000000E+00  0.00000000E+00
  0.00000000E+00  0.00000000E+00  0.00000000E+00
  0.00000000E+00  0.00000000E+00  0.00000000E+00
