Ag  C  N  F                             
    1.000000000000000     
    11.7702790000000004    0.0000000000000000    0.0000000000000000
     0.0000000000000000   11.7702790000000004    0.0000000000000000
     0.0000000000000000    0.0000000000000000   24.2421330600000005
   Ag   C    N    F 
    64     4     2     4
Selective dynamics
Direct
  0.0000000000000000  0.2499999991504041  0.3093787160328390   F   F   F
  0.7499999974512050  0.7499999974512050  0.3093787160328390   F   F   F
  0.0000000000000000  0.4999999983008081  0.3093787160328390   F   F   F
  0.0000000000000000  0.7499999974512050  0.3093787160328390   F   F   F
  0.0000000000000000  0.0000000000000000  0.3093787160328390   F   F   F
  0.2499999991504041  0.2499999991504041  0.3093787160328390   F   F   F
  0.2499999991504041  0.4999999983008081  0.3093787160328390   F   F   F
  0.7499999974512050  0.0000000000000000  0.3093787160328390   F   F   F
  0.2499999991504041  0.7499999974512050  0.3093787160328390   F   F   F
  0.2499999991504041  0.0000000000000000  0.3093787160328390   F   F   F
  0.4999999983008081  0.2499999991504041  0.3093787160328390   F   F   F
  0.4999999983008081  0.4999999983008081  0.3093787160328390   F   F   F
  0.4999999983008081  0.7499999974512050  0.3093787160328390   F   F   F
  0.4999999983008081  0.0000000000000000  0.3093787160328390   F   F   F
  0.7499999974512050  0.2499999991504041  0.3093787160328390   F   F   F
  0.7499999974512050  0.4999999983008081  0.3093787160328390   F   F   F
  0.0000453688919252  0.2499754204759634  0.4740632391910515   T   T   T
 -0.0000005237715446  0.5000003328484574  0.4741011219430293   T   T   T
  0.9999542660288223  0.7500248163416665  0.4740633686116651   T   T   T
  0.0000001866182078  0.0000001164668858  0.4740719391535931   T   T   T
  0.2497958898298124  0.2497950079558270  0.4740739987816304   T   T   T
  0.2494552541174828  0.4997260847064690  0.4738230588173539   T   T   T
  0.2496335895065869  0.7503672749545721  0.4739009883831971   T   T   T
  0.2499760042722484  0.0000458333480735  0.4740632191815086   T   T   T
  0.4997248699588852  0.2494542947396039  0.4738230361770660   T   T   T
  0.4999998080942777  0.5000008826877649  0.4736659006591440   T   T   T
  0.5002745744760120  0.7505457028600673  0.4738225864197083   T   T   T
  0.5000001798105445  0.0000000694698189  0.4741011199219982   T   T   T
  0.7503672696929482  0.2496326283578414  0.4739007889660873   T   T   T
  0.7505451323303818  0.5002753812264428  0.4738226820757329   T   T   T
  0.7502041305186399  0.7502049084759322  0.4740736794679268   T   T   T
  0.7500239698641121  0.9999544864673150  0.4740633370943141   T   T   T
  0.1249359679401751  0.1249359947015740  0.5522119323964580   T   T   T
  0.1249520212686132  0.3749943789372221  0.5521957934462084   T   T   T
  0.1251944926336087  0.6249783062612089  0.5521038057920596   T   T   T
  0.1248976774880099  0.8751019893124518  0.5521622506447477   T   T   T
  0.3749942488448873  0.1249527486292962  0.5521956976551617   T   T   T
  0.3749175247502270  0.3749185026578449  0.5516784149284562   T   T   T
  0.3751486903115532  0.6248517232785522  0.5509141315601708   T   T   T
  0.3750216138059544  0.8748056640482621  0.5521029936097552   T   T   T
  0.6249779263457917  0.1251943439369788  0.5521042382670470   T   T   T
  0.6248525952743382  0.3751471410102248  0.5509123413966919   T   T   T
  0.6250818238449890  0.6250824511888732  0.5516779774970566   T   T   T
  0.6250063510664513  0.8750480943891008  0.5521952578381190   T   T   T
  0.8751018450706003  0.1248984145829769  0.5521620604154184   T   T   T
  0.8748058185665745  0.3750222453153593  0.5521044068310048   T   T   T
  0.8750477252546289  0.6250059539503618  0.5521954312451439   T   T   T
  0.8750643034981432  0.8750642783799659  0.5522120755641683   T   T   T
  0.1249999995752020  0.1249999995752020  0.3952090765398992   F   F   F
  0.1249999995752020  0.3749999987256061  0.3952090765398992   F   F   F
  0.1249999995752020  0.6249999978760030  0.3952090765398992   F   F   F
  0.1249999995752020  0.8749999970264071  0.3952090765398992   F   F   F
  0.3749999987256061  0.1249999995752020  0.3952090765398992   F   F   F
  0.3749999987256061  0.3749999987256061  0.3952090765398992   F   F   F
  0.3749999987256061  0.6249999978760030  0.3952090765398992   F   F   F
  0.3749999987256061  0.8749999970264071  0.3952090765398992   F   F   F
  0.6249999978760030  0.1249999995752020  0.3952090765398992   F   F   F
  0.6249999978760030  0.3749999987256061  0.3952090765398992   F   F   F
  0.6249999978760030  0.6249999978760030  0.3952090765398992   F   F   F
  0.6249999978760030  0.8749999970264071  0.3952090765398992   F   F   F
  0.8749999970264071  0.1249999995752020  0.3952090765398992   F   F   F
  0.8749999970264071  0.3749999987256061  0.3952090765398992   F   F   F
  0.8749999970264071  0.6249999978760030  0.3952090765398992   F   F   F
  0.8749999970264071  0.8749999970264071  0.3952090765398992   F   F   F
  0.5255809371238940  0.3901936131204604  0.6757102723647624   T   T   T
  0.6097871047396689  0.4744010524957784  0.6757086566496783   T   T   T
  0.4744517323054597  0.6098103039502449  0.6757083623498384   T   T   T
  0.3902076681953779  0.5255617366912131  0.6757132902243940   T   T   T
  0.5832292412439524  0.5831874763106458  0.6760962725253832   T   T   T
  0.4168054842658408  0.4167853778509813  0.6760983558150024   T   T   T
  0.2795956385710829  0.5536203305483955  0.6769362875395840   T   T   T
  0.4464256047436757  0.7204024448350209  0.6769331094716373   T   T   T
  0.5535644245889640  0.2796401252424358  0.6769325323156341   T   T   T
  0.7203703070262959  0.4463950438751464  0.6769322380078455   T   T   T
 
  0.00000000E+00  0.00000000E+00  0.00000000E+00
  0.00000000E+00  0.00000000E+00  0.00000000E+00
  0.00000000E+00  0.00000000E+00  0.00000000E+00
  0.00000000E+00  0.00000000E+00  0.00000000E+00
  0.00000000E+00  0.00000000E+00  0.00000000E+00
  0.00000000E+00  0.00000000E+00  0.00000000E+00
  0.00000000E+00  0.00000000E+00  0.00000000E+00
  0.00000000E+00  0.00000000E+00  0.00000000E+00
  0.00000000E+00  0.00000000E+00  0.00000000E+00
  0.00000000E+00  0.00000000E+00  0.00000000E+00
  0.00000000E+00  0.00000000E+00  0.00000000E+00
  0.00000000E+00  0.00000000E+00  0.00000000E+00
  0.00000000E+00  0.00000000E+00  0.00000000E+00
  0.00000000E+00  0.00000000E+00  0.00000000E+00
  0.00000000E+00  0.00000000E+00  0.00000000E+00
  0.00000000E+00  0.00000000E+00  0.00000000E+00
  0.00000000E+00  0.00000000E+00  0.00000000E+00
  0.00000000E+00  0.00000000E+00  0.00000000E+00
  0.00000000E+00  0.00000000E+00  0.00000000E+00
  0.00000000E+00  0.00000000E+00  0.00000000E+00
  0.00000000E+00  0.00000000E+00  0.00000000E+00
  0.00000000E+00  0.00000000E+00  0.00000000E+00
  0.00000000E+00  0.00000000E+00  0.00000000E+00
  0.00000000E+00  0.00000000E+00  0.00000000E+00
  0.00000000E+00  0.00000000E+00  0.00000000E+00
  0.00000000E+00  0.00000000E+00  0.00000000E+00
  0.00000000E+00  0.00000000E+00  0.00000000E+00
  0.00000000E+00  0.00000000E+00  0.00000000E+00
  0.00000000E+00  0.00000000E+00  0.00000000E+00
  0.00000000E+00  0.00000000E+00  0.00000000E+00
  0.00000000E+00  0.00000000E+00  0.00000000E+00
  0.00000000E+00  0.00000000E+00  0.00000000E+00
  0.00000000E+00  0.00000000E+00  0.00000000E+00
  0.00000000E+00  0.00000000E+00  0.00000000E+00
  0.00000000E+00  0.00000000E+00  0.00000000E+00
  0.00000000E+00  0.00000000E+00  0.00000000E+00
  0.00000000E+00  0.00000000E+00  0.00000000E+00
  0.00000000E+00  0.00000000E+00  0.00000000E+00
  0.00000000E+00  0.00000000E+00  0.00000000E+00
  0.00000000E+00  0.00000000E+00  0.00000000E+00
  0.00000000E+00  0.00000000E+00  0.00000000E+00
  0.00000000E+00  0.00000000E+00  0.00000000E+00
  0.00000000E+00  0.00000000E+00  0.00000000E+00
  0.00000000E+00  0.00000000E+00  0.00000000E+00
  0.00000000E+00  0.00000000E+00  0.00000000E+00
  0.00000000E+00  0.00000000E+00  0.00000000E+00
  0.00000000E+00  0.00000000E+00  0.00000000E+00
  0.00000000E+00  0.00000000E+00  0.00000000E+00
  0.00000000E+00  0.00000000E+00  0.00000000E+00
  0.00000000E+00  0.00000000E+00  0.00000000E+00
  0.00000000E+00  0.00000000E+00  0.00000000E+00
  0.00000000E+00  0.00000000E+00  0.00000000E+00
  0.00000000E+00  0.00000000E+00  0.00000000E+00
  0.00000000E+00  0.00000000E+00  0.00000000E+00
  0.00000000E+00  0.00000000E+00  0.00000000E+00
  0.00000000E+00  0.00000000E+00  0.00000000E+00
  0.00000000E+00  0.00000000E+00  0.00000000E+00
  0.00000000E+00  0.00000000E+00  0.00000000E+00
  0.00000000E+00  0.00000000E+00  0.00000000E+00
  0.00000000E+00  0.00000000E+00  0.00000000E+00
  0.00000000E+00  0.00000000E+00  0.00000000E+00
  0.00000000E+00  0.00000000E+00  0.00000000E+00
  0.00000000E+00  0.00000000E+00  0.00000000E+00
  0.00000000E+00  0.00000000E+00  0.00000000E+00
  0.00000000E+00  0.00000000E+00  0.00000000E+00
  0.00000000E+00  0.00000000E+00  0.00000000E+00
  0.00000000E+00  0.00000000E+00  0.00000000E+00
  0.00000000E+00  0.00000000E+00  0.00000000E+00
  0.00000000E+00  0.00000000E+00  0.00000000E+00
  0.00000000E+00  0.00000000E+00  0.00000000E+00
  0.00000000E+00  0.00000000E+00  0.00000000E+00
  0.00000000E+00  0.00000000E+00  0.00000000E+00
  0.00000000E+00  0.00000000E+00  0.00000000E+00
  0.00000000E+00  0.00000000E+00  0.00000000E+00
