Cu  C Br                                
    1.000000000000000     
    10.2424774999999997    0.0000000000000000    0.0000000000000000
     0.0000000000000000   10.2424774999999997    0.0000000000000000
     0.0000000000000000    0.0000000000000000   23.4318939600000000
   Cu   C    Br
    64     6     6
Selective dynamics
Direct
  0.2499999995118358  0.0000000000000000  0.3200765594451340   F   F   F
  0.0000000000000000  0.4999999990236716  0.3200765594451340   F   F   F
  0.2499999995118358  0.2499999995118358  0.3200765594451340   F   F   F
  0.2499999995118358  0.4999999990236716  0.3200765594451340   F   F   F
  0.2499999995118358  0.7499999985355075  0.3200765594451340   F   F   F
  0.4999999990236716  0.0000000000000000  0.3200765594451340   F   F   F
  0.4999999990236716  0.2499999995118358  0.3200765594451340   F   F   F
  0.0000000000000000  0.7499999985355075  0.3200765594451340   F   F   F
  0.4999999990236716  0.4999999990236716  0.3200765594451340   F   F   F
  0.4999999990236716  0.7499999985355075  0.3200765594451340   F   F   F
  0.7499999985355075  0.0000000000000000  0.3200765594451340   F   F   F
  0.7499999985355075  0.2499999995118358  0.3200765594451340   F   F   F
  0.7499999985355075  0.4999999990236716  0.3200765594451340   F   F   F
  0.7499999985355075  0.7499999985355075  0.3200765594451340   F   F   F
  0.0000000000000000  0.0000000000000000  0.3200765594451340   F   F   F
  0.0000000000000000  0.2499999995118358  0.3200765594451340   F   F   F
  0.2503185227984943  0.9979994362591482  0.4742516714407626   T   T   T
  0.2481038248853816  0.2481106526120160  0.4736342035968967   T   T   T
  0.2497466038749673  0.4980643227192208  0.4743177909465502   T   T   T
  0.2518763851587520  0.7480937716605229  0.4748147221922595   T   T   T
  0.4999980267607422  0.0000010896341929  0.4749367506131300   T   T   T
  0.4980857928446271  0.2497749207565459  0.4743103905870563   T   T   T
  0.4999942954737853  0.4999997770222544  0.4736115778361442   T   T   T
  0.5019059379543162  0.7502311866382292  0.4743086828712108   T   T   T
  0.7496754382621272  0.0020005374745523  0.4742552849502640   T   T   T
  0.7481146759266742  0.2519076901408565  0.4748174189272993   T   T   T
  0.7502450293578432  0.5019329973057723  0.4743162850576442   T   T   T
  0.7518893487338041  0.7518933263105784  0.4736348915939627   T   T   T
 -0.0000053298483443  0.0000006297492758  0.4737113815532223   T   T   T
  0.9980117031349595  0.2503370013130153  0.4742596973283387   T   T   T
 -0.0000012081115390  0.4999976216154534  0.4749696159177258   T   T   T
  0.0019810518491673  0.7496600639000198  0.4742576235078274   T   T   T
  0.1220745200639836  0.1219715756154056  0.5495358617866876   T   T   T
  0.1218659080394566  0.3722206381218280  0.5504581928267022   T   T   T
  0.1265831930078201  0.6233634384041187  0.5506546254625427   T   T   T
  0.1267549358417441  0.8731910424686731  0.5496052232608215   T   T   T
  0.3723006858937364  0.1218749737518949  0.5504091399795699   T   T   T
  0.3684061752415037  0.3684041908445925  0.5497801803913235   T   T   T
  0.3785316975385548  0.6214554563203296  0.5494104162555312   T   T   T
  0.3765821501411329  0.8734276684269836  0.5506400327693842   T   T   T
  0.6234108945174905  0.1265756804937911  0.5506396365398396   T   T   T
  0.6214430662883746  0.3785599658071413  0.5494104984305233   T   T   T
  0.6315746107346835  0.6316003654476522  0.5497784298158522   T   T   T
  0.6276911320471590  0.8781291506327257  0.5504101178746260   T   T   T
  0.8732416373190683  0.1268093194848129  0.5496061237658143   T   T   T
  0.8734137013237797  0.3766301912104057  0.5506544507861854   T   T   T
  0.8781242111843318  0.6277708335607098  0.5504554030216592   T   T   T
  0.8779254071676987  0.8780269259365362  0.5495266666146148   T   T   T
  0.1250000002440785  0.1249999992677573  0.3973486452223582   F   F   F
  0.1250000002440785  0.3749999997559215  0.3973486452223582   F   F   F
  0.1250000002440785  0.6249999982914289  0.3973486452223582   F   F   F
  0.1250000002440785  0.8749999987795931  0.3973486452223582   F   F   F
  0.3749999997559215  0.1249999992677573  0.3973486452223582   F   F   F
  0.3749999997559215  0.3749999997559215  0.3973486452223582   F   F   F
  0.3749999997559215  0.6249999982914289  0.3973486452223582   F   F   F
  0.3749999997559215  0.8749999987795931  0.3973486452223582   F   F   F
  0.6249999982914289  0.1249999992677573  0.3973486452223582   F   F   F
  0.6249999982914289  0.3749999997559215  0.3973486452223582   F   F   F
  0.6249999992677573  0.6249999982914289  0.3973486452223582   F   F   F
  0.6249999992677573  0.8749999987795931  0.3973486452223582   F   F   F
  0.8749999987795931  0.1249999992677573  0.3973486452223582   F   F   F
  0.8749999978032648  0.3749999997559215  0.3973486452223582   F   F   F
  0.8749999987795931  0.6249999982914289  0.3973486452223582   F   F   F
  0.8749999987795931  0.8749999987795931  0.3973486452223582   F   F   F
  0.3694518540992294  0.5329436586638786  0.6393170864724050   T   T   T
  0.4670613717624411  0.6305366443692739  0.6393218882380819   T   T   T
  0.5984179287309958  0.5984319281465709  0.6323816813340936   T   T   T
  0.6306056697639124  0.4671294884165544  0.6393182232714184   T   T   T
  0.5329397612122146  0.3694250455691178  0.6393094501693980   T   T   T
  0.4015823841850724  0.4016155227535462  0.6323836520275918   T   T   T
  0.1803686167435986  0.5799085252730918  0.6540285743799417   T   T   T
  0.4201957771819288  0.8196607103570425  0.6540444471517010   T   T   T
  0.8436015949173657  0.8422910208589488  0.6455587556457691   T   T   T
  0.8197165195537643  0.4200875832042434  0.6539930600974813   T   T   T
  0.5798714778449209  0.1803084288376730  0.6540613552042371   T   T   T
  0.1564502613654884  0.1576655647175791  0.6455550815939403   T   T   T
 
  0.00000000E+00  0.00000000E+00  0.00000000E+00
  0.00000000E+00  0.00000000E+00  0.00000000E+00
  0.00000000E+00  0.00000000E+00  0.00000000E+00
  0.00000000E+00  0.00000000E+00  0.00000000E+00
  0.00000000E+00  0.00000000E+00  0.00000000E+00
  0.00000000E+00  0.00000000E+00  0.00000000E+00
  0.00000000E+00  0.00000000E+00  0.00000000E+00
  0.00000000E+00  0.00000000E+00  0.00000000E+00
  0.00000000E+00  0.00000000E+00  0.00000000E+00
  0.00000000E+00  0.00000000E+00  0.00000000E+00
  0.00000000E+00  0.00000000E+00  0.00000000E+00
  0.00000000E+00  0.00000000E+00  0.00000000E+00
  0.00000000E+00  0.00000000E+00  0.00000000E+00
  0.00000000E+00  0.00000000E+00  0.00000000E+00
  0.00000000E+00  0.00000000E+00  0.00000000E+00
  0.00000000E+00  0.00000000E+00  0.00000000E+00
  0.00000000E+00  0.00000000E+00  0.00000000E+00
  0.00000000E+00  0.00000000E+00  0.00000000E+00
  0.00000000E+00  0.00000000E+00  0.00000000E+00
  0.00000000E+00  0.00000000E+00  0.00000000E+00
  0.00000000E+00  0.00000000E+00  0.00000000E+00
  0.00000000E+00  0.00000000E+00  0.00000000E+00
  0.00000000E+00  0.00000000E+00  0.00000000E+00
  0.00000000E+00  0.00000000E+00  0.00000000E+00
  0.00000000E+00  0.00000000E+00  0.00000000E+00
  0.00000000E+00  0.00000000E+00  0.00000000E+00
  0.00000000E+00  0.00000000E+00  0.00000000E+00
  0.00000000E+00  0.00000000E+00  0.00000000E+00
  0.00000000E+00  0.00000000E+00  0.00000000E+00
  0.00000000E+00  0.00000000E+00  0.00000000E+00
  0.00000000E+00  0.00000000E+00  0.00000000E+00
  0.00000000E+00  0.00000000E+00  0.00000000E+00
  0.00000000E+00  0.00000000E+00  0.00000000E+00
  0.00000000E+00  0.00000000E+00  0.00000000E+00
  0.00000000E+00  0.00000000E+00  0.00000000E+00
  0.00000000E+00  0.00000000E+00  0.00000000E+00
  0.00000000E+00  0.00000000E+00  0.00000000E+00
  0.00000000E+00  0.00000000E+00  0.00000000E+00
  0.00000000E+00  0.00000000E+00  0.00000000E+00
  0.00000000E+00  0.00000000E+00  0.00000000E+00
  0.00000000E+00  0.00000000E+00  0.00000000E+00
  0.00000000E+00  0.00000000E+00  0.00000000E+00
  0.00000000E+00  0.00000000E+00  0.00000000E+00
  0.00000000E+00  0.00000000E+00  0.00000000E+00
  0.00000000E+00  0.00000000E+00  0.00000000E+00
  0.00000000E+00  0.00000000E+00  0.00000000E+00
  0.00000000E+00  0.00000000E+00  0.00000000E+00
  0.00000000E+00  0.00000000E+00  0.00000000E+00
  0.00000000E+00  0.00000000E+00  0.00000000E+00
  0.00000000E+00  0.00000000E+00  0.00000000E+00
  0.00000000E+00  0.00000000E+00  0.00000000E+00
  0.00000000E+00  0.00000000E+00  0.00000000E+00
  0.00000000E+00  0.00000000E+00  0.00000000E+00
  0.00000000E+00  0.00000000E+00  0.00000000E+00
  0.00000000E+00  0.00000000E+00  0.00000000E+00
  0.00000000E+00  0.00000000E+00  0.00000000E+00
  0.00000000E+00  0.00000000E+00  0.00000000E+00
  0.00000000E+00  0.00000000E+00  0.00000000E+00
  0.00000000E+00  0.00000000E+00  0.00000000E+00
  0.00000000E+00  0.00000000E+00  0.00000000E+00
  0.00000000E+00  0.00000000E+00  0.00000000E+00
  0.00000000E+00  0.00000000E+00  0.00000000E+00
  0.00000000E+00  0.00000000E+00  0.00000000E+00
  0.00000000E+00  0.00000000E+00  0.00000000E+00
  0.00000000E+00  0.00000000E+00  0.00000000E+00
  0.00000000E+00  0.00000000E+00  0.00000000E+00
  0.00000000E+00  0.00000000E+00  0.00000000E+00
  0.00000000E+00  0.00000000E+00  0.00000000E+00
  0.00000000E+00  0.00000000E+00  0.00000000E+00
  0.00000000E+00  0.00000000E+00  0.00000000E+00
  0.00000000E+00  0.00000000E+00  0.00000000E+00
  0.00000000E+00  0.00000000E+00  0.00000000E+00
  0.00000000E+00  0.00000000E+00  0.00000000E+00
  0.00000000E+00  0.00000000E+00  0.00000000E+00
  0.00000000E+00  0.00000000E+00  0.00000000E+00
  0.00000000E+00  0.00000000E+00  0.00000000E+00
