Ir48 C6 F2 H4                           
    1.000000000000000     
    10.9622135000000007    0.0000000000000000    0.0000000000000000
     0.0000000000000000   15.5029109999999992    0.0000000000000000
     0.0000000000000000    0.0000000000000000   15.5424596000000008
   Ir   C    F    H 
    48     6     2     4
Selective dynamics
Direct
  0.2498680258815824  0.0001725147742206  0.4135204580752969   T   T   T
  0.2495730787338033  0.2509257253034178  0.4123673182311478   T   T   T
  0.2474406222310606  0.4988632476637136  0.4076262100494716   T   T   T
  0.2543073309836430  0.7466303148866089  0.4158770898222102   T   T   T
  0.4999973116216267  0.9999995828029284  0.3937288748731831   T   T   T
  0.4989001013405172  0.2528774339562858  0.3962814140252533   T   T   T
  0.5000049283156258  0.4999964295839092  0.3939945636209572   T   T   T
  0.5011001826728432  0.7471192354948357  0.3962888642871647   T   T   T
  0.7501340398622034  0.9998329929998988  0.4135190791334580   T   T   T
  0.7456932884737597  0.2533597721364842  0.4158730684575573   T   T   T
  0.7525606770671658  0.5011366498154075  0.4076256989459992   T   T   T
  0.7504270172229397  0.7490677177774927  0.4123661331275841   T   T   T
  0.9999967903497833  0.0000022136705340  0.3906653661901061   T   T   T
  0.9981621449388172  0.2496615661565542  0.3944744709786363   T   T   T
  0.9999990599616311  0.5000014269590380  0.3915964750960583   T   T   T
  0.0018361399270503  0.7503312780154303  0.3944755212902677   T   T   T
  0.1228519142156586  0.1248756874851082  0.4849083767768718   T   T   T
  0.1194916723420647  0.3748474538285862  0.4849429500017024   T   T   T
  0.1224600076501972  0.6237139009839083  0.4848744437177928   T   T   T
  0.1253582253292223  0.8742250846344461  0.4848533852245041   T   T   T
  0.3761400572615372  0.1256301773840107  0.4846302496497970   T   T   T
  0.3670688338227066  0.3784980388011050  0.4886905193033826   T   T   T
  0.3784044590358135  0.6134855318964370  0.4931636383069886   T   T   T
  0.3768209585170581  0.8744638037368517  0.4844248808261611   T   T   T
  0.6231775991333564  0.1255355936244626  0.4844273292790007   T   T   T
  0.6216033567728090  0.3864930236492441  0.4931495320150105   T   T   T
  0.6329334012605443  0.6214914820268262  0.4886873488945156   T   T   T
  0.6238563962748245  0.8743673281854925  0.4846330192705963   T   T   T
  0.8746407659153874  0.1257717965266423  0.4848529827250303   T   T   T
  0.8775485577624380  0.3762805083843901  0.4848737400102436   T   T   T
  0.8805012352787855  0.6251469187825833  0.4849413582255764   T   T   T
  0.8771515121470230  0.8751209549897752  0.4849075834903331   T   T   T
  0.1249999993158326  0.1249999996774775  0.3216994046424944   F   F   F
  0.1249999993158326  0.3749999996774775  0.3216994046424944   F   F   F
  0.1250000002280558  0.6249999990324397  0.3216994046424944   F   F   F
  0.1250000002280558  0.8749999983874019  0.3216994046424944   F   F   F
  0.3749999988597210  0.1249999996774775  0.3216994046424944   F   F   F
  0.3749999997719442  0.3749999996774775  0.3216994046424944   F   F   F
  0.3749999997719442  0.6249999990324397  0.3216994046424944   F   F   F
  0.3749999997719442  0.8749999983874019  0.3216994046424944   F   F   F
  0.6249999993158326  0.1249999996774775  0.3216994046424944   F   F   F
  0.6249999984036094  0.3749999996774775  0.3216994046424944   F   F   F
  0.6249999993158326  0.6249999990324397  0.3216994046424944   F   F   F
  0.6249999993158326  0.8749999983874019  0.3216994046424944   F   F   F
  0.8749999979474978  0.1249999996774775  0.3216994046424944   F   F   F
  0.8749999988597210  0.3749999996774775  0.3216994046424944   F   F   F
  0.8749999988597210  0.6249999990324397  0.3216994046424944   F   F   F
  0.8749999988597210  0.8749999983874019  0.3216994046424944   F   F   F
  0.5992322035847693  0.5659726779504837  0.6075263011399983   T   T   T
  0.6271931532913513  0.4701929578417250  0.6096055084387118   T   T   T
  0.5317014644376314  0.4081953337823165  0.6179852920603537   T   T   T
  0.4007991396856312  0.4339800081037524  0.6075049822325340   T   T   T
  0.3727818978068171  0.5297743338742933  0.6096320299228069   T   T   T
  0.4683228016177665  0.5917415498077929  0.6179897453292895   T   T   T
  0.6694733559797257  0.6047323725937730  0.6740737987539518   T   T   T
  0.3305217363287269  0.3951957898469232  0.6740906143554781   T   T   T
  0.7155841449955744  0.4575743137854005  0.6395447164327450   T   T   T
  0.5455165597204683  0.3496990441563810  0.6560512843208173   T   T   T
  0.2844504248868986  0.5423583874820679  0.6395504670818823   T   T   T
  0.4544990239624269  0.6502384216476287  0.6560908272420178   T   T   T
 
  0.00000000E+00  0.00000000E+00  0.00000000E+00
  0.00000000E+00  0.00000000E+00  0.00000000E+00
  0.00000000E+00  0.00000000E+00  0.00000000E+00
  0.00000000E+00  0.00000000E+00  0.00000000E+00
  0.00000000E+00  0.00000000E+00  0.00000000E+00
  0.00000000E+00  0.00000000E+00  0.00000000E+00
  0.00000000E+00  0.00000000E+00  0.00000000E+00
  0.00000000E+00  0.00000000E+00  0.00000000E+00
  0.00000000E+00  0.00000000E+00  0.00000000E+00
  0.00000000E+00  0.00000000E+00  0.00000000E+00
  0.00000000E+00  0.00000000E+00  0.00000000E+00
  0.00000000E+00  0.00000000E+00  0.00000000E+00
  0.00000000E+00  0.00000000E+00  0.00000000E+00
  0.00000000E+00  0.00000000E+00  0.00000000E+00
  0.00000000E+00  0.00000000E+00  0.00000000E+00
  0.00000000E+00  0.00000000E+00  0.00000000E+00
  0.00000000E+00  0.00000000E+00  0.00000000E+00
  0.00000000E+00  0.00000000E+00  0.00000000E+00
  0.00000000E+00  0.00000000E+00  0.00000000E+00
  0.00000000E+00  0.00000000E+00  0.00000000E+00
  0.00000000E+00  0.00000000E+00  0.00000000E+00
  0.00000000E+00  0.00000000E+00  0.00000000E+00
  0.00000000E+00  0.00000000E+00  0.00000000E+00
  0.00000000E+00  0.00000000E+00  0.00000000E+00
  0.00000000E+00  0.00000000E+00  0.00000000E+00
  0.00000000E+00  0.00000000E+00  0.00000000E+00
  0.00000000E+00  0.00000000E+00  0.00000000E+00
  0.00000000E+00  0.00000000E+00  0.00000000E+00
  0.00000000E+00  0.00000000E+00  0.00000000E+00
  0.00000000E+00  0.00000000E+00  0.00000000E+00
  0.00000000E+00  0.00000000E+00  0.00000000E+00
  0.00000000E+00  0.00000000E+00  0.00000000E+00
  0.00000000E+00  0.00000000E+00  0.00000000E+00
  0.00000000E+00  0.00000000E+00  0.00000000E+00
  0.00000000E+00  0.00000000E+00  0.00000000E+00
  0.00000000E+00  0.00000000E+00  0.00000000E+00
  0.00000000E+00  0.00000000E+00  0.00000000E+00
  0.00000000E+00  0.00000000E+00  0.00000000E+00
  0.00000000E+00  0.00000000E+00  0.00000000E+00
  0.00000000E+00  0.00000000E+00  0.00000000E+00
  0.00000000E+00  0.00000000E+00  0.00000000E+00
  0.00000000E+00  0.00000000E+00  0.00000000E+00
  0.00000000E+00  0.00000000E+00  0.00000000E+00
  0.00000000E+00  0.00000000E+00  0.00000000E+00
  0.00000000E+00  0.00000000E+00  0.00000000E+00
  0.00000000E+00  0.00000000E+00  0.00000000E+00
  0.00000000E+00  0.00000000E+00  0.00000000E+00
  0.00000000E+00  0.00000000E+00  0.00000000E+00
  0.00000000E+00  0.00000000E+00  0.00000000E+00
  0.00000000E+00  0.00000000E+00  0.00000000E+00
  0.00000000E+00  0.00000000E+00  0.00000000E+00
  0.00000000E+00  0.00000000E+00  0.00000000E+00
  0.00000000E+00  0.00000000E+00  0.00000000E+00
  0.00000000E+00  0.00000000E+00  0.00000000E+00
  0.00000000E+00  0.00000000E+00  0.00000000E+00
  0.00000000E+00  0.00000000E+00  0.00000000E+00
  0.00000000E+00  0.00000000E+00  0.00000000E+00
  0.00000000E+00  0.00000000E+00  0.00000000E+00
  0.00000000E+00  0.00000000E+00  0.00000000E+00
  0.00000000E+00  0.00000000E+00  0.00000000E+00
