Cu48 C4 N2 Br4                          
    1.000000000000000     
    10.2424774999999997    0.0000000000000000    0.0000000000000000
     0.0000000000000000   10.2424774999999997    0.0000000000000000
     0.0000000000000000    0.0000000000000000   16.5484553599999984
   Cu   C    N    Br
    48     4     2     4
Selective dynamics
Direct
  0.2494954854525133  0.9983917399739752  0.4093471356856497   T   T   T
  0.2485749093450664  0.2485744292992180  0.4083649799688942   T   T   T
  0.2500063744262633  0.4994761847523463  0.4092528748816306   T   T   T
  0.2510719243346244  0.7489233924389538  0.4100638532161511   T   T   T
  0.4999907821033673  0.0000034456526592  0.4091498397703077   T   T   T
  0.4994669982786064  0.2500106762116729  0.4092564669386647   T   T   T
  0.4999950378133988  0.4999979407923547  0.4098997032938883   T   T   T
  0.5005198314128805  0.7499922122147069  0.4092563615572757   T   T   T
  0.7505025988172704  0.0016122057654826  0.4093526750634524   T   T   T
  0.7489224327738739  0.2510754774026509  0.4100731244659173   T   T   T
  0.7499921058910246  0.5005240571152001  0.4092564393169340   T   T   T
  0.7514270076588616  0.7514212386420596  0.4083637200640737   T   T   T
  0.0000075607817251  0.9999999603088554  0.4093871691292676   T   T   T
  0.9983982947735868  0.2494962526588296  0.4093534426541368   T   T   T
  0.0000102482485858  0.5000021405525317  0.4091464349201956   T   T   T
  0.0016217257853839  0.7504985327124061  0.4093430245114149   T   T   T
  0.1244185999367957  0.1244259329759316  0.5166378074601852   T   T   T
  0.1215751188709433  0.3733954485780515  0.5153138059423554   T   T   T
  0.1253383874455238  0.6248540835814183  0.5174811122022263   T   T   T
  0.1249711461703242  0.8750288750728927  0.5170723007296871   T   T   T
  0.3733995277251481  0.1215794292904846  0.5153099670900687   T   T   T
  0.3677967551908665  0.3677979333747032  0.5156828783654035   T   T   T
  0.3756451642187457  0.6243656352357689  0.5172499415114729   T   T   T
  0.3751508295904387  0.8746630027604780  0.5174739351323439   T   T   T
  0.6248633472709741  0.1253361056804749  0.5174744493493932   T   T   T
  0.6243658923521380  0.3756390195729580  0.5172447654104033   T   T   T
  0.6322073008365763  0.6321989837856066  0.5156926640517483   T   T   T
  0.6266016965159551  0.8784149694969159  0.5153158733578849   T   T   T
  0.8750227891463283  0.1249744231112757  0.5170674881375419   T   T   T
  0.8746570230905846  0.3751408162923084  0.5174749442549000   T   T   T
  0.8784127419509744  0.6265986338520051  0.5153197467349102   T   T   T
  0.8755669384900671  0.8755765518792060  0.5166517941219055   T   T   T
  0.1250000002440785  0.1249999992677573  0.3021430031521675   F   F   F
  0.1250000002440785  0.3749999997559215  0.3021430031521675   F   F   F
  0.1250000002440785  0.6249999982914289  0.3021430031521675   F   F   F
  0.1250000002440785  0.8749999987795931  0.3021430031521675   F   F   F
  0.3749999997559215  0.1249999992677573  0.3021430031521675   F   F   F
  0.3749999997559215  0.3749999997559215  0.3021430031521675   F   F   F
  0.3749999997559215  0.6249999982914289  0.3021430031521675   F   F   F
  0.3749999997559215  0.8749999987795931  0.3021430031521675   F   F   F
  0.6249999982914289  0.1249999992677573  0.3021430031521675   F   F   F
  0.6249999982914289  0.3749999997559215  0.3021430031521675   F   F   F
  0.6249999992677573  0.6249999982914289  0.3021430031521675   F   F   F
  0.6249999992677573  0.8749999987795931  0.3021430031521675   F   F   F
  0.8749999987795931  0.1249999992677573  0.3021430031521675   F   F   F
  0.8749999978032648  0.3749999997559215  0.3021430031521675   F   F   F
  0.8749999987795931  0.6249999982914289  0.3021430031521675   F   F   F
  0.8749999987795931  0.8749999987795931  0.3021430031521675   F   F   F
  0.5320924541659622  0.3718931203671687  0.6457682660532313   T   T   T
  0.6281082431746796  0.4679229732855958  0.6457586403336677   T   T   T
  0.4679182320070652  0.6281336747515809  0.6457666683595704   T   T   T
  0.3718902261505193  0.5320716527600808  0.6457577757795434   T   T   T
  0.5965714491284047  0.5964930009630152  0.6313361981129901   T   T   T
  0.4034346916387932  0.4034806487098734  0.6313310970444661   T   T   T
  0.1925806505993606  0.5639812693001929  0.6790822122204645   T   T   T
  0.4360767685112776  0.8074396450717245  0.6790765432039549   T   T   T
  0.5639238508293261  0.1925571027732076  0.6790787433436876   T   T   T
  0.8074204442601669  0.4360205167927589  0.6790857851943883   T   T   T
 
  0.00000000E+00  0.00000000E+00  0.00000000E+00
  0.00000000E+00  0.00000000E+00  0.00000000E+00
  0.00000000E+00  0.00000000E+00  0.00000000E+00
  0.00000000E+00  0.00000000E+00  0.00000000E+00
  0.00000000E+00  0.00000000E+00  0.00000000E+00
  0.00000000E+00  0.00000000E+00  0.00000000E+00
  0.00000000E+00  0.00000000E+00  0.00000000E+00
  0.00000000E+00  0.00000000E+00  0.00000000E+00
  0.00000000E+00  0.00000000E+00  0.00000000E+00
  0.00000000E+00  0.00000000E+00  0.00000000E+00
  0.00000000E+00  0.00000000E+00  0.00000000E+00
  0.00000000E+00  0.00000000E+00  0.00000000E+00
  0.00000000E+00  0.00000000E+00  0.00000000E+00
  0.00000000E+00  0.00000000E+00  0.00000000E+00
  0.00000000E+00  0.00000000E+00  0.00000000E+00
  0.00000000E+00  0.00000000E+00  0.00000000E+00
  0.00000000E+00  0.00000000E+00  0.00000000E+00
  0.00000000E+00  0.00000000E+00  0.00000000E+00
  0.00000000E+00  0.00000000E+00  0.00000000E+00
  0.00000000E+00  0.00000000E+00  0.00000000E+00
  0.00000000E+00  0.00000000E+00  0.00000000E+00
  0.00000000E+00  0.00000000E+00  0.00000000E+00
  0.00000000E+00  0.00000000E+00  0.00000000E+00
  0.00000000E+00  0.00000000E+00  0.00000000E+00
  0.00000000E+00  0.00000000E+00  0.00000000E+00
  0.00000000E+00  0.00000000E+00  0.00000000E+00
  0.00000000E+00  0.00000000E+00  0.00000000E+00
  0.00000000E+00  0.00000000E+00  0.00000000E+00
  0.00000000E+00  0.00000000E+00  0.00000000E+00
  0.00000000E+00  0.00000000E+00  0.00000000E+00
  0.00000000E+00  0.00000000E+00  0.00000000E+00
  0.00000000E+00  0.00000000E+00  0.00000000E+00
  0.00000000E+00  0.00000000E+00  0.00000000E+00
  0.00000000E+00  0.00000000E+00  0.00000000E+00
  0.00000000E+00  0.00000000E+00  0.00000000E+00
  0.00000000E+00  0.00000000E+00  0.00000000E+00
  0.00000000E+00  0.00000000E+00  0.00000000E+00
  0.00000000E+00  0.00000000E+00  0.00000000E+00
  0.00000000E+00  0.00000000E+00  0.00000000E+00
  0.00000000E+00  0.00000000E+00  0.00000000E+00
  0.00000000E+00  0.00000000E+00  0.00000000E+00
  0.00000000E+00  0.00000000E+00  0.00000000E+00
  0.00000000E+00  0.00000000E+00  0.00000000E+00
  0.00000000E+00  0.00000000E+00  0.00000000E+00
  0.00000000E+00  0.00000000E+00  0.00000000E+00
  0.00000000E+00  0.00000000E+00  0.00000000E+00
  0.00000000E+00  0.00000000E+00  0.00000000E+00
  0.00000000E+00  0.00000000E+00  0.00000000E+00
  0.00000000E+00  0.00000000E+00  0.00000000E+00
  0.00000000E+00  0.00000000E+00  0.00000000E+00
  0.00000000E+00  0.00000000E+00  0.00000000E+00
  0.00000000E+00  0.00000000E+00  0.00000000E+00
  0.00000000E+00  0.00000000E+00  0.00000000E+00
  0.00000000E+00  0.00000000E+00  0.00000000E+00
  0.00000000E+00  0.00000000E+00  0.00000000E+00
  0.00000000E+00  0.00000000E+00  0.00000000E+00
  0.00000000E+00  0.00000000E+00  0.00000000E+00
  0.00000000E+00  0.00000000E+00  0.00000000E+00
