Rh48 C4 N2 F4                           
    1.000000000000000     
    10.8856652999999994    0.0000000000000000    0.0000000000000000
     0.0000000000000000   15.3946555000000007    0.0000000000000000
     0.0000000000000000    0.0000000000000000   15.4457957300000004
   Rh   C    N    F 
    48     4     2     4
Selective dynamics
Direct
  0.2499021698478430  0.2505097782982375  0.4038273045240999   T   T   T
  0.2499119874964038  0.4995498213870704  0.4038939477382399   T   T   T
  0.2515330135264762  0.7482302397084339  0.4044317163746527   T   T   T
  0.2504032142748187  0.0002251758433260  0.4039354416933136   T   T   T
  0.5004934829507590  0.2512544868087119  0.4005399479678857   T   T   T
  0.5000009525584517  0.4999951813026016  0.4002393151564547   T   T   T
  0.4995096510548294  0.7487540058270028  0.4005420532629884   T   T   T
  0.4999971685611229  0.9999936673744614  0.4030884248276223   T   T   T
  0.7484705721319571  0.2517834373145931  0.4044331509250725   T   T   T
  0.7500869033320186  0.5004451971479966  0.4038942137033033   T   T   T
  0.7500953100325205  0.7494934357896312  0.4038319532644010   T   T   T
  0.7495988016645114  0.9997588307899079  0.4039372573921227   T   T   T
  0.9988756184426464  0.2500461492767130  0.4027369978966817   T   T   T
  0.9999995368339398  0.5000010138804427  0.4030084374900937   T   T   T
  0.0011183501272995  0.7499636527737508  0.4027328133118075   T   T   T
  0.9999991312404148  0.9999900675839370  0.4011892196900959   T   T   T
  0.1244906671554915  0.1250430987239852  0.4820469058126093   T   T   T
  0.1222188679026033  0.3740794809617611  0.4820926440703275   T   T   T
  0.1260678737184904  0.6243155132613509  0.4822264699304313   T   T   T
  0.1258678303430187  0.8747648094513423  0.4820552547633952   T   T   T
  0.3753556252147234  0.1257061840598013  0.4819160441570887   T   T   T
  0.3720080570971760  0.3743023763696485  0.4843817800777259   T   T   T
  0.3787275612672119  0.6180822616106312  0.4876049553702586   T   T   T
  0.3751543283303391  0.8744359213638830  0.4818179714623412   T   T   T
  0.6248380936002462  0.1255586827532014  0.4818174978259648   T   T   T
  0.6212759369085958  0.3819253517605290  0.4876007191976228   T   T   T
  0.6279835324410357  0.6256953328028274  0.4843782184788097   T   T   T
  0.6246426476541131  0.8742927584034987  0.4819122097971231   T   T   T
  0.8741324675883106  0.1252341000107933  0.4820609446971886   T   T   T
  0.8739332095234289  0.3756887229362249  0.4822367701050467   T   T   T
  0.8777798696294283  0.6259186361527540  0.4820623509201951   T   T   T
  0.8755111735702030  0.8749597781285416  0.4820805066181322   T   T   T
  0.1249999997703384  0.1250000001623945  0.3237126845002010   F   F   F
  0.1249999997703384  0.3750000004871836  0.3237126845002010   F   F   F
  0.1250000006889778  0.6250000014615438  0.3237126845002010   F   F   F
  0.1250000006889778  0.8750000017863329  0.3237126845002010   F   F   F
  0.3750000002296616  0.1250000001623945  0.3237126845002010   F   F   F
  0.3750000002296616  0.3750000004871836  0.3237126845002010   F   F   F
  0.3750000011483010  0.6250000014615438  0.3237126845002010   F   F   F
  0.3750000011483010  0.8750000017863329  0.3237126845002010   F   F   F
  0.6250000006889778  0.1250000001623945  0.3237126845002010   F   F   F
  0.6250000006889778  0.3750000004871836  0.3237126845002010   F   F   F
  0.6250000006889778  0.6250000014615438  0.3237126845002010   F   F   F
  0.6250000006889778  0.8750000017863329  0.3237126845002010   F   F   F
  0.8750000011483010  0.1250000001623945  0.3237126845002010   F   F   F
  0.8750000011483010  0.3750000004871836  0.3237126845002010   F   F   F
  0.8750000020669404  0.6250000014615438  0.3237126845002010   F   F   F
  0.8750000011483010  0.8750000017863329  0.3237126845002010   F   F   F
  0.4470553683325917  0.5844066729374475  0.6110150066144229   T   T   T
  0.3775382388655331  0.5047412943551635  0.6180948191783742   T   T   T
  0.5529521400535486  0.4155875848462145  0.6110273006293170   T   T   T
  0.6224490460867784  0.4952608644606329  0.6180846283840111   T   T   T
  0.4225545107755693  0.4261703187612085  0.6040690790199221   T   T   T
  0.5774567797655408  0.5738179205704768  0.6040665155779195   T   T   T
  0.7428212032860699  0.4903215967845114  0.6396180139919494   T   T   T
  0.5818694758876859  0.3513008477755335  0.6713901958743520   T   T   T
  0.4181321827430864  0.6486917492025839  0.6713855624502685   T   T   T
  0.2571934061286996  0.5096721031321607  0.6396193336298879   T   T   T
 
  0.00000000E+00  0.00000000E+00  0.00000000E+00
  0.00000000E+00  0.00000000E+00  0.00000000E+00
  0.00000000E+00  0.00000000E+00  0.00000000E+00
  0.00000000E+00  0.00000000E+00  0.00000000E+00
  0.00000000E+00  0.00000000E+00  0.00000000E+00
  0.00000000E+00  0.00000000E+00  0.00000000E+00
  0.00000000E+00  0.00000000E+00  0.00000000E+00
  0.00000000E+00  0.00000000E+00  0.00000000E+00
  0.00000000E+00  0.00000000E+00  0.00000000E+00
  0.00000000E+00  0.00000000E+00  0.00000000E+00
  0.00000000E+00  0.00000000E+00  0.00000000E+00
  0.00000000E+00  0.00000000E+00  0.00000000E+00
  0.00000000E+00  0.00000000E+00  0.00000000E+00
  0.00000000E+00  0.00000000E+00  0.00000000E+00
  0.00000000E+00  0.00000000E+00  0.00000000E+00
  0.00000000E+00  0.00000000E+00  0.00000000E+00
  0.00000000E+00  0.00000000E+00  0.00000000E+00
  0.00000000E+00  0.00000000E+00  0.00000000E+00
  0.00000000E+00  0.00000000E+00  0.00000000E+00
  0.00000000E+00  0.00000000E+00  0.00000000E+00
  0.00000000E+00  0.00000000E+00  0.00000000E+00
  0.00000000E+00  0.00000000E+00  0.00000000E+00
  0.00000000E+00  0.00000000E+00  0.00000000E+00
  0.00000000E+00  0.00000000E+00  0.00000000E+00
  0.00000000E+00  0.00000000E+00  0.00000000E+00
  0.00000000E+00  0.00000000E+00  0.00000000E+00
  0.00000000E+00  0.00000000E+00  0.00000000E+00
  0.00000000E+00  0.00000000E+00  0.00000000E+00
  0.00000000E+00  0.00000000E+00  0.00000000E+00
  0.00000000E+00  0.00000000E+00  0.00000000E+00
  0.00000000E+00  0.00000000E+00  0.00000000E+00
  0.00000000E+00  0.00000000E+00  0.00000000E+00
  0.00000000E+00  0.00000000E+00  0.00000000E+00
  0.00000000E+00  0.00000000E+00  0.00000000E+00
  0.00000000E+00  0.00000000E+00  0.00000000E+00
  0.00000000E+00  0.00000000E+00  0.00000000E+00
  0.00000000E+00  0.00000000E+00  0.00000000E+00
  0.00000000E+00  0.00000000E+00  0.00000000E+00
  0.00000000E+00  0.00000000E+00  0.00000000E+00
  0.00000000E+00  0.00000000E+00  0.00000000E+00
  0.00000000E+00  0.00000000E+00  0.00000000E+00
  0.00000000E+00  0.00000000E+00  0.00000000E+00
  0.00000000E+00  0.00000000E+00  0.00000000E+00
  0.00000000E+00  0.00000000E+00  0.00000000E+00
  0.00000000E+00  0.00000000E+00  0.00000000E+00
  0.00000000E+00  0.00000000E+00  0.00000000E+00
  0.00000000E+00  0.00000000E+00  0.00000000E+00
  0.00000000E+00  0.00000000E+00  0.00000000E+00
  0.00000000E+00  0.00000000E+00  0.00000000E+00
  0.00000000E+00  0.00000000E+00  0.00000000E+00
  0.00000000E+00  0.00000000E+00  0.00000000E+00
  0.00000000E+00  0.00000000E+00  0.00000000E+00
  0.00000000E+00  0.00000000E+00  0.00000000E+00
  0.00000000E+00  0.00000000E+00  0.00000000E+00
  0.00000000E+00  0.00000000E+00  0.00000000E+00
  0.00000000E+00  0.00000000E+00  0.00000000E+00
  0.00000000E+00  0.00000000E+00  0.00000000E+00
  0.00000000E+00  0.00000000E+00  0.00000000E+00
