Pd48 C4 N2 F4                           
    1.000000000000000     
    11.1922750000000004    0.0000000000000000    0.0000000000000000
    -5.5961369999999997    9.6927939999999992    0.0000000000000000
     0.0000000000000000    0.0000000000000000   17.5692270000000015
   Pd   C    N    F 
    48     4     2     4
Selective dynamics
Direct
  0.0833330000000032  0.1666669999999968  0.3415060000000025   F   F   F
  0.0833330000000032  0.4166669999999968  0.3415060000000025   F   F   F
  0.0833330000000032  0.6666669999999968  0.3415060000000025   F   F   F
  0.0833330000000032  0.9166669999999968  0.3415060000000025   F   F   F
  0.3333330000000032  0.1666669999999968  0.3415060000000025   F   F   F
  0.3333330000000032  0.4166669999999968  0.3415060000000025   F   F   F
  0.3333330000000032  0.6666669999999968  0.3415060000000025   F   F   F
  0.3333330000000032  0.9166669999999968  0.3415060000000025   F   F   F
  0.5833330000000032  0.1666669999999968  0.3415060000000025   F   F   F
  0.5833330000000032  0.4166669999999968  0.3415060000000025   F   F   F
  0.5833330000000032  0.6666669999999968  0.3415060000000025   F   F   F
  0.5833330000000032  0.9166669999999968  0.3415060000000025   F   F   F
  0.8333330000000032  0.1666669999999968  0.3415060000000025   F   F   F
  0.8333330000000032  0.4166669999999968  0.3415060000000025   F   F   F
  0.8333330000000032  0.6666669999999968  0.3415060000000025   F   F   F
  0.8333330000000032  0.9166669999999968  0.3415060000000025   F   F   F
  0.2497463075418906  0.9996021264517978  0.6007205933108608   T   T   T
  0.2500714542244680  0.2500322338344461  0.6019103890472408   T   T   T
  0.2497461555825282  0.5001405626172613  0.6007260651828972   T   T   T
  0.2500328496946764  0.7500145574590391  0.6009425140609537   T   T   T
  0.5000482112036195  0.9998367838128956  0.6009432667597920   T   T   T
  0.5000475804831979  0.2495572950018996  0.5999914401657875   T   T   T
  0.5000489982419509  0.5004845543376746  0.5999928924590989   T   T   T
  0.5000496949126898  0.7502080474445592  0.6009511641496132   T   T   T
  0.7500237315472376  0.0000099336558463  0.6009550317236929   T   T   T
  0.7503154526061024  0.2498644849341574  0.6007458023182863   T   T   T
  0.7501486508028847  0.5000694233544962  0.6019472786086268   T   T   T
  0.7503174509047881  0.7504460842361951  0.6007472189210645   T   T   T
  0.9999115398151446  0.0000146042947762  0.6009784800426061   T   T   T
  0.9999104589959913  0.2498919803589388  0.6009775010617702   T   T   T
  0.0000505691568478  0.5000261781074613  0.6009635866787875   T   T   T
  0.0000491514984020  0.7500189698423299  0.6009714996367350   T   T   T
  0.1668612133093035  0.0836008825227950  0.4713867134244012   T   T   T
  0.1668631771407760  0.3332595136701713  0.4713853014530969   T   T   T
  0.1665079693440674  0.5832882427466259  0.4711089455490836   T   T   T
  0.1665054999228914  0.8332124923371822  0.4711099728736130   T   T   T
  0.4166676275413508  0.0830563648614486  0.4709660436378016   T   T   T
  0.4163632557802899  0.3331805685359512  0.4709576639512392   T   T   T
  0.4166688119858932  0.5836097206516300  0.4709672845600679   T   T   T
  0.4166588484736806  0.8333248181405111  0.4712136338758981   T   T   T
  0.6666126236457899  0.0833881691858593  0.4711817332136121   T   T   T
  0.6667505692744555  0.3336018490405408  0.4710608747637508   T   T   T
  0.6667510276963426  0.5831472013576047  0.4710613089229128   T   T   T
  0.6666114857990664  0.8332174831745505  0.4711839677345679   T   T   T
  0.9167217036175757  0.0833576873197615  0.4712775018908602   T   T   T
  0.9167484509160033  0.3333715251538152  0.4712191901729312   T   T   T
  0.9162079129907426  0.5831035336532793  0.4714322538001241   T   T   T
  0.9167460357990009  0.8333722341465801  0.4712237334522342   T   T   T
  0.5724254453709534  0.5119282254709390  0.7713550001760723   T   T   T
  0.4275924259731454  0.4395330643282236  0.7713573717996169   T   T   T
  0.4275322823830265  0.2380523208359975  0.7713604778930687   T   T   T
  0.5723742671075627  0.3104644646618553  0.7713568762330993   T   T   T
  0.3562089071935901  0.3031359572828904  0.7719917495949176   T   T   T
  0.6437780399287334  0.4469283218141271  0.7719748572691643   T   T   T
  0.6429502462925640  0.2423769637606625  0.7751223998138315   T   T   T
  0.3570554978903573  0.0995113245504768  0.7751475819509039   T   T   T
  0.6429461591147714  0.6505115795604723  0.7751165000847635   T   T   T
  0.3570348686827245  0.5076324504256817  0.7751458227941157   T   T   T
 
  0.00000000E+00  0.00000000E+00  0.00000000E+00
  0.00000000E+00  0.00000000E+00  0.00000000E+00
  0.00000000E+00  0.00000000E+00  0.00000000E+00
  0.00000000E+00  0.00000000E+00  0.00000000E+00
  0.00000000E+00  0.00000000E+00  0.00000000E+00
  0.00000000E+00  0.00000000E+00  0.00000000E+00
  0.00000000E+00  0.00000000E+00  0.00000000E+00
  0.00000000E+00  0.00000000E+00  0.00000000E+00
  0.00000000E+00  0.00000000E+00  0.00000000E+00
  0.00000000E+00  0.00000000E+00  0.00000000E+00
  0.00000000E+00  0.00000000E+00  0.00000000E+00
  0.00000000E+00  0.00000000E+00  0.00000000E+00
  0.00000000E+00  0.00000000E+00  0.00000000E+00
  0.00000000E+00  0.00000000E+00  0.00000000E+00
  0.00000000E+00  0.00000000E+00  0.00000000E+00
  0.00000000E+00  0.00000000E+00  0.00000000E+00
  0.00000000E+00  0.00000000E+00  0.00000000E+00
  0.00000000E+00  0.00000000E+00  0.00000000E+00
  0.00000000E+00  0.00000000E+00  0.00000000E+00
  0.00000000E+00  0.00000000E+00  0.00000000E+00
  0.00000000E+00  0.00000000E+00  0.00000000E+00
  0.00000000E+00  0.00000000E+00  0.00000000E+00
  0.00000000E+00  0.00000000E+00  0.00000000E+00
  0.00000000E+00  0.00000000E+00  0.00000000E+00
  0.00000000E+00  0.00000000E+00  0.00000000E+00
  0.00000000E+00  0.00000000E+00  0.00000000E+00
  0.00000000E+00  0.00000000E+00  0.00000000E+00
  0.00000000E+00  0.00000000E+00  0.00000000E+00
  0.00000000E+00  0.00000000E+00  0.00000000E+00
  0.00000000E+00  0.00000000E+00  0.00000000E+00
  0.00000000E+00  0.00000000E+00  0.00000000E+00
  0.00000000E+00  0.00000000E+00  0.00000000E+00
  0.00000000E+00  0.00000000E+00  0.00000000E+00
  0.00000000E+00  0.00000000E+00  0.00000000E+00
  0.00000000E+00  0.00000000E+00  0.00000000E+00
  0.00000000E+00  0.00000000E+00  0.00000000E+00
  0.00000000E+00  0.00000000E+00  0.00000000E+00
  0.00000000E+00  0.00000000E+00  0.00000000E+00
  0.00000000E+00  0.00000000E+00  0.00000000E+00
  0.00000000E+00  0.00000000E+00  0.00000000E+00
  0.00000000E+00  0.00000000E+00  0.00000000E+00
  0.00000000E+00  0.00000000E+00  0.00000000E+00
  0.00000000E+00  0.00000000E+00  0.00000000E+00
  0.00000000E+00  0.00000000E+00  0.00000000E+00
  0.00000000E+00  0.00000000E+00  0.00000000E+00
  0.00000000E+00  0.00000000E+00  0.00000000E+00
  0.00000000E+00  0.00000000E+00  0.00000000E+00
  0.00000000E+00  0.00000000E+00  0.00000000E+00
  0.00000000E+00  0.00000000E+00  0.00000000E+00
  0.00000000E+00  0.00000000E+00  0.00000000E+00
  0.00000000E+00  0.00000000E+00  0.00000000E+00
  0.00000000E+00  0.00000000E+00  0.00000000E+00
  0.00000000E+00  0.00000000E+00  0.00000000E+00
  0.00000000E+00  0.00000000E+00  0.00000000E+00
  0.00000000E+00  0.00000000E+00  0.00000000E+00
  0.00000000E+00  0.00000000E+00  0.00000000E+00
  0.00000000E+00  0.00000000E+00  0.00000000E+00
  0.00000000E+00  0.00000000E+00  0.00000000E+00
