Au  C  H Br                             
    1.000000000000000     
    11.7981856999999994    0.0000000000000000    0.0000000000000000
     0.0000000000000000   16.6851543000000007    0.0000000000000000
     0.0000000000000000    0.0000000000000000   22.4243196299999994
   Au   C    H    Br
    64     6     2     4
Selective dynamics
Direct
  0.0000000016951773  0.2499999991010000  0.3344583079330619   F   F   F
  0.7500000012713812  0.7499999979023286  0.3344583079330619   F   F   F
  0.0000000016951773  0.4999999988013286  0.3344583079330619   F   F   F
  0.0000000016951773  0.7499999979023286  0.3344583079330619   F   F   F
  0.0000000016951773  0.0000000000000000  0.3344583079330619   F   F   F
  0.2500000004237961  0.2499999991010000  0.3344583079330619   F   F   F
  0.2500000004237961  0.4999999988013286  0.3344583079330619   F   F   F
  0.7500000012713812  0.0000000000000000  0.3344583079330619   F   F   F
  0.2500000004237961  0.7499999979023286  0.3344583079330619   F   F   F
  0.2500000004237961  0.0000000000000000  0.3344583079330619   F   F   F
  0.5000000008475851  0.2499999991010000  0.3344583079330619   F   F   F
  0.5000000008475851  0.4999999988013286  0.3344583079330619   F   F   F
  0.5000000008475851  0.7499999979023286  0.3344583079330619   F   F   F
  0.5000000008475851  0.0000000000000000  0.3344583079330619   F   F   F
  0.7500000012713812  0.2499999991010000  0.3344583079330619   F   F   F
  0.7500000012713812  0.4999999988013286  0.3344583079330619   F   F   F
  0.0007780531867525  0.2499012288262661  0.4702413311192571   T   T   T
 -0.0000100538180508  0.5000090568847579  0.4699874596821953   T   T   T
  0.9991954488509904  0.7500880381614973  0.4702430681807034   T   T   T
 -0.0000079209521105  0.0000019088535402  0.4699770892006272   T   T   T
  0.2491463252334919  0.2499327347702257  0.4702387359521619   T   T   T
  0.2506820666131230  0.5000291445481816  0.4701140901726674   T   T   T
  0.2491112355929496  0.7501031308389523  0.4701587371295706   T   T   T
  0.2508201602101515  0.0000875532369043  0.4701769174861232   T   T   T
  0.4991529759571420  0.2499042119087252  0.4701701991056451   T   T   T
  0.4999918453545206  0.4999965765164233  0.4703808412453614   T   T   T
  0.5008351624821742  0.7500761820574613  0.4701573988822377   T   T   T
  0.4999945459189481  0.0000042577175059  0.4700040748257855   T   T   T
  0.7509487363158109  0.2498736397994407  0.4701834601247240   T   T   T
  0.7492746747665248  0.4999616546265108  0.4700989454641162   T   T   T
  0.7508298987108454  0.7500804177498178  0.4702334991873190   T   T   T
  0.7491739451592979 -0.0000926014727181  0.4701755707139370   T   T   T
  0.1241666945890455  0.1241857319012371  0.5288367226041109   T   T   T
  0.1247841510559701  0.3757079819626468  0.5289022819854199   T   T   T
  0.1233782350176913  0.6249779576044694  0.5287497615931174   T   T   T
  0.1259453779328097  0.8758217754567638  0.5288073445528194   T   T   T
  0.3749958257158122  0.1250304723887599  0.5287188805083600   T   T   T
  0.3739362142092958  0.3749815868055565  0.5287367387960908   T   T   T
  0.3741195537564885  0.6251855749309209  0.5275888474356812   T   T   T
  0.3750345649081274  0.8749582634368850  0.5286930359069274   T   T   T
  0.6249533146182999  0.1250319770123197  0.5287008268254341   T   T   T
  0.6258389105553870  0.3748075247852559  0.5275930941321784   T   T   T
  0.6260171746014683  0.6250119230252549  0.5287432319194612   T   T   T
  0.6249731600185139  0.8749899699090203  0.5287394788791430   T   T   T
  0.8739310850554923  0.1242419833833550  0.5288205749028640   T   T   T
  0.8759406635317314  0.3752412718429977  0.5286930427474571   T   T   T
  0.8741774885217154  0.6241811085595211  0.5289008697226802   T   T   T
  0.8758106883764347  0.8758148102665312  0.5288338175667843   T   T   T
  0.1250000006356942  0.1249999995504965  0.4002249949199452   F   F   F
  0.1250000006356942  0.3749999992508322  0.4002249949199452   F   F   F
  0.1250000006356942  0.6249999983518251  0.4002249949199452   F   F   F
  0.1250000006356942  0.8749999974528251  0.4002249949199452   F   F   F
  0.3750000002118981  0.1249999995504965  0.4002249949199452   F   F   F
  0.3750000002118981  0.3749999992508322  0.4002249949199452   F   F   F
  0.3750000010594832  0.6249999983518251  0.4002249949199452   F   F   F
  0.3750000010594832  0.8749999974528251  0.4002249949199452   F   F   F
  0.6250000006356942  0.1249999995504965  0.4002249949199452   F   F   F
  0.6250000006356942  0.3749999992508322  0.4002249949199452   F   F   F
  0.6250000014832793  0.6249999983518251  0.4002249949199452   F   F   F
  0.6250000006356942  0.8749999974528251  0.4002249949199452   F   F   F
  0.8750000010594832  0.1249999995504965  0.4002249949199452   F   F   F
  0.8750000010594832  0.3749999992508322  0.4002249949199452   F   F   F
  0.8750000019070754  0.6249999983518251  0.4002249949199452   F   F   F
  0.8750000010594832  0.8749999974528251  0.4002249949199452   F   F   F
  0.5682019193203555  0.5683644026723449  0.6636198457218841   T   T   T
  0.6186410985080808  0.4925600178450077  0.6638462819597279   T   T   T
  0.5499478627208979  0.4240961024620707  0.6641023191093753   T   T   T
  0.4319055869256470  0.4315581752523924  0.6636086299564224   T   T   T
  0.3814408400163785  0.5073610204105744  0.6636975820707164   T   T   T
  0.4501587428806146  0.5758061061165414  0.6639629024239478   T   T   T
  0.6211722687652773  0.6218587527420311  0.6641261383098586   T   T   T
  0.3789225192444787  0.3780851777424720  0.6641036673207715   T   T   T
  0.7785817105636320  0.4863873350690314  0.6612787045730034   T   T   T
  0.6124812667993812  0.3193392174228981  0.6622772100407985   T   T   T
  0.2214709144225290  0.5131599225114577  0.6607436503039589   T   T   T
  0.3877774780601634  0.6806155829974074  0.6619197280918380   T   T   T
 
  0.00000000E+00  0.00000000E+00  0.00000000E+00
  0.00000000E+00  0.00000000E+00  0.00000000E+00
  0.00000000E+00  0.00000000E+00  0.00000000E+00
  0.00000000E+00  0.00000000E+00  0.00000000E+00
  0.00000000E+00  0.00000000E+00  0.00000000E+00
  0.00000000E+00  0.00000000E+00  0.00000000E+00
  0.00000000E+00  0.00000000E+00  0.00000000E+00
  0.00000000E+00  0.00000000E+00  0.00000000E+00
  0.00000000E+00  0.00000000E+00  0.00000000E+00
  0.00000000E+00  0.00000000E+00  0.00000000E+00
  0.00000000E+00  0.00000000E+00  0.00000000E+00
  0.00000000E+00  0.00000000E+00  0.00000000E+00
  0.00000000E+00  0.00000000E+00  0.00000000E+00
  0.00000000E+00  0.00000000E+00  0.00000000E+00
  0.00000000E+00  0.00000000E+00  0.00000000E+00
  0.00000000E+00  0.00000000E+00  0.00000000E+00
  0.00000000E+00  0.00000000E+00  0.00000000E+00
  0.00000000E+00  0.00000000E+00  0.00000000E+00
  0.00000000E+00  0.00000000E+00  0.00000000E+00
  0.00000000E+00  0.00000000E+00  0.00000000E+00
  0.00000000E+00  0.00000000E+00  0.00000000E+00
  0.00000000E+00  0.00000000E+00  0.00000000E+00
  0.00000000E+00  0.00000000E+00  0.00000000E+00
  0.00000000E+00  0.00000000E+00  0.00000000E+00
  0.00000000E+00  0.00000000E+00  0.00000000E+00
  0.00000000E+00  0.00000000E+00  0.00000000E+00
  0.00000000E+00  0.00000000E+00  0.00000000E+00
  0.00000000E+00  0.00000000E+00  0.00000000E+00
  0.00000000E+00  0.00000000E+00  0.00000000E+00
  0.00000000E+00  0.00000000E+00  0.00000000E+00
  0.00000000E+00  0.00000000E+00  0.00000000E+00
  0.00000000E+00  0.00000000E+00  0.00000000E+00
  0.00000000E+00  0.00000000E+00  0.00000000E+00
  0.00000000E+00  0.00000000E+00  0.00000000E+00
  0.00000000E+00  0.00000000E+00  0.00000000E+00
  0.00000000E+00  0.00000000E+00  0.00000000E+00
  0.00000000E+00  0.00000000E+00  0.00000000E+00
  0.00000000E+00  0.00000000E+00  0.00000000E+00
  0.00000000E+00  0.00000000E+00  0.00000000E+00
  0.00000000E+00  0.00000000E+00  0.00000000E+00
  0.00000000E+00  0.00000000E+00  0.00000000E+00
  0.00000000E+00  0.00000000E+00  0.00000000E+00
  0.00000000E+00  0.00000000E+00  0.00000000E+00
  0.00000000E+00  0.00000000E+00  0.00000000E+00
  0.00000000E+00  0.00000000E+00  0.00000000E+00
  0.00000000E+00  0.00000000E+00  0.00000000E+00
  0.00000000E+00  0.00000000E+00  0.00000000E+00
  0.00000000E+00  0.00000000E+00  0.00000000E+00
  0.00000000E+00  0.00000000E+00  0.00000000E+00
  0.00000000E+00  0.00000000E+00  0.00000000E+00
  0.00000000E+00  0.00000000E+00  0.00000000E+00
  0.00000000E+00  0.00000000E+00  0.00000000E+00
  0.00000000E+00  0.00000000E+00  0.00000000E+00
  0.00000000E+00  0.00000000E+00  0.00000000E+00
  0.00000000E+00  0.00000000E+00  0.00000000E+00
  0.00000000E+00  0.00000000E+00  0.00000000E+00
  0.00000000E+00  0.00000000E+00  0.00000000E+00
  0.00000000E+00  0.00000000E+00  0.00000000E+00
  0.00000000E+00  0.00000000E+00  0.00000000E+00
  0.00000000E+00  0.00000000E+00  0.00000000E+00
  0.00000000E+00  0.00000000E+00  0.00000000E+00
  0.00000000E+00  0.00000000E+00  0.00000000E+00
  0.00000000E+00  0.00000000E+00  0.00000000E+00
  0.00000000E+00  0.00000000E+00  0.00000000E+00
  0.00000000E+00  0.00000000E+00  0.00000000E+00
  0.00000000E+00  0.00000000E+00  0.00000000E+00
  0.00000000E+00  0.00000000E+00  0.00000000E+00
  0.00000000E+00  0.00000000E+00  0.00000000E+00
  0.00000000E+00  0.00000000E+00  0.00000000E+00
  0.00000000E+00  0.00000000E+00  0.00000000E+00
  0.00000000E+00  0.00000000E+00  0.00000000E+00
  0.00000000E+00  0.00000000E+00  0.00000000E+00
  0.00000000E+00  0.00000000E+00  0.00000000E+00
  0.00000000E+00  0.00000000E+00  0.00000000E+00
  0.00000000E+00  0.00000000E+00  0.00000000E+00
  0.00000000E+00  0.00000000E+00  0.00000000E+00
