Pt  C  H  F                             
    1.000000000000000     
    11.2480068000000006    0.0000000000000000    0.0000000000000000
     0.0000000000000000   11.2480068000000006    0.0000000000000000
     0.0000000000000000    0.0000000000000000   23.9651564400000012
   Pt   C    H    F 
    64     6     4     2
Selective dynamics
Direct
  0.2500000008890453  0.0000000000000000  0.3129543518222917   F   F   F
  0.0000000000000000  0.5000000017780906  0.3129543518222917   F   F   F
  0.2500000008890453  0.2500000008890453  0.3129543518222917   F   F   F
  0.2500000008890453  0.5000000017780906  0.3129543518222917   F   F   F
  0.2500000008890453  0.7500000026671358  0.3129543518222917   F   F   F
  0.5000000017780906  0.0000000000000000  0.3129543518222917   F   F   F
  0.5000000017780906  0.2500000008890453  0.3129543518222917   F   F   F
  0.0000000000000000  0.7500000026671358  0.3129543518222917   F   F   F
  0.5000000017780906  0.5000000017780906  0.3129543518222917   F   F   F
  0.5000000017780906  0.7500000026671358  0.3129543518222917   F   F   F
  0.7500000026671358  0.0000000000000000  0.3129543518222917   F   F   F
  0.7500000026671358  0.2500000008890453  0.3129543518222917   F   F   F
  0.7500000026671358  0.5000000017780906  0.3129543518222917   F   F   F
  0.7500000026671358  0.7500000026671358  0.3129543518222917   F   F   F
  0.0000000000000000  0.0000000000000000  0.3129543518222917   F   F   F
  0.0000000000000000  0.2500000008890453  0.3129543518222917   F   F   F
  0.2498569921262467  0.9988046725650100  0.4775128914773681   T   T   T
  0.2511693301540329  0.2511733742747541  0.4777391684737655   T   T   T
  0.2538153181456839  0.5007456341636167  0.4794186770852311   T   T   T
  0.2533783557064561  0.7466172770567062  0.4794126091383936   T   T   T
  0.5000057265713436  0.0000106498338342  0.4774659896883349   T   T   T
  0.5007562913969171  0.2538240616366009  0.4794189481411462   T   T   T
  0.4999930804795674  0.4999847916907687  0.4808373602780069   T   T   T
  0.4992512663096088  0.7461635647461415  0.4794162683908809   T   T   T
  0.7501513668398190  0.0012086689399890  0.4775150684790311   T   T   T
  0.7466199000496799  0.2533882303822722  0.4794183732945600   T   T   T
  0.7461767763712285  0.4992372173103810  0.4794181741218883   T   T   T
  0.7488364783689331  0.7488274442537103  0.4777316510948943   T   T   T
  0.0000026385882292  0.0000118329466636  0.4776206687370127   T   T   T
  0.9988011111714394  0.2498651191325444  0.4775212652025440   T   T   T
  0.0000000062676669  0.4999926717048875  0.4774781148235775   T   T   T
  0.0011979507299957  0.7501429810756148  0.4775128426206934   T   T   T
  0.1241881993740017  0.1241808099084088  0.5590050005177959   T   T   T
  0.1235275016546160  0.3742337455768562  0.5592890817736678   T   T   T
  0.1230985920594105  0.6239820633666794  0.5598031199708581   T   T   T
  0.1255510444667906  0.8744559414491343  0.5595520998953211   T   T   T
  0.3742401496913800  0.1235202698489872  0.5592828537349258   T   T   T
  0.3681490735359139  0.3681384198264401  0.5640493558176191   T   T   T
  0.3723690877159987  0.6276393105731518  0.5686472798236694   T   T   T
  0.3760506736572680  0.8769027392116888  0.5598009595189967   T   T   T
  0.6239682705344514  0.1230872374925347  0.5598052804407969   T   T   T
  0.6276386235276330  0.3723569418069250  0.5686498001650573   T   T   T
  0.6318432766703468  0.6318514387142791  0.5640374513506490   T   T   T
  0.6257671225667674  0.8764580712694771  0.5592736877890334   T   T   T
  0.8744415027671265  0.1255402132800447  0.5595604535286313   T   T   T
  0.8768967957931795  0.3760304461777688  0.5598134014938871   T   T   T
  0.8764598029833480  0.6257643375567503  0.5592679585495922   T   T   T
  0.8758118680121572  0.8758048355016756  0.5589893775200855   T   T   T
  0.1250000008890453  0.1250000000000000  0.3959242036977884   F   F   F
  0.1250000008890453  0.3750000008890453  0.3959242036977884   F   F   F
  0.1250000008890453  0.6250000026671358  0.3959242036977884   F   F   F
  0.1250000008890453  0.8750000026671358  0.3959242036977884   F   F   F
  0.3750000017780906  0.1250000000000000  0.3959242036977884   F   F   F
  0.3750000017780906  0.3750000008890453  0.3959242036977884   F   F   F
  0.3750000017780906  0.6250000026671358  0.3959242036977884   F   F   F
  0.3750000017780906  0.8750000026671358  0.3959242036977884   F   F   F
  0.6250000026671358  0.1250000000000000  0.3959242036977884   F   F   F
  0.6250000026671358  0.3750000008890453  0.3959242036977884   F   F   F
  0.6250000026671358  0.6250000026671358  0.3959242036977884   F   F   F
  0.6250000026671358  0.8750000026671358  0.3959242036977884   F   F   F
  0.8750000035561882  0.1250000000000000  0.3959242036977884   F   F   F
  0.8750000026671358  0.3750000008890453  0.3959242036977884   F   F   F
  0.8750000035561882  0.6250000026671358  0.3959242036977884   F   F   F
  0.8750000035561882  0.8750000026671358  0.3959242036977884   F   F   F
  0.4075115842090573  0.4075104170658856  0.6453165490423701   T   T   T
  0.3747261317712234  0.5351792214035285  0.6485620977566824   T   T   T
  0.4648160146960193  0.6252738058505038  0.6485694226104254   T   T   T
  0.5925124651118676  0.5924930439551992  0.6453233284657574   T   T   T
  0.6252863571835017  0.4648345626555134  0.6485592110812874   T   T   T
  0.5351649613699567  0.3747436604776429  0.6485589456268334   T   T   T
  0.2886327684417452  0.5523394373431181  0.6680137963392455   T   T   T
  0.4476935120537291  0.7113584554443463  0.6680009426417485   T   T   T
  0.7113627875814220  0.4476922177601255  0.6680066542323733   T   T   T
  0.5523260478073244  0.2886448066112386  0.6680126491813096   T   T   T
  0.3395115457360393  0.3395191851094114  0.6821415752174964   T   T   T
  0.6604959633272807  0.6605042287562510  0.6821333876046954   T   T   T
 
  0.00000000E+00  0.00000000E+00  0.00000000E+00
  0.00000000E+00  0.00000000E+00  0.00000000E+00
  0.00000000E+00  0.00000000E+00  0.00000000E+00
  0.00000000E+00  0.00000000E+00  0.00000000E+00
  0.00000000E+00  0.00000000E+00  0.00000000E+00
  0.00000000E+00  0.00000000E+00  0.00000000E+00
  0.00000000E+00  0.00000000E+00  0.00000000E+00
  0.00000000E+00  0.00000000E+00  0.00000000E+00
  0.00000000E+00  0.00000000E+00  0.00000000E+00
  0.00000000E+00  0.00000000E+00  0.00000000E+00
  0.00000000E+00  0.00000000E+00  0.00000000E+00
  0.00000000E+00  0.00000000E+00  0.00000000E+00
  0.00000000E+00  0.00000000E+00  0.00000000E+00
  0.00000000E+00  0.00000000E+00  0.00000000E+00
  0.00000000E+00  0.00000000E+00  0.00000000E+00
  0.00000000E+00  0.00000000E+00  0.00000000E+00
  0.00000000E+00  0.00000000E+00  0.00000000E+00
  0.00000000E+00  0.00000000E+00  0.00000000E+00
  0.00000000E+00  0.00000000E+00  0.00000000E+00
  0.00000000E+00  0.00000000E+00  0.00000000E+00
  0.00000000E+00  0.00000000E+00  0.00000000E+00
  0.00000000E+00  0.00000000E+00  0.00000000E+00
  0.00000000E+00  0.00000000E+00  0.00000000E+00
  0.00000000E+00  0.00000000E+00  0.00000000E+00
  0.00000000E+00  0.00000000E+00  0.00000000E+00
  0.00000000E+00  0.00000000E+00  0.00000000E+00
  0.00000000E+00  0.00000000E+00  0.00000000E+00
  0.00000000E+00  0.00000000E+00  0.00000000E+00
  0.00000000E+00  0.00000000E+00  0.00000000E+00
  0.00000000E+00  0.00000000E+00  0.00000000E+00
  0.00000000E+00  0.00000000E+00  0.00000000E+00
  0.00000000E+00  0.00000000E+00  0.00000000E+00
  0.00000000E+00  0.00000000E+00  0.00000000E+00
  0.00000000E+00  0.00000000E+00  0.00000000E+00
  0.00000000E+00  0.00000000E+00  0.00000000E+00
  0.00000000E+00  0.00000000E+00  0.00000000E+00
  0.00000000E+00  0.00000000E+00  0.00000000E+00
  0.00000000E+00  0.00000000E+00  0.00000000E+00
  0.00000000E+00  0.00000000E+00  0.00000000E+00
  0.00000000E+00  0.00000000E+00  0.00000000E+00
  0.00000000E+00  0.00000000E+00  0.00000000E+00
  0.00000000E+00  0.00000000E+00  0.00000000E+00
  0.00000000E+00  0.00000000E+00  0.00000000E+00
  0.00000000E+00  0.00000000E+00  0.00000000E+00
  0.00000000E+00  0.00000000E+00  0.00000000E+00
  0.00000000E+00  0.00000000E+00  0.00000000E+00
  0.00000000E+00  0.00000000E+00  0.00000000E+00
  0.00000000E+00  0.00000000E+00  0.00000000E+00
  0.00000000E+00  0.00000000E+00  0.00000000E+00
  0.00000000E+00  0.00000000E+00  0.00000000E+00
  0.00000000E+00  0.00000000E+00  0.00000000E+00
  0.00000000E+00  0.00000000E+00  0.00000000E+00
  0.00000000E+00  0.00000000E+00  0.00000000E+00
  0.00000000E+00  0.00000000E+00  0.00000000E+00
  0.00000000E+00  0.00000000E+00  0.00000000E+00
  0.00000000E+00  0.00000000E+00  0.00000000E+00
  0.00000000E+00  0.00000000E+00  0.00000000E+00
  0.00000000E+00  0.00000000E+00  0.00000000E+00
  0.00000000E+00  0.00000000E+00  0.00000000E+00
  0.00000000E+00  0.00000000E+00  0.00000000E+00
  0.00000000E+00  0.00000000E+00  0.00000000E+00
  0.00000000E+00  0.00000000E+00  0.00000000E+00
  0.00000000E+00  0.00000000E+00  0.00000000E+00
  0.00000000E+00  0.00000000E+00  0.00000000E+00
  0.00000000E+00  0.00000000E+00  0.00000000E+00
  0.00000000E+00  0.00000000E+00  0.00000000E+00
  0.00000000E+00  0.00000000E+00  0.00000000E+00
  0.00000000E+00  0.00000000E+00  0.00000000E+00
  0.00000000E+00  0.00000000E+00  0.00000000E+00
  0.00000000E+00  0.00000000E+00  0.00000000E+00
  0.00000000E+00  0.00000000E+00  0.00000000E+00
  0.00000000E+00  0.00000000E+00  0.00000000E+00
  0.00000000E+00  0.00000000E+00  0.00000000E+00
  0.00000000E+00  0.00000000E+00  0.00000000E+00
  0.00000000E+00  0.00000000E+00  0.00000000E+00
  0.00000000E+00  0.00000000E+00  0.00000000E+00
