Ir48 C4 N2 F4                           
    1.000000000000000     
    10.9622130000000002    0.0000000000000000    0.0000000000000000
    -5.4811069999999997    9.4935550000000006    0.0000000000000000
     0.0000000000000000    0.0000000000000000   16.4753049999999988
   Ir   C    N    F 
    48     4     2     4
Selective dynamics
Direct
  0.0833330000000032  0.1666669999999968  0.3641810000000021   F   F   F
  0.0833330000000032  0.4166669999999968  0.3641810000000021   F   F   F
  0.0833330000000032  0.6666669999999968  0.3641810000000021   F   F   F
  0.0833330000000032  0.9166669999999968  0.3641810000000021   F   F   F
  0.3333330000000032  0.1666669999999968  0.3641810000000021   F   F   F
  0.3333330000000032  0.4166669999999968  0.3641810000000021   F   F   F
  0.3333330000000032  0.6666669999999968  0.3641810000000021   F   F   F
  0.3333330000000032  0.9166669999999968  0.3641810000000021   F   F   F
  0.5833330000000032  0.1666669999999968  0.3641810000000021   F   F   F
  0.5833330000000032  0.4166669999999968  0.3641810000000021   F   F   F
  0.5833330000000032  0.6666669999999968  0.3641810000000021   F   F   F
  0.5833330000000032  0.9166669999999968  0.3641810000000021   F   F   F
  0.8333330000000032  0.1666669999999968  0.3641810000000021   F   F   F
  0.8333330000000032  0.4166669999999968  0.3641810000000021   F   F   F
  0.8333330000000032  0.6666669999999968  0.3641810000000021   F   F   F
  0.8333330000000032  0.9166669999999968  0.3641810000000021   F   F   F
  0.9973020081439685  0.9968322253150390  0.6289558584729207   T   T   T
  0.9945438543257836  0.2479079122209740  0.6288451104082711   T   T   T
  0.9999370764203732  0.4992607064030210  0.6297736438905233   T   T   T
  0.0007571662242469  0.7492167616357150  0.6288799007889523   T   T   T
  0.2479853066040221  0.9940687063046383  0.6287534577346250   T   T   T
  0.2435893009107204  0.2423863657047036  0.6376248005401592   T   T   T
  0.2508448070738183  0.4991599662473760  0.6362615892585808   T   T   T
  0.2507163831728150  0.7500431357685358  0.6297789517447328   T   T   T
  0.5006770603339561  0.0003185562587120  0.6298919966485244   T   T   T
  0.4994497121457968  0.2505529138788134  0.6368970483515426   T   T   T
  0.5076392377881049  0.5064364864558257  0.6376149476839288   T   T   T
  0.5020658015650383  0.7554459608191806  0.6288327374951734   T   T   T
  0.7501708456427281  0.9998125611609225  0.6292778846050524   T   T   T
  0.7496562069743362  0.2492930160291920  0.6299028514091276   T   T   T
  0.7559204805387694  0.5019905025502425  0.6287429266547733   T   T   T
  0.7531768463868289  0.7527059435166308  0.6289505024975810   T   T   T
  0.1682135603837835  0.0859916074287099  0.4973433781429222   T   T   T
  0.1686201526573541  0.3339437330595132  0.4980406747656900   T   T   T
  0.1690669224884758  0.5809039074731430  0.4993167114888806   T   T   T
  0.1677425459164610  0.8335228255371518  0.4958670543854211   T   T   T
  0.4175813337833176  0.0864382220553068  0.4984907202114712   T   T   T
  0.4158420560423934  0.3341449701940604  0.4986041284566340   T   T   T
  0.4160392578007901  0.5813597682044289  0.4980316756001315   T   T   T
  0.4167310874695573  0.8332025026692875  0.4967541344304678   T   T   T
  0.6663980985230751  0.0835886117784241  0.4968200717425475   T   T   T
  0.6635606704030295  0.3324124134456028  0.4984918544345902   T   T   T
  0.6640014115062556  0.5817767552269402  0.4973352621741896   T   T   T
  0.6661320119120049  0.8324604436870118  0.4965754862495118   T   T   T
  0.9175238667365946  0.0838528260151676  0.4965746594105838   T   T   T
  0.9167748678179990  0.3332448217086821  0.4967582564474142   T   T   T
  0.9164613451643504  0.5822392092709592  0.4958723472080280   T   T   T
  0.9170796914477677  0.8329093177511524  0.4960446714385327   T   T   T
  0.5183869119490367  0.4413052764753331  0.7605146550611934   T   T   T
  0.4422450426485227  0.5175711564624024  0.7606900438994799   T   T   T
  0.2325931107812167  0.3079136551620607  0.7607068432363278   T   T   T
  0.3088709940474885  0.2317899766906635  0.7605301672738278   T   T   T
  0.2957360918468410  0.4543839820196709  0.7595128078862317   T   T   T
  0.4555010581885099  0.2946137774432529  0.7601266730423646   T   T   T
  0.2435373939949841  0.1015072836597355  0.7962751586057806   T   T   T
  0.1025495329947574  0.2431233046959491  0.7963938072501051   T   T   T
  0.6486912342412907  0.5065218093154016  0.7962526471190472   T   T   T
  0.5069638404399726  0.6476466036558222  0.7963568867600870   T   T   T
 
  0.00000000E+00  0.00000000E+00  0.00000000E+00
  0.00000000E+00  0.00000000E+00  0.00000000E+00
  0.00000000E+00  0.00000000E+00  0.00000000E+00
  0.00000000E+00  0.00000000E+00  0.00000000E+00
  0.00000000E+00  0.00000000E+00  0.00000000E+00
  0.00000000E+00  0.00000000E+00  0.00000000E+00
  0.00000000E+00  0.00000000E+00  0.00000000E+00
  0.00000000E+00  0.00000000E+00  0.00000000E+00
  0.00000000E+00  0.00000000E+00  0.00000000E+00
  0.00000000E+00  0.00000000E+00  0.00000000E+00
  0.00000000E+00  0.00000000E+00  0.00000000E+00
  0.00000000E+00  0.00000000E+00  0.00000000E+00
  0.00000000E+00  0.00000000E+00  0.00000000E+00
  0.00000000E+00  0.00000000E+00  0.00000000E+00
  0.00000000E+00  0.00000000E+00  0.00000000E+00
  0.00000000E+00  0.00000000E+00  0.00000000E+00
  0.00000000E+00  0.00000000E+00  0.00000000E+00
  0.00000000E+00  0.00000000E+00  0.00000000E+00
  0.00000000E+00  0.00000000E+00  0.00000000E+00
  0.00000000E+00  0.00000000E+00  0.00000000E+00
  0.00000000E+00  0.00000000E+00  0.00000000E+00
  0.00000000E+00  0.00000000E+00  0.00000000E+00
  0.00000000E+00  0.00000000E+00  0.00000000E+00
  0.00000000E+00  0.00000000E+00  0.00000000E+00
  0.00000000E+00  0.00000000E+00  0.00000000E+00
  0.00000000E+00  0.00000000E+00  0.00000000E+00
  0.00000000E+00  0.00000000E+00  0.00000000E+00
  0.00000000E+00  0.00000000E+00  0.00000000E+00
  0.00000000E+00  0.00000000E+00  0.00000000E+00
  0.00000000E+00  0.00000000E+00  0.00000000E+00
  0.00000000E+00  0.00000000E+00  0.00000000E+00
  0.00000000E+00  0.00000000E+00  0.00000000E+00
  0.00000000E+00  0.00000000E+00  0.00000000E+00
  0.00000000E+00  0.00000000E+00  0.00000000E+00
  0.00000000E+00  0.00000000E+00  0.00000000E+00
  0.00000000E+00  0.00000000E+00  0.00000000E+00
  0.00000000E+00  0.00000000E+00  0.00000000E+00
  0.00000000E+00  0.00000000E+00  0.00000000E+00
  0.00000000E+00  0.00000000E+00  0.00000000E+00
  0.00000000E+00  0.00000000E+00  0.00000000E+00
  0.00000000E+00  0.00000000E+00  0.00000000E+00
  0.00000000E+00  0.00000000E+00  0.00000000E+00
  0.00000000E+00  0.00000000E+00  0.00000000E+00
  0.00000000E+00  0.00000000E+00  0.00000000E+00
  0.00000000E+00  0.00000000E+00  0.00000000E+00
  0.00000000E+00  0.00000000E+00  0.00000000E+00
  0.00000000E+00  0.00000000E+00  0.00000000E+00
  0.00000000E+00  0.00000000E+00  0.00000000E+00
  0.00000000E+00  0.00000000E+00  0.00000000E+00
  0.00000000E+00  0.00000000E+00  0.00000000E+00
  0.00000000E+00  0.00000000E+00  0.00000000E+00
  0.00000000E+00  0.00000000E+00  0.00000000E+00
  0.00000000E+00  0.00000000E+00  0.00000000E+00
  0.00000000E+00  0.00000000E+00  0.00000000E+00
  0.00000000E+00  0.00000000E+00  0.00000000E+00
  0.00000000E+00  0.00000000E+00  0.00000000E+00
  0.00000000E+00  0.00000000E+00  0.00000000E+00
  0.00000000E+00  0.00000000E+00  0.00000000E+00
