Ag48 C4 N2 F4                           
    1.000000000000000     
    11.7678089999999997    0.0000000000000000    0.0000000000000000
    -5.8839040000000002   10.1912210000000005    0.0000000000000000
     0.0000000000000000    0.0000000000000000   17.8041879999999999
   Ag   C    N    F 
    48     4     2     4
Selective dynamics
Direct
  0.0833330000000032  0.1666669999999968  0.3369989999999987   F   F   F
  0.0833330000000032  0.4166669999999968  0.3369989999999987   F   F   F
  0.0833330000000032  0.6666669999999968  0.3369989999999987   F   F   F
  0.0833330000000032  0.9166669999999968  0.3369989999999987   F   F   F
  0.3333330000000032  0.1666669999999968  0.3369989999999987   F   F   F
  0.3333330000000032  0.4166669999999968  0.3369989999999987   F   F   F
  0.3333330000000032  0.6666669999999968  0.3369989999999987   F   F   F
  0.3333330000000032  0.9166669999999968  0.3369989999999987   F   F   F
  0.5833330000000032  0.1666669999999968  0.3369989999999987   F   F   F
  0.5833330000000032  0.4166669999999968  0.3369989999999987   F   F   F
  0.5833330000000032  0.6666669999999968  0.3369989999999987   F   F   F
  0.5833330000000032  0.9166669999999968  0.3369989999999987   F   F   F
  0.8333330000000032  0.1666669999999968  0.3369989999999987   F   F   F
  0.8333330000000032  0.4166669999999968  0.3369989999999987   F   F   F
  0.8333330000000032  0.6666669999999968  0.3369989999999987   F   F   F
  0.8333330000000032  0.9166669999999968  0.3369989999999987   F   F   F
  0.2500842175345284  0.2500879099344004  0.5892053230406233   T   T   T
  0.2501628213341860  0.4997919161574487  0.5896934895004691   T   T   T
  0.2500863310724100  0.7499591986414060  0.5895576187873459   T   T   T
  0.2499626885029613  0.0001324177838669  0.5895711371744312   T   T   T
  0.4997469112897619  0.2502068163185669  0.5897131927372214   T   T   T
  0.4998779373624771  0.4998991200182630  0.5891627621161888   T   T   T
  0.4999295869510547  0.7497866162651192  0.5895477112907201   T   T   T
  0.4999778912082675  0.0001229929018933  0.5895103002398017   T   T   T
  0.7498612755561922  0.2500042092465335  0.5895579038718708   T   T   T
  0.7498505932738553  0.5000324172594048  0.5895675838806085   T   T   T
  0.7498684486254490  0.7498847112219877  0.5895489858360961   T   T   T
  0.7500422162498310  0.9999359594922268  0.5894550563559591   T   T   T
  0.0002058640974170  0.2500511248842301  0.5895477309722637   T   T   T
  0.0000159068145393  0.4998833403938647  0.5895119282744830   T   T   T
  0.9999845439527348  0.7500015887425917  0.5894775738863132   T   T   T
  0.0001357444831953  0.0001432591768591  0.5894969734339455   T   T   T
  0.1666096243727111  0.0831177472730431  0.4631703342132028   T   T   T
  0.1665437106971623  0.3334328166950726  0.4631786321598454   T   T   T
  0.1667216307472401  0.5833518742360226  0.4634463124488448   T   T   T
  0.1666935919063803  0.8332849234790984  0.4634078628774674   T   T   T
  0.4166393189604705  0.0833897387354909  0.4634281879233839   T   T   T
  0.4167637578999077  0.3331516092058919  0.4629750028833257   T   T   T
  0.4165097870266337  0.5834721344215978  0.4631699331518604   T   T   T
  0.4166760281973225  0.8333615793267342  0.4634131172151328   T   T   T
  0.6667265208468152  0.0833363352369147  0.4633992204094284   T   T   T
  0.6666218723328896  0.3333169559778071  0.4634401588118564   T   T   T
  0.6669344465401110  0.5834752322195271  0.4631708334766316   T   T   T
  0.6666344876153047  0.8333222027004439  0.4633740208064268   T   T   T
  0.9166372042238464  0.0833774396438685  0.4633650322530585   T   T   T
  0.9165323525436619  0.3332199610124675  0.4634152236728255   T   T   T
  0.9166732665049864  0.5833264806151774  0.4633977088596595   T   T   T
  0.9166268395977610  0.8332673248545888  0.4633874378449363   T   T   T
  0.5052329676387259  0.4364949991086888  0.7749355564805711   T   T   T
  0.4365286247671349  0.5052062695489994  0.7749131975538219   T   T   T
  0.2448786294240577  0.3136184663770862  0.7749204481819163   T   T   T
  0.3136410080924321  0.2448623325521311  0.7749385902256023   T   T   T
  0.3070543630971372  0.4430877566934939  0.7754791306955084   T   T   T
  0.4430945115535181  0.3070058796037216  0.7755038657126647   T   T   T
  0.2489557153242217  0.1129853169287927  0.7760592177657273   T   T   T
  0.1130033008233511  0.2490180336614785  0.7760386801564891   T   T   T
  0.6371070881056937  0.5010843933390206  0.7760564566064616   T   T   T
  0.5011966752021735  0.6370861578687155  0.7760299312850165   T   T   T
 
  0.00000000E+00  0.00000000E+00  0.00000000E+00
  0.00000000E+00  0.00000000E+00  0.00000000E+00
  0.00000000E+00  0.00000000E+00  0.00000000E+00
  0.00000000E+00  0.00000000E+00  0.00000000E+00
  0.00000000E+00  0.00000000E+00  0.00000000E+00
  0.00000000E+00  0.00000000E+00  0.00000000E+00
  0.00000000E+00  0.00000000E+00  0.00000000E+00
  0.00000000E+00  0.00000000E+00  0.00000000E+00
  0.00000000E+00  0.00000000E+00  0.00000000E+00
  0.00000000E+00  0.00000000E+00  0.00000000E+00
  0.00000000E+00  0.00000000E+00  0.00000000E+00
  0.00000000E+00  0.00000000E+00  0.00000000E+00
  0.00000000E+00  0.00000000E+00  0.00000000E+00
  0.00000000E+00  0.00000000E+00  0.00000000E+00
  0.00000000E+00  0.00000000E+00  0.00000000E+00
  0.00000000E+00  0.00000000E+00  0.00000000E+00
  0.00000000E+00  0.00000000E+00  0.00000000E+00
  0.00000000E+00  0.00000000E+00  0.00000000E+00
  0.00000000E+00  0.00000000E+00  0.00000000E+00
  0.00000000E+00  0.00000000E+00  0.00000000E+00
  0.00000000E+00  0.00000000E+00  0.00000000E+00
  0.00000000E+00  0.00000000E+00  0.00000000E+00
  0.00000000E+00  0.00000000E+00  0.00000000E+00
  0.00000000E+00  0.00000000E+00  0.00000000E+00
  0.00000000E+00  0.00000000E+00  0.00000000E+00
  0.00000000E+00  0.00000000E+00  0.00000000E+00
  0.00000000E+00  0.00000000E+00  0.00000000E+00
  0.00000000E+00  0.00000000E+00  0.00000000E+00
  0.00000000E+00  0.00000000E+00  0.00000000E+00
  0.00000000E+00  0.00000000E+00  0.00000000E+00
  0.00000000E+00  0.00000000E+00  0.00000000E+00
  0.00000000E+00  0.00000000E+00  0.00000000E+00
  0.00000000E+00  0.00000000E+00  0.00000000E+00
  0.00000000E+00  0.00000000E+00  0.00000000E+00
  0.00000000E+00  0.00000000E+00  0.00000000E+00
  0.00000000E+00  0.00000000E+00  0.00000000E+00
  0.00000000E+00  0.00000000E+00  0.00000000E+00
  0.00000000E+00  0.00000000E+00  0.00000000E+00
  0.00000000E+00  0.00000000E+00  0.00000000E+00
  0.00000000E+00  0.00000000E+00  0.00000000E+00
  0.00000000E+00  0.00000000E+00  0.00000000E+00
  0.00000000E+00  0.00000000E+00  0.00000000E+00
  0.00000000E+00  0.00000000E+00  0.00000000E+00
  0.00000000E+00  0.00000000E+00  0.00000000E+00
  0.00000000E+00  0.00000000E+00  0.00000000E+00
  0.00000000E+00  0.00000000E+00  0.00000000E+00
  0.00000000E+00  0.00000000E+00  0.00000000E+00
  0.00000000E+00  0.00000000E+00  0.00000000E+00
  0.00000000E+00  0.00000000E+00  0.00000000E+00
  0.00000000E+00  0.00000000E+00  0.00000000E+00
  0.00000000E+00  0.00000000E+00  0.00000000E+00
  0.00000000E+00  0.00000000E+00  0.00000000E+00
  0.00000000E+00  0.00000000E+00  0.00000000E+00
  0.00000000E+00  0.00000000E+00  0.00000000E+00
  0.00000000E+00  0.00000000E+00  0.00000000E+00
  0.00000000E+00  0.00000000E+00  0.00000000E+00
  0.00000000E+00  0.00000000E+00  0.00000000E+00
  0.00000000E+00  0.00000000E+00  0.00000000E+00
