Au  C Br                                
    1.000000000000000     
    11.7981856999999994    0.0000000000000000    0.0000000000000000
     0.0000000000000000   11.7981856999999994    0.0000000000000000
     0.0000000000000000    0.0000000000000000   24.2569328400000011
   Au   C    Br
    64     6     6
Selective dynamics
Direct
  0.2500000004237961  0.0000000000000000  0.3091899561032889   F   F   F
  0.0000000000000000  0.5000000008475851  0.3091899561032889   F   F   F
  0.2500000004237961  0.2500000004237961  0.3091899561032889   F   F   F
  0.2500000004237961  0.5000000008475851  0.3091899561032889   F   F   F
  0.2500000004237961  0.7500000012713812  0.3091899561032889   F   F   F
  0.5000000008475851  0.0000000000000000  0.3091899561032889   F   F   F
  0.5000000008475851  0.2500000004237961  0.3091899561032889   F   F   F
  0.0000000000000000  0.7500000012713812  0.3091899561032889   F   F   F
  0.5000000008475851  0.5000000008475851  0.3091899561032889   F   F   F
  0.5000000008475851  0.7500000012713812  0.3091899561032889   F   F   F
  0.7500000012713812  0.0000000000000000  0.3091899561032889   F   F   F
  0.7500000012713812  0.2500000004237961  0.3091899561032889   F   F   F
  0.7500000012713812  0.5000000008475851  0.3091899561032889   F   F   F
  0.7500000012713812  0.7500000012713812  0.3091899561032889   F   F   F
  0.0000000000000000  0.0000000000000000  0.3091899561032889   F   F   F
  0.0000000000000000  0.2500000004237961  0.3091899561032889   F   F   F
  0.2489530293287293  0.0000493121768328  0.4806954725292654   T   T   T
  0.2493213135274447  0.2493200241437208  0.4806840711008336   T   T   T
  0.2488811883054647  0.4998420577802089  0.4805057454942405   T   T   T
  0.2492011226376078  0.7507989571704419  0.4807850267498595   T   T   T
  0.5000007722116447 -0.0000006996393414  0.4811545326731216   T   T   T
  0.4998428968380706  0.2488793536810197  0.4805054891549897   T   T   T
  0.5000012965055863  0.4999988637227615  0.4802696681436220   T   T   T
  0.5001581241106852  0.7511189990096075  0.4805056902248319   T   T   T
  0.7510485513995601 -0.0000508705692824  0.4806954026657638   T   T   T
  0.7508017733232681  0.2491983551534643  0.4807841935855114   T   T   T
  0.7511207109834961  0.5001573683581561  0.4805054943326019   T   T   T
  0.7506801576439418  0.7506788165213464  0.4806839902814037   T   T   T
  0.0000007686836858 -0.0000006594218128  0.4812202163401523   T   T   T
  0.0000509298274773  0.2489515584526001  0.4806954161156375   T   T   T
  0.0000008647151292  0.4999994379565347  0.4811545414285755   T   T   T
 -0.0000491377131063  0.7510471252139566  0.4806953923816595   T   T   T
  0.1250264016494705  0.1250250889225936  0.5680543273353914   T   T   T
  0.1246871502464945  0.3746864737955228  0.5666801402521046   T   T   T
  0.1246764457586013  0.6253933892486381  0.5666804591814846   T   T   T
  0.1238495634235822  0.8761506741238739  0.5680365557706896   T   T   T
  0.3746878024944646  0.1246858448336245  0.5666801578331710   T   T   T
  0.3759920005822625  0.3759891424458524  0.5651112107114876   T   T   T
  0.3748917232908453  0.6251091799516899  0.5652366522076454   T   T   T
  0.3746071607638599  0.8753232034248283  0.5666808475694701   T   T   T
  0.6253944805683985  0.1246742371682605  0.5666809475952773   T   T   T
  0.6250907797072716  0.3749092199173759  0.5652409579604230   T   T   T
  0.6240108598191239  0.6240084358798620  0.5651111976371320   T   T   T
  0.6253137101695122  0.8753129993929550  0.5666801645663631   T   T   T
  0.8761521262433545  0.1238480984284550  0.5680366073340544   T   T   T
  0.8753262220277335  0.3746056620799888  0.5666808297343445   T   T   T
  0.8753145715651152  0.6253125216231179  0.5666801569986021   T   T   T
  0.8749752269570882  0.8749738288701674  0.5680543377660108   T   T   T
  0.1249999997881019  0.1250000006356942  0.3951713245539921   F   F   F
  0.1250000006356942  0.3750000010594832  0.3951713245539921   F   F   F
  0.1250000006356942  0.6250000006356942  0.3951713245539921   F   F   F
  0.1250000006356942  0.8750000019070754  0.3951713245539921   F   F   F
  0.3750000010594832  0.1250000006356942  0.3951713245539921   F   F   F
  0.3750000010594832  0.3750000010594832  0.3951713245539921   F   F   F
  0.3750000010594832  0.6250000006356942  0.3951713245539921   F   F   F
  0.3750000010594832  0.8750000019070754  0.3951713245539921   F   F   F
  0.6250000006356942  0.1250000006356942  0.3951713245539921   F   F   F
  0.6250000014832793  0.3750000010594832  0.3951713245539921   F   F   F
  0.6250000014832793  0.6250000006356942  0.3951713245539921   F   F   F
  0.6250000014832793  0.8750000019070754  0.3951713245539921   F   F   F
  0.8750000019070754  0.1250000006356942  0.3951713245539921   F   F   F
  0.8750000019070754  0.3750000010594832  0.3951713245539921   F   F   F
  0.8750000019070754  0.6250000006356942  0.3951713245539921   F   F   F
  0.8750000019070754  0.8750000019070754  0.3951713245539921   F   F   F
  0.6151788588485250  0.4692661683698141  0.7005919543058382   T   T   T
  0.5306993762656514  0.3848001747104018  0.7005983180066596   T   T   T
  0.4154818296478501  0.4155067293209192  0.7003962524748660   T   T   T
  0.3848297105491715  0.5307330822615107  0.7005923601927458   T   T   T
  0.4693014712621694  0.6152007761405870  0.7006013030339184   T   T   T
  0.5845318270144225  0.5844918737147898  0.7003958181628130   T   T   T
  0.7700532338847180  0.4277028987298392  0.7005902019484511   T   T   T
  0.5722768646569660  0.2299457908200874  0.7006131014050454   T   T   T
  0.3019472799383427  0.3020199934710824  0.6993855196805079   T   T   T
  0.2299656350205956  0.5723168632871780  0.7005730056364670   T   T   T
  0.4277371625822006  0.7700347010035855  0.7006288943428680   T   T   T
  0.6980356927025740  0.6979814442724814  0.6994107364274466   T   T   T
 
  0.00000000E+00  0.00000000E+00  0.00000000E+00
  0.00000000E+00  0.00000000E+00  0.00000000E+00
  0.00000000E+00  0.00000000E+00  0.00000000E+00
  0.00000000E+00  0.00000000E+00  0.00000000E+00
  0.00000000E+00  0.00000000E+00  0.00000000E+00
  0.00000000E+00  0.00000000E+00  0.00000000E+00
  0.00000000E+00  0.00000000E+00  0.00000000E+00
  0.00000000E+00  0.00000000E+00  0.00000000E+00
  0.00000000E+00  0.00000000E+00  0.00000000E+00
  0.00000000E+00  0.00000000E+00  0.00000000E+00
  0.00000000E+00  0.00000000E+00  0.00000000E+00
  0.00000000E+00  0.00000000E+00  0.00000000E+00
  0.00000000E+00  0.00000000E+00  0.00000000E+00
  0.00000000E+00  0.00000000E+00  0.00000000E+00
  0.00000000E+00  0.00000000E+00  0.00000000E+00
  0.00000000E+00  0.00000000E+00  0.00000000E+00
  0.00000000E+00  0.00000000E+00  0.00000000E+00
  0.00000000E+00  0.00000000E+00  0.00000000E+00
  0.00000000E+00  0.00000000E+00  0.00000000E+00
  0.00000000E+00  0.00000000E+00  0.00000000E+00
  0.00000000E+00  0.00000000E+00  0.00000000E+00
  0.00000000E+00  0.00000000E+00  0.00000000E+00
  0.00000000E+00  0.00000000E+00  0.00000000E+00
  0.00000000E+00  0.00000000E+00  0.00000000E+00
  0.00000000E+00  0.00000000E+00  0.00000000E+00
  0.00000000E+00  0.00000000E+00  0.00000000E+00
  0.00000000E+00  0.00000000E+00  0.00000000E+00
  0.00000000E+00  0.00000000E+00  0.00000000E+00
  0.00000000E+00  0.00000000E+00  0.00000000E+00
  0.00000000E+00  0.00000000E+00  0.00000000E+00
  0.00000000E+00  0.00000000E+00  0.00000000E+00
  0.00000000E+00  0.00000000E+00  0.00000000E+00
  0.00000000E+00  0.00000000E+00  0.00000000E+00
  0.00000000E+00  0.00000000E+00  0.00000000E+00
  0.00000000E+00  0.00000000E+00  0.00000000E+00
  0.00000000E+00  0.00000000E+00  0.00000000E+00
  0.00000000E+00  0.00000000E+00  0.00000000E+00
  0.00000000E+00  0.00000000E+00  0.00000000E+00
  0.00000000E+00  0.00000000E+00  0.00000000E+00
  0.00000000E+00  0.00000000E+00  0.00000000E+00
  0.00000000E+00  0.00000000E+00  0.00000000E+00
  0.00000000E+00  0.00000000E+00  0.00000000E+00
  0.00000000E+00  0.00000000E+00  0.00000000E+00
  0.00000000E+00  0.00000000E+00  0.00000000E+00
  0.00000000E+00  0.00000000E+00  0.00000000E+00
  0.00000000E+00  0.00000000E+00  0.00000000E+00
  0.00000000E+00  0.00000000E+00  0.00000000E+00
  0.00000000E+00  0.00000000E+00  0.00000000E+00
  0.00000000E+00  0.00000000E+00  0.00000000E+00
  0.00000000E+00  0.00000000E+00  0.00000000E+00
  0.00000000E+00  0.00000000E+00  0.00000000E+00
  0.00000000E+00  0.00000000E+00  0.00000000E+00
  0.00000000E+00  0.00000000E+00  0.00000000E+00
  0.00000000E+00  0.00000000E+00  0.00000000E+00
  0.00000000E+00  0.00000000E+00  0.00000000E+00
  0.00000000E+00  0.00000000E+00  0.00000000E+00
  0.00000000E+00  0.00000000E+00  0.00000000E+00
  0.00000000E+00  0.00000000E+00  0.00000000E+00
  0.00000000E+00  0.00000000E+00  0.00000000E+00
  0.00000000E+00  0.00000000E+00  0.00000000E+00
  0.00000000E+00  0.00000000E+00  0.00000000E+00
  0.00000000E+00  0.00000000E+00  0.00000000E+00
  0.00000000E+00  0.00000000E+00  0.00000000E+00
  0.00000000E+00  0.00000000E+00  0.00000000E+00
  0.00000000E+00  0.00000000E+00  0.00000000E+00
  0.00000000E+00  0.00000000E+00  0.00000000E+00
  0.00000000E+00  0.00000000E+00  0.00000000E+00
  0.00000000E+00  0.00000000E+00  0.00000000E+00
  0.00000000E+00  0.00000000E+00  0.00000000E+00
  0.00000000E+00  0.00000000E+00  0.00000000E+00
  0.00000000E+00  0.00000000E+00  0.00000000E+00
  0.00000000E+00  0.00000000E+00  0.00000000E+00
  0.00000000E+00  0.00000000E+00  0.00000000E+00
  0.00000000E+00  0.00000000E+00  0.00000000E+00
  0.00000000E+00  0.00000000E+00  0.00000000E+00
  0.00000000E+00  0.00000000E+00  0.00000000E+00
