Ag48 H2 C6 Cl4                          
    1.000000000000000     
    11.7678089999999997    0.0000000000000000    0.0000000000000000
    -5.8839040000000002   10.1912210000000005    0.0000000000000000
     0.0000000000000000    0.0000000000000000   17.8062910000000016
   Ag   H    C    Cl
    48     2     6     4
Selective dynamics
Direct
  0.0833330000000032  0.1666669999999968  0.3369599999999977   F   F   F
  0.0833330000000032  0.4166669999999968  0.3369599999999977   F   F   F
  0.0833330000000032  0.6666669999999968  0.3369599999999977   F   F   F
  0.0833330000000032  0.9166669999999968  0.3369599999999977   F   F   F
  0.3333330000000032  0.1666669999999968  0.3369599999999977   F   F   F
  0.3333330000000032  0.4166669999999968  0.3369599999999977   F   F   F
  0.3333330000000032  0.6666669999999968  0.3369599999999977   F   F   F
  0.3333330000000032  0.9166669999999968  0.3369599999999977   F   F   F
  0.5833330000000032  0.1666669999999968  0.3369599999999977   F   F   F
  0.5833330000000032  0.4166669999999968  0.3369599999999977   F   F   F
  0.5833330000000032  0.6666669999999968  0.3369599999999977   F   F   F
  0.5833330000000032  0.9166669999999968  0.3369599999999977   F   F   F
  0.8333330000000032  0.1666669999999968  0.3369599999999977   F   F   F
  0.8333330000000032  0.4166669999999968  0.3369599999999977   F   F   F
  0.8333330000000032  0.6666669999999968  0.3369599999999977   F   F   F
  0.8333330000000032  0.9166669999999968  0.3369599999999977   F   F   F
  0.2501957701810440  0.2501798935917989  0.5884419605808588   T   T   T
  0.2499433221474519  0.5000086026031525  0.5895251500073968   T   T   T
  0.2500226083804193  0.7498507304516480  0.5897804407391121   T   T   T
  0.2499526340980367  0.9998617282373701  0.5899910322510920   T   T   T
  0.4999198962432843  0.2500358498396622  0.5895117141430646   T   T   T
  0.4997315302497398  0.4997199328657089  0.5883854470145380   T   T   T
  0.4999492225089952  0.7499984381778759  0.5900049403979182   T   T   T
  0.4999771055008964  0.0001685240918192  0.5897716442046885   T   T   T
  0.7498224839064704  0.2500098048888688  0.5897901953299041   T   T   T
  0.7500708522205741  0.4999909330805465  0.5899821176337312   T   T   T
  0.7500542632819531  0.7500375090566038  0.5896376111366379   T   T   T
  0.7498705482391372  0.0000860187457192  0.5896091454667172   T   T   T
  0.9999708739789881  0.2500159803303603  0.5900059598353877   T   T   T
  0.0001433485448956  0.4999531268029287  0.5897561089689916   T   T   T
  0.0000553734590483  0.7499103356451826  0.5895975718425035   T   T   T
  0.9998915531912189  0.9998658961253639  0.5896116513699354   T   T   T
  0.1665260615671897  0.0828357220113176  0.4632954305865340   T   T   T
  0.1663286623813036  0.3333999767929967  0.4632514377330708   T   T   T
  0.1666098545538262  0.5834480969324574  0.4633094782207721   T   T   T
  0.1667955554476279  0.8333679416910940  0.4633916578127071   T   T   T
  0.4164532574046405  0.0831986606525064  0.4634118265896632   T   T   T
  0.4167828089884651  0.3330783809178683  0.4629706311054775   T   T   T
  0.4165398700969405  0.5836869479634643  0.4632357581714430   T   T   T
  0.4167590616264860  0.8333230074761033  0.4634471917984442   T   T   T
  0.6666370538967925  0.0834168322773152  0.4632991055547393   T   T   T
  0.6667754320723773  0.3334772739216021  0.4634064874933159   T   T   T
  0.6671786622397349  0.5835043801546647  0.4632791648240797   T   T   T
  0.6664797806128746  0.8332037261700975  0.4634059786485167   T   T   T
  0.9167548908059473  0.0835212754071861  0.4634100870868423   T   T   T
  0.9165990846605325  0.3331628138873270  0.4634456608655810   T   T   T
  0.9165664827441162  0.5831857815965407  0.4633939955946573   T   T   T
  0.9166223608293507  0.8332590316710267  0.4633121379312755   T   T   T
  0.2532137753936752  0.4969588318819476  0.7742004679839525   T   T   T
  0.4969878582985814  0.2531824186121909  0.7742025207218219   T   T   T
  0.3067207876663289  0.4434441738483770  0.7758970538844281   T   T   T
  0.4438178582670531  0.5128402367760714  0.7772513399010634   T   T   T
  0.5128286419960446  0.4438566835052242  0.7772509301963169   T   T   T
  0.4434225373769891  0.3067192150815004  0.7759067871623486   T   T   T
  0.3062902275302051  0.2373304095793216  0.7772319806977777   T   T   T
  0.2373564600327640  0.3063495802051222  0.7772365470230227   T   T   T
  0.5246660237916743  0.6814970599061141  0.7769118594275284   T   T   T
  0.6815423163018863  0.5246852057561355  0.7768922793323654   T   T   T
  0.2255363190878512  0.0687491617910752  0.7768541353492822   T   T   T
  0.0687474363191782  0.2255372394472133  0.7768860096739871   T   T   T
 
  0.00000000E+00  0.00000000E+00  0.00000000E+00
  0.00000000E+00  0.00000000E+00  0.00000000E+00
  0.00000000E+00  0.00000000E+00  0.00000000E+00
  0.00000000E+00  0.00000000E+00  0.00000000E+00
  0.00000000E+00  0.00000000E+00  0.00000000E+00
  0.00000000E+00  0.00000000E+00  0.00000000E+00
  0.00000000E+00  0.00000000E+00  0.00000000E+00
  0.00000000E+00  0.00000000E+00  0.00000000E+00
  0.00000000E+00  0.00000000E+00  0.00000000E+00
  0.00000000E+00  0.00000000E+00  0.00000000E+00
  0.00000000E+00  0.00000000E+00  0.00000000E+00
  0.00000000E+00  0.00000000E+00  0.00000000E+00
  0.00000000E+00  0.00000000E+00  0.00000000E+00
  0.00000000E+00  0.00000000E+00  0.00000000E+00
  0.00000000E+00  0.00000000E+00  0.00000000E+00
  0.00000000E+00  0.00000000E+00  0.00000000E+00
  0.00000000E+00  0.00000000E+00  0.00000000E+00
  0.00000000E+00  0.00000000E+00  0.00000000E+00
  0.00000000E+00  0.00000000E+00  0.00000000E+00
  0.00000000E+00  0.00000000E+00  0.00000000E+00
  0.00000000E+00  0.00000000E+00  0.00000000E+00
  0.00000000E+00  0.00000000E+00  0.00000000E+00
  0.00000000E+00  0.00000000E+00  0.00000000E+00
  0.00000000E+00  0.00000000E+00  0.00000000E+00
  0.00000000E+00  0.00000000E+00  0.00000000E+00
  0.00000000E+00  0.00000000E+00  0.00000000E+00
  0.00000000E+00  0.00000000E+00  0.00000000E+00
  0.00000000E+00  0.00000000E+00  0.00000000E+00
  0.00000000E+00  0.00000000E+00  0.00000000E+00
  0.00000000E+00  0.00000000E+00  0.00000000E+00
  0.00000000E+00  0.00000000E+00  0.00000000E+00
  0.00000000E+00  0.00000000E+00  0.00000000E+00
  0.00000000E+00  0.00000000E+00  0.00000000E+00
  0.00000000E+00  0.00000000E+00  0.00000000E+00
  0.00000000E+00  0.00000000E+00  0.00000000E+00
  0.00000000E+00  0.00000000E+00  0.00000000E+00
  0.00000000E+00  0.00000000E+00  0.00000000E+00
  0.00000000E+00  0.00000000E+00  0.00000000E+00
  0.00000000E+00  0.00000000E+00  0.00000000E+00
  0.00000000E+00  0.00000000E+00  0.00000000E+00
  0.00000000E+00  0.00000000E+00  0.00000000E+00
  0.00000000E+00  0.00000000E+00  0.00000000E+00
  0.00000000E+00  0.00000000E+00  0.00000000E+00
  0.00000000E+00  0.00000000E+00  0.00000000E+00
  0.00000000E+00  0.00000000E+00  0.00000000E+00
  0.00000000E+00  0.00000000E+00  0.00000000E+00
  0.00000000E+00  0.00000000E+00  0.00000000E+00
  0.00000000E+00  0.00000000E+00  0.00000000E+00
  0.00000000E+00  0.00000000E+00  0.00000000E+00
  0.00000000E+00  0.00000000E+00  0.00000000E+00
  0.00000000E+00  0.00000000E+00  0.00000000E+00
  0.00000000E+00  0.00000000E+00  0.00000000E+00
  0.00000000E+00  0.00000000E+00  0.00000000E+00
  0.00000000E+00  0.00000000E+00  0.00000000E+00
  0.00000000E+00  0.00000000E+00  0.00000000E+00
  0.00000000E+00  0.00000000E+00  0.00000000E+00
  0.00000000E+00  0.00000000E+00  0.00000000E+00
  0.00000000E+00  0.00000000E+00  0.00000000E+00
  0.00000000E+00  0.00000000E+00  0.00000000E+00
  0.00000000E+00  0.00000000E+00  0.00000000E+00
