Ir  C  H Br                             
    1.000000000000000     
    10.9622135000000007    0.0000000000000000    0.0000000000000000
     0.0000000000000000   15.5029109999999992    0.0000000000000000
     0.0000000000000000    0.0000000000000000   22.1108300437499992
   Ir   C    H    Br
    64     6     2     4
Selective dynamics
Direct
  0.2499999995438884  0.0000000000000000  0.3392002916742598   F   F   F
  0.9999999981755536  0.4999999993549622  0.3392002916742598   F   F   F
  0.2499999995438884  0.2499999993549622  0.3392002916742598   F   F   F
  0.2499999995438884  0.4999999993549622  0.3392002916742598   F   F   F
  0.2499999995438884  0.7499999987099173  0.3392002916742598   F   F   F
  0.4999999990877768  0.0000000000000000  0.3392002916742598   F   F   F
  0.4999999990877768  0.2499999993549622  0.3392002916742598   F   F   F
  0.4999999990877768  0.4999999993549622  0.3392002916742598   F   F   F
  0.4999999990877768  0.7499999987099173  0.3392002916742598   F   F   F
  0.7499999986316652  0.0000000000000000  0.3392002916742598   F   F   F
  0.7499999986316652  0.2499999993549622  0.3392002916742598   F   F   F
  0.7499999986316652  0.4999999993549622  0.3392002916742598   F   F   F
  0.0000000000000000  0.0000000000000000  0.3392002916742598   F   F   F
  0.9999999981755536  0.2499999993549622  0.3392002916742598   F   F   F
  0.9999999981755536  0.7499999987099173  0.3392002916742598   F   F   F
  0.7499999986316652  0.7499999987099173  0.3392002916742598   F   F   F
  0.2501990439667907  0.0000334508427841  0.4623451902875028   T   T   T
  0.2513886529667187  0.2538845625507640  0.4654506704797034   T   T   T
  0.2523958004264630  0.4998179406428457  0.4586058781274830   T   T   T
  0.2484526096989543  0.7482129154052244  0.4625968637749300   T   T   T
  0.4997908405383628  0.0000449552111761  0.4630420443691937   T   T   T
  0.4998641891360055  0.2524023053488805  0.4627631605435340   T   T   T
  0.5012440064543752  0.4998373071400881  0.4577566248656463   T   T   T
  0.4985480998696394  0.7497369530295256  0.4625390433011478   T   T   T
  0.7499666640111144  0.0000928471960333  0.4626593955945584   T   T   T
  0.7506124565707087  0.2500735701692091  0.4608870998794979   T   T   T
  0.7499167307783803  0.5001029501628751  0.4595042151253201   T   T   T
  0.7483544092130251  0.7485886304983127  0.4627591389698597   T   T   T
  0.0000187830873996 -0.0000869791570407  0.4631661454883828   T   T   T
  0.0016853678876501  0.2506044063373671  0.4632493272668199   T   T   T
 -0.0020737040762307  0.5004012495459117  0.4592742996704486   T   T   T
  0.0000040852819983  0.7479377968544361  0.4642363324900011   T   T   T
  0.1270878877986478  0.1259160371631277  0.5196889373076616   T   T   T
  0.1247775108116444  0.3812924422765603  0.5228313850822864   T   T   T
  0.1222527157438437  0.6184791936079728  0.5226674801325418   T   T   T
  0.1235225947989552  0.8742198123569040  0.5218410977645136   T   T   T
  0.3728819424169996  0.1261660478931480  0.5195424157827746   T   T   T
  0.3764443119721279  0.3843408787227703  0.5271149382729720   T   T   T
  0.3689864056840343  0.6230511202754804  0.5215325962732953   T   T   T
  0.3766556103258608  0.8744276550885307  0.5216337958692475   T   T   T
  0.6222955847809140  0.1257993006457064  0.5213925941065177   T   T   T
  0.6351946855931788  0.3755372185386797  0.5229751559868793   T   T   T
  0.6214188142648065  0.6180268726916381  0.5245140294831763   T   T   T
  0.6272025095816677  0.8741955036192214  0.5195871013973665   T   T   T
  0.8767716918350641  0.1257297455902440  0.5216255333106465   T   T   T
  0.8791450038238853  0.3749527171805391  0.5190389634477225   T   T   T
  0.8698411123972775  0.6225324252457654  0.5223050249463039   T   T   T
  0.8735937914813005  0.8740042531340310  0.5196132946783704   T   T   T
  0.1249999993158326  0.1249999996774775  0.4011733916681877   F   F   F
  0.1249999993158326  0.3749999996774775  0.4011733916681877   F   F   F
  0.1250000002280558  0.6249999990324397  0.4011733916681877   F   F   F
  0.1250000002280558  0.8749999983874019  0.4011733916681877   F   F   F
  0.3749999988597210  0.1249999996774775  0.4011733916681877   F   F   F
  0.3749999997719442  0.3749999996774775  0.4011733916681877   F   F   F
  0.3749999997719442  0.6249999990324397  0.4011733916681877   F   F   F
  0.3749999997719442  0.8749999983874019  0.4011733916681877   F   F   F
  0.6249999993158326  0.1249999996774775  0.4011733916681877   F   F   F
  0.6249999984036094  0.3749999996774775  0.4011733916681877   F   F   F
  0.6249999993158326  0.6249999990324397  0.4011733916681877   F   F   F
  0.6249999993158326  0.8749999983874019  0.4011733916681877   F   F   F
  0.8749999979474978  0.1249999996774775  0.4011733916681877   F   F   F
  0.8749999988597210  0.3749999996774775  0.4011733916681877   F   F   F
  0.8749999988597210  0.6249999990324397  0.4011733916681877   F   F   F
  0.8749999988597210  0.8749999983874019  0.4011733916681877   F   F   F
  0.5387466425151647  0.5953509302744042  0.6128906345466876   T   T   T
  0.6381506752057640  0.5381268789868732  0.5994629526567392   T   T   T
  0.6199147487832577  0.4471314779147131  0.5933083295035605   T   T   T
  0.5013508912111314  0.4091020396850625  0.6098024710813887   T   T   T
  0.4046509752508272  0.4682348387142690  0.5945872766416337   T   T   T
  0.4196686784356515  0.5573314454381247  0.5932477147052592   T   T   T
  0.5438656674991000  0.6507990559544961  0.6431546348828808   T   T   T
  0.4928138722191677  0.3535310479511567  0.6397434570271157   T   T   T
  0.8293203399030280  0.5701427214207859  0.6256829005055943   T   T   T
  0.7483830314485330  0.1311808397774833  0.6154126504731969   T   T   T
  0.1186653168274970  0.4982254303208032  0.6033033683611627   T   T   T
  0.2516240822931027  0.8708731808918749  0.6160984367075043   T   T   T
 
  0.00000000E+00  0.00000000E+00  0.00000000E+00
  0.00000000E+00  0.00000000E+00  0.00000000E+00
  0.00000000E+00  0.00000000E+00  0.00000000E+00
  0.00000000E+00  0.00000000E+00  0.00000000E+00
  0.00000000E+00  0.00000000E+00  0.00000000E+00
  0.00000000E+00  0.00000000E+00  0.00000000E+00
  0.00000000E+00  0.00000000E+00  0.00000000E+00
  0.00000000E+00  0.00000000E+00  0.00000000E+00
  0.00000000E+00  0.00000000E+00  0.00000000E+00
  0.00000000E+00  0.00000000E+00  0.00000000E+00
  0.00000000E+00  0.00000000E+00  0.00000000E+00
  0.00000000E+00  0.00000000E+00  0.00000000E+00
  0.00000000E+00  0.00000000E+00  0.00000000E+00
  0.00000000E+00  0.00000000E+00  0.00000000E+00
  0.00000000E+00  0.00000000E+00  0.00000000E+00
  0.00000000E+00  0.00000000E+00  0.00000000E+00
  0.00000000E+00  0.00000000E+00  0.00000000E+00
  0.00000000E+00  0.00000000E+00  0.00000000E+00
  0.00000000E+00  0.00000000E+00  0.00000000E+00
  0.00000000E+00  0.00000000E+00  0.00000000E+00
  0.00000000E+00  0.00000000E+00  0.00000000E+00
  0.00000000E+00  0.00000000E+00  0.00000000E+00
  0.00000000E+00  0.00000000E+00  0.00000000E+00
  0.00000000E+00  0.00000000E+00  0.00000000E+00
  0.00000000E+00  0.00000000E+00  0.00000000E+00
  0.00000000E+00  0.00000000E+00  0.00000000E+00
  0.00000000E+00  0.00000000E+00  0.00000000E+00
  0.00000000E+00  0.00000000E+00  0.00000000E+00
  0.00000000E+00  0.00000000E+00  0.00000000E+00
  0.00000000E+00  0.00000000E+00  0.00000000E+00
  0.00000000E+00  0.00000000E+00  0.00000000E+00
  0.00000000E+00  0.00000000E+00  0.00000000E+00
  0.00000000E+00  0.00000000E+00  0.00000000E+00
  0.00000000E+00  0.00000000E+00  0.00000000E+00
  0.00000000E+00  0.00000000E+00  0.00000000E+00
  0.00000000E+00  0.00000000E+00  0.00000000E+00
  0.00000000E+00  0.00000000E+00  0.00000000E+00
  0.00000000E+00  0.00000000E+00  0.00000000E+00
  0.00000000E+00  0.00000000E+00  0.00000000E+00
  0.00000000E+00  0.00000000E+00  0.00000000E+00
  0.00000000E+00  0.00000000E+00  0.00000000E+00
  0.00000000E+00  0.00000000E+00  0.00000000E+00
  0.00000000E+00  0.00000000E+00  0.00000000E+00
  0.00000000E+00  0.00000000E+00  0.00000000E+00
  0.00000000E+00  0.00000000E+00  0.00000000E+00
  0.00000000E+00  0.00000000E+00  0.00000000E+00
  0.00000000E+00  0.00000000E+00  0.00000000E+00
  0.00000000E+00  0.00000000E+00  0.00000000E+00
  0.00000000E+00  0.00000000E+00  0.00000000E+00
  0.00000000E+00  0.00000000E+00  0.00000000E+00
  0.00000000E+00  0.00000000E+00  0.00000000E+00
  0.00000000E+00  0.00000000E+00  0.00000000E+00
  0.00000000E+00  0.00000000E+00  0.00000000E+00
  0.00000000E+00  0.00000000E+00  0.00000000E+00
  0.00000000E+00  0.00000000E+00  0.00000000E+00
  0.00000000E+00  0.00000000E+00  0.00000000E+00
  0.00000000E+00  0.00000000E+00  0.00000000E+00
  0.00000000E+00  0.00000000E+00  0.00000000E+00
  0.00000000E+00  0.00000000E+00  0.00000000E+00
  0.00000000E+00  0.00000000E+00  0.00000000E+00
  0.00000000E+00  0.00000000E+00  0.00000000E+00
  0.00000000E+00  0.00000000E+00  0.00000000E+00
  0.00000000E+00  0.00000000E+00  0.00000000E+00
  0.00000000E+00  0.00000000E+00  0.00000000E+00
  0.00000000E+00  0.00000000E+00  0.00000000E+00
  0.00000000E+00  0.00000000E+00  0.00000000E+00
  0.00000000E+00  0.00000000E+00  0.00000000E+00
  0.00000000E+00  0.00000000E+00  0.00000000E+00
  0.00000000E+00  0.00000000E+00  0.00000000E+00
  0.00000000E+00  0.00000000E+00  0.00000000E+00
  0.00000000E+00  0.00000000E+00  0.00000000E+00
  0.00000000E+00  0.00000000E+00  0.00000000E+00
  0.00000000E+00  0.00000000E+00  0.00000000E+00
  0.00000000E+00  0.00000000E+00  0.00000000E+00
  0.00000000E+00  0.00000000E+00  0.00000000E+00
  0.00000000E+00  0.00000000E+00  0.00000000E+00
