Rh48 C6 Br2 H4                          
    1.000000000000000     
    10.8856652999999994    0.0000000000000000    0.0000000000000000
     0.0000000000000000   15.3946555000000007    0.0000000000000000
     0.0000000000000000    0.0000000000000000   15.4490758800000005
   Rh   C    Br   H 
    48     6     2     4
Selective dynamics
Direct
  0.2505131394411819  0.2500825846679362  0.3987471331157053   T   T   T
  0.2465498677765439  0.4983635655742447  0.4034896403985186   T   T   T
  0.2527095717263137  0.7483310618459171  0.4045408596499698   T   T   T
  0.2494413661763133  0.0012557699810358  0.4057189702549096   T   T   T
  0.4994547172372990  0.2524763744793574  0.4028642165160932   T   T   T
  0.4999921447538327  0.4999954718284343  0.4009101554861587   T   T   T
  0.5005377878296926  0.7475313297354731  0.4028552085844765   T   T   T
  0.4999942104806010  0.0000005112368768  0.4045534169302201   T   T   T
  0.7472883310382628  0.2516815818068352  0.4045667971697640   T   T   T
  0.7534284737490324  0.5016382748777133  0.4034901651484546   T   T   T
  0.7494859419342959  0.7499178697191127  0.3987358355358097   T   T   T
  0.7505591625882673  0.9987488717579041  0.4057187137968583   T   T   T
  0.9972843104294213  0.2496094155091839  0.3997709579290998   T   T   T
  0.0000044313049514  0.5000025208244381  0.4055177419198088   T   T   T
  0.0027056324091959  0.7503856009145764  0.3997541219209282   T   T   T
  0.0000065590975353  0.0000032403187902  0.4035826956308668   T   T   T
  0.1248089769201712  0.1295341662574501  0.4843521592288837   T   T   T
  0.1200627602390654  0.3686151310236170  0.4847668463944856   T   T   T
  0.1256063834689201  0.6252188544756194  0.4817931599872409   T   T   T
  0.1269803508204745  0.8747957835737097  0.4819207788281830   T   T   T
  0.3765573004483400  0.1262917075169057  0.4817272855640624   T   T   T
  0.3646555886400407  0.3765435031120816  0.4862691244693522   T   T   T
  0.3756828009180708  0.6156931080372416  0.4874950648837668   T   T   T
  0.3749818000732361  0.8744705106111041  0.4816812947447673   T   T   T
  0.6250152730140783  0.1255285544259195  0.4816467659703889   T   T   T
  0.6243277291940501  0.3842922126288570  0.4874676161693401   T   T   T
  0.6352964906650058  0.6234158492185102  0.4863319746191124   T   T   T
  0.6234515596866004  0.8737076312663987  0.4817741270706577   T   T   T
  0.8730142031723176  0.1251942012499185  0.4819126008842360   T   T   T
  0.8743953485169413  0.3747861244474890  0.4818024176208553   T   T   T
  0.8799291682416452  0.6313726851814963  0.4847533157038058   T   T   T
  0.8751861632724243  0.8704765505647885  0.4843670718127981   T   T   T
  0.1249999997703384  0.1250000001623945  0.3236439537767382   F   F   F
  0.1249999997703384  0.3750000004871836  0.3236439537767382   F   F   F
  0.1250000006889778  0.6250000014615438  0.3236439537767382   F   F   F
  0.1250000006889778  0.8750000017863329  0.3236439537767382   F   F   F
  0.3750000002296616  0.1250000001623945  0.3236439537767382   F   F   F
  0.3750000002296616  0.3750000004871836  0.3236439537767382   F   F   F
  0.3750000011483010  0.6250000014615438  0.3236439537767382   F   F   F
  0.3750000011483010  0.8750000017863329  0.3236439537767382   F   F   F
  0.6250000006889778  0.1250000001623945  0.3236439537767382   F   F   F
  0.6250000006889778  0.3750000004871836  0.3236439537767382   F   F   F
  0.6250000006889778  0.6250000014615438  0.3236439537767382   F   F   F
  0.6250000006889778  0.8750000017863329  0.3236439537767382   F   F   F
  0.8750000011483010  0.1250000001623945  0.3236439537767382   F   F   F
  0.8750000011483010  0.3750000004871836  0.3236439537767382   F   F   F
  0.8750000020669404  0.6250000014615438  0.3236439537767382   F   F   F
  0.8750000011483010  0.8750000017863329  0.3236439537767382   F   F   F
  0.4070690948914972  0.4379685059160749  0.5886663726486532   T   T   T
  0.3725263843072000  0.5276922829053987  0.6063747116528688   T   T   T
  0.4691477694712063  0.5900340149238232  0.6123325238553861   T   T   T
  0.5927388008446286  0.5620402762690659  0.5886318953563361   T   T   T
  0.6274874609521817  0.4723926836249674  0.6063439943259681   T   T   T
  0.5308902623187421  0.4099443008765249  0.6123151148646571   T   T   T
  0.1103546016695773  0.2479460135264944  0.6019896798860884   T   T   T
  0.8896765364541608  0.7520340079229584  0.6019615210143527   T   T   T
  0.2806026185203834  0.5410298838370764  0.6317286410417395   T   T   T
  0.4572038869494932  0.6519750882073225  0.6459622831513343   T   T   T
  0.7193902746691663  0.4589335638937087  0.6317749751071702   T   T   T
  0.5427868989769706  0.3478709449129695  0.6459575914149411   T   T   T
 
  0.00000000E+00  0.00000000E+00  0.00000000E+00
  0.00000000E+00  0.00000000E+00  0.00000000E+00
  0.00000000E+00  0.00000000E+00  0.00000000E+00
  0.00000000E+00  0.00000000E+00  0.00000000E+00
  0.00000000E+00  0.00000000E+00  0.00000000E+00
  0.00000000E+00  0.00000000E+00  0.00000000E+00
  0.00000000E+00  0.00000000E+00  0.00000000E+00
  0.00000000E+00  0.00000000E+00  0.00000000E+00
  0.00000000E+00  0.00000000E+00  0.00000000E+00
  0.00000000E+00  0.00000000E+00  0.00000000E+00
  0.00000000E+00  0.00000000E+00  0.00000000E+00
  0.00000000E+00  0.00000000E+00  0.00000000E+00
  0.00000000E+00  0.00000000E+00  0.00000000E+00
  0.00000000E+00  0.00000000E+00  0.00000000E+00
  0.00000000E+00  0.00000000E+00  0.00000000E+00
  0.00000000E+00  0.00000000E+00  0.00000000E+00
  0.00000000E+00  0.00000000E+00  0.00000000E+00
  0.00000000E+00  0.00000000E+00  0.00000000E+00
  0.00000000E+00  0.00000000E+00  0.00000000E+00
  0.00000000E+00  0.00000000E+00  0.00000000E+00
  0.00000000E+00  0.00000000E+00  0.00000000E+00
  0.00000000E+00  0.00000000E+00  0.00000000E+00
  0.00000000E+00  0.00000000E+00  0.00000000E+00
  0.00000000E+00  0.00000000E+00  0.00000000E+00
  0.00000000E+00  0.00000000E+00  0.00000000E+00
  0.00000000E+00  0.00000000E+00  0.00000000E+00
  0.00000000E+00  0.00000000E+00  0.00000000E+00
  0.00000000E+00  0.00000000E+00  0.00000000E+00
  0.00000000E+00  0.00000000E+00  0.00000000E+00
  0.00000000E+00  0.00000000E+00  0.00000000E+00
  0.00000000E+00  0.00000000E+00  0.00000000E+00
  0.00000000E+00  0.00000000E+00  0.00000000E+00
  0.00000000E+00  0.00000000E+00  0.00000000E+00
  0.00000000E+00  0.00000000E+00  0.00000000E+00
  0.00000000E+00  0.00000000E+00  0.00000000E+00
  0.00000000E+00  0.00000000E+00  0.00000000E+00
  0.00000000E+00  0.00000000E+00  0.00000000E+00
  0.00000000E+00  0.00000000E+00  0.00000000E+00
  0.00000000E+00  0.00000000E+00  0.00000000E+00
  0.00000000E+00  0.00000000E+00  0.00000000E+00
  0.00000000E+00  0.00000000E+00  0.00000000E+00
  0.00000000E+00  0.00000000E+00  0.00000000E+00
  0.00000000E+00  0.00000000E+00  0.00000000E+00
  0.00000000E+00  0.00000000E+00  0.00000000E+00
  0.00000000E+00  0.00000000E+00  0.00000000E+00
  0.00000000E+00  0.00000000E+00  0.00000000E+00
  0.00000000E+00  0.00000000E+00  0.00000000E+00
  0.00000000E+00  0.00000000E+00  0.00000000E+00
  0.00000000E+00  0.00000000E+00  0.00000000E+00
  0.00000000E+00  0.00000000E+00  0.00000000E+00
  0.00000000E+00  0.00000000E+00  0.00000000E+00
  0.00000000E+00  0.00000000E+00  0.00000000E+00
  0.00000000E+00  0.00000000E+00  0.00000000E+00
  0.00000000E+00  0.00000000E+00  0.00000000E+00
  0.00000000E+00  0.00000000E+00  0.00000000E+00
  0.00000000E+00  0.00000000E+00  0.00000000E+00
  0.00000000E+00  0.00000000E+00  0.00000000E+00
  0.00000000E+00  0.00000000E+00  0.00000000E+00
  0.00000000E+00  0.00000000E+00  0.00000000E+00
  0.00000000E+00  0.00000000E+00  0.00000000E+00
