Pt  C  N  F                             
   1.00000000000000     
    11.2480069999999994    0.0000000000000000    0.0000000000000000
    -5.6240030000000001    9.7410599999999992    0.0000000000000000
     0.0000000000000000    0.0000000000000000   24.8879693399999979
   Pt   C    N    F 
    64     4     2     4
Selective dynamics
Direct
  0.9999999587182344  0.7499999743354451  0.3013504194553178   F   F   F
  0.2499999964438118  0.0000000000000000  0.3013504194553178   F   F   F
  0.2499999825579735  0.2499999917873410  0.3013504194553178   F   F   F
  0.2499999690478916  0.4999999825481041  0.3013504194553178   F   F   F
  0.2499999551620533  0.7499999743354451  0.3013504194553178   F   F   F
  0.4999999928876306  0.0000000000000000  0.3013504194553178   F   F   F
  0.4999999790017924  0.2499999917873410  0.3013504194553178   F   F   F
  0.4999999654917033  0.4999999825481041  0.3013504194553178   F   F   F
  0.7499999893314424  0.0000000000000000  0.3013504194553178   F   F   F
  0.7499999754456042  0.2499999917873410  0.3013504194553178   F   F   F
  0.7499999619355222  0.4999999825481041  0.3013504194553178   F   F   F
  0.7499999480496840  0.7499999743354451  0.3013504194553178   F   F   F
  0.0000000000000000  0.0000000000000000  0.3013504194553178   F   F   F
  0.9999999861141617  0.2499999917873410  0.3013504194553178   F   F   F
  0.9999999583793340  0.4999999825481041  0.3013504194553178   F   F   F
  0.4999999516058651  0.7499999743354451  0.3013504194553178   F   F   F
  0.0833330000000032  0.1666669999999968  0.3936034172243978   F   F   F
  0.0833330000000032  0.4166669999999968  0.3936034172243978   F   F   F
  0.0833330000000032  0.6666669999999968  0.3936034172243978   F   F   F
  0.0833330000000032  0.9166669999999968  0.3936034172243978   F   F   F
  0.3333330000000032  0.1666669999999968  0.3936034172243978   F   F   F
  0.3333330000000032  0.4166669999999968  0.3936034172243978   F   F   F
  0.3333330000000032  0.6666669999999968  0.3936034172243978   F   F   F
  0.3333330000000032  0.9166669999999968  0.3936034172243978   F   F   F
  0.5833330000000032  0.1666669999999968  0.3936034172243978   F   F   F
  0.5833330000000032  0.4166669999999968  0.3936034172243978   F   F   F
  0.5833330000000032  0.6666669999999968  0.3936034172243978   F   F   F
  0.5833330000000032  0.9166669999999968  0.3936034172243978   F   F   F
  0.8333330000000032  0.1666669999999968  0.3936034172243978   F   F   F
  0.8333330000000032  0.4166669999999968  0.3936034172243978   F   F   F
  0.8333330000000032  0.6666669999999968  0.3936034172243978   F   F   F
  0.8333330000000032  0.9166669999999968  0.3936034172243978   F   F   F
  0.2498810263751181  0.2500425974107105  0.5783330665428915   T   T   T
  0.2498985515325257  0.5001176686256303  0.5782520615294752   T   T   T
  0.2499904495828022  0.7500710289508512  0.5784691979770996   T   T   T
  0.2499592628864463  0.0000703256579707  0.5784039587909212   T   T   T
  0.4998135068861809  0.2499658549864491  0.5782406532556044   T   T   T
  0.4997387665195023  0.4998309812203745  0.5778662924613005   T   T   T
  0.5001095411387444  0.7499304527485844  0.5785703548706860   T   T   T
  0.4999879521733977  0.0000695816340354  0.5784684252564676   T   T   T
  0.7499543260295577  0.2501746014206944  0.5784838257313861   T   T   T
  0.7498043197372832  0.5002341154747596  0.5785897198804684   T   T   T
  0.7502289670411053  0.7503510437079701  0.5778934161833236   T   T   T
  0.7499141794660843  0.0001771921063074  0.5782563911431797   T   T   T
 -0.0000305084822740  0.2501106570443218  0.5784139993976982   T   T   T
  0.9998636786821941  0.5000676845768733  0.5784834515581997   T   T   T
  0.0000491356651302  0.7501968461788646  0.5782543519005736   T   T   T
 -0.0000031414417597  0.0001589154027136  0.5783482677870783   T   T   T
  0.1665703508320257  0.0835170716233080  0.4852632248927347   T   T   T
  0.1665874098610809  0.3335734290790802  0.4852535671454117   T   T   T
  0.1665488616781879  0.5835774765380342  0.4852841198424270   T   T   T
  0.1666623397825031  0.8335616166882944  0.4852475274953474   T   T   T
  0.4165624543526529  0.0834553458938876  0.4852477518104516   T   T   T
  0.4165064508749017  0.3333622964981239  0.4850635350685564   T   T   T
  0.4166694920918063  0.5837198046258720  0.4851005269382371   T   T   T
  0.4165710848541926  0.8335355059143081  0.4853658668108583   T   T   T
  0.6665369910094872  0.0835552489235480  0.4852842603166990   T   T   T
  0.6666927852339458  0.3334301123975385  0.4853243359345414   T   T   T
  0.6668937932957696  0.5832277582962450  0.4850483389594548   T   T   T
  0.6663968857712400  0.8334619873909535  0.4851071204226284   T   T   T
  0.9165410313469593  0.0835349767521554  0.4852595789130066   T   T   T
  0.9165869402068526  0.3335053767853380  0.4853294600218430   T   T   T
  0.9166878969390104  0.5834240185073638  0.4853240977663120   T   T   T
  0.9167317746335107  0.8335990429730985  0.4850886008422068   T   T   T
  0.4883641504091709  0.5602013320243738  0.7062093948000244   T   T   T
  0.5604627478037586  0.4881273914037507  0.7062795452694043   T   T   T
  0.7608380310487416  0.6885210489520690  0.7062937691206975   T   T   T
  0.6887383063551973  0.7605974954110222  0.7062152983996782   T   T   T
  0.6957614271919007  0.5532907786374472  0.7066654445406905   T   T   T
  0.5534724511627311  0.6954221466975797  0.7065232402744313   T   T   T
  0.7558194331631335  0.8982563936371540  0.7077711922593348   T   T   T
  0.8985157195073539  0.7557143198581858  0.7079244999115145   T   T   T
  0.3506709763416438  0.4929922976766392  0.7077987007362895   T   T   T
  0.4932824060182460  0.3504156405955918  0.7078678515753429   T   T   T
 
  0.00000000E+00  0.00000000E+00  0.00000000E+00
  0.00000000E+00  0.00000000E+00  0.00000000E+00
  0.00000000E+00  0.00000000E+00  0.00000000E+00
  0.00000000E+00  0.00000000E+00  0.00000000E+00
  0.00000000E+00  0.00000000E+00  0.00000000E+00
  0.00000000E+00  0.00000000E+00  0.00000000E+00
  0.00000000E+00  0.00000000E+00  0.00000000E+00
  0.00000000E+00  0.00000000E+00  0.00000000E+00
  0.00000000E+00  0.00000000E+00  0.00000000E+00
  0.00000000E+00  0.00000000E+00  0.00000000E+00
  0.00000000E+00  0.00000000E+00  0.00000000E+00
  0.00000000E+00  0.00000000E+00  0.00000000E+00
  0.00000000E+00  0.00000000E+00  0.00000000E+00
  0.00000000E+00  0.00000000E+00  0.00000000E+00
  0.00000000E+00  0.00000000E+00  0.00000000E+00
  0.00000000E+00  0.00000000E+00  0.00000000E+00
  0.00000000E+00  0.00000000E+00  0.00000000E+00
  0.00000000E+00  0.00000000E+00  0.00000000E+00
  0.00000000E+00  0.00000000E+00  0.00000000E+00
  0.00000000E+00  0.00000000E+00  0.00000000E+00
  0.00000000E+00  0.00000000E+00  0.00000000E+00
  0.00000000E+00  0.00000000E+00  0.00000000E+00
  0.00000000E+00  0.00000000E+00  0.00000000E+00
  0.00000000E+00  0.00000000E+00  0.00000000E+00
  0.00000000E+00  0.00000000E+00  0.00000000E+00
  0.00000000E+00  0.00000000E+00  0.00000000E+00
  0.00000000E+00  0.00000000E+00  0.00000000E+00
  0.00000000E+00  0.00000000E+00  0.00000000E+00
  0.00000000E+00  0.00000000E+00  0.00000000E+00
  0.00000000E+00  0.00000000E+00  0.00000000E+00
  0.00000000E+00  0.00000000E+00  0.00000000E+00
  0.00000000E+00  0.00000000E+00  0.00000000E+00
  0.00000000E+00  0.00000000E+00  0.00000000E+00
  0.00000000E+00  0.00000000E+00  0.00000000E+00
  0.00000000E+00  0.00000000E+00  0.00000000E+00
  0.00000000E+00  0.00000000E+00  0.00000000E+00
  0.00000000E+00  0.00000000E+00  0.00000000E+00
  0.00000000E+00  0.00000000E+00  0.00000000E+00
  0.00000000E+00  0.00000000E+00  0.00000000E+00
  0.00000000E+00  0.00000000E+00  0.00000000E+00
  0.00000000E+00  0.00000000E+00  0.00000000E+00
  0.00000000E+00  0.00000000E+00  0.00000000E+00
  0.00000000E+00  0.00000000E+00  0.00000000E+00
  0.00000000E+00  0.00000000E+00  0.00000000E+00
  0.00000000E+00  0.00000000E+00  0.00000000E+00
  0.00000000E+00  0.00000000E+00  0.00000000E+00
  0.00000000E+00  0.00000000E+00  0.00000000E+00
  0.00000000E+00  0.00000000E+00  0.00000000E+00
  0.00000000E+00  0.00000000E+00  0.00000000E+00
  0.00000000E+00  0.00000000E+00  0.00000000E+00
  0.00000000E+00  0.00000000E+00  0.00000000E+00
  0.00000000E+00  0.00000000E+00  0.00000000E+00
  0.00000000E+00  0.00000000E+00  0.00000000E+00
  0.00000000E+00  0.00000000E+00  0.00000000E+00
  0.00000000E+00  0.00000000E+00  0.00000000E+00
  0.00000000E+00  0.00000000E+00  0.00000000E+00
  0.00000000E+00  0.00000000E+00  0.00000000E+00
  0.00000000E+00  0.00000000E+00  0.00000000E+00
  0.00000000E+00  0.00000000E+00  0.00000000E+00
  0.00000000E+00  0.00000000E+00  0.00000000E+00
  0.00000000E+00  0.00000000E+00  0.00000000E+00
  0.00000000E+00  0.00000000E+00  0.00000000E+00
  0.00000000E+00  0.00000000E+00  0.00000000E+00
  0.00000000E+00  0.00000000E+00  0.00000000E+00
  0.00000000E+00  0.00000000E+00  0.00000000E+00
  0.00000000E+00  0.00000000E+00  0.00000000E+00
  0.00000000E+00  0.00000000E+00  0.00000000E+00
  0.00000000E+00  0.00000000E+00  0.00000000E+00
  0.00000000E+00  0.00000000E+00  0.00000000E+00
  0.00000000E+00  0.00000000E+00  0.00000000E+00
  0.00000000E+00  0.00000000E+00  0.00000000E+00
  0.00000000E+00  0.00000000E+00  0.00000000E+00
  0.00000000E+00  0.00000000E+00  0.00000000E+00
  0.00000000E+00  0.00000000E+00  0.00000000E+00
