Pt  C  H Cl                             
   1.00000000000000     
    11.2480069999999994    0.0000000000000000    0.0000000000000000
    -5.6240030000000001    9.7410599999999992    0.0000000000000000
     0.0000000000000000    0.0000000000000000   24.8879693399999979
   Pt   C    H    Cl
    64     6     2     4
Selective dynamics
Direct
  0.9999999587182344  0.7499999743354451  0.3013504194553178   F   F   F
  0.2499999964438118  0.0000000000000000  0.3013504194553178   F   F   F
  0.2499999825579735  0.2499999917873410  0.3013504194553178   F   F   F
  0.2499999690478916  0.4999999825481041  0.3013504194553178   F   F   F
  0.2499999551620533  0.7499999743354451  0.3013504194553178   F   F   F
  0.4999999928876306  0.0000000000000000  0.3013504194553178   F   F   F
  0.4999999790017924  0.2499999917873410  0.3013504194553178   F   F   F
  0.4999999654917033  0.4999999825481041  0.3013504194553178   F   F   F
  0.7499999893314424  0.0000000000000000  0.3013504194553178   F   F   F
  0.7499999754456042  0.2499999917873410  0.3013504194553178   F   F   F
  0.7499999619355222  0.4999999825481041  0.3013504194553178   F   F   F
  0.7499999480496840  0.7499999743354451  0.3013504194553178   F   F   F
  0.0000000000000000  0.0000000000000000  0.3013504194553178   F   F   F
  0.9999999861141617  0.2499999917873410  0.3013504194553178   F   F   F
  0.9999999583793340  0.4999999825481041  0.3013504194553178   F   F   F
  0.4999999516058651  0.7499999743354451  0.3013504194553178   F   F   F
  0.0833330000000032  0.1666669999999968  0.3936034172243978   F   F   F
  0.0833330000000032  0.4166669999999968  0.3936034172243978   F   F   F
  0.0833330000000032  0.6666669999999968  0.3936034172243978   F   F   F
  0.0833330000000032  0.9166669999999968  0.3936034172243978   F   F   F
  0.3333330000000032  0.1666669999999968  0.3936034172243978   F   F   F
  0.3333330000000032  0.4166669999999968  0.3936034172243978   F   F   F
  0.3333330000000032  0.6666669999999968  0.3936034172243978   F   F   F
  0.3333330000000032  0.9166669999999968  0.3936034172243978   F   F   F
  0.5833330000000032  0.1666669999999968  0.3936034172243978   F   F   F
  0.5833330000000032  0.4166669999999968  0.3936034172243978   F   F   F
  0.5833330000000032  0.6666669999999968  0.3936034172243978   F   F   F
  0.5833330000000032  0.9166669999999968  0.3936034172243978   F   F   F
  0.8333330000000032  0.1666669999999968  0.3936034172243978   F   F   F
  0.8333330000000032  0.4166669999999968  0.3936034172243978   F   F   F
  0.8333330000000032  0.6666669999999968  0.3936034172243978   F   F   F
  0.8333330000000032  0.9166669999999968  0.3936034172243978   F   F   F
  0.2447876063220977  0.2454351524911749  0.5777845178099004   T   T   T
  0.2420804843127540  0.4982618442986750  0.5771027556955161   T   T   T
  0.2508276159913020  0.7503458725119621  0.5790068445087637   T   T   T
  0.2505476141327865  0.9994657290376037  0.5784894464888098   T   T   T
  0.4972921063923358  0.2426646366651498  0.5768415569414107   T   T   T
  0.4891179297569733  0.4910149214621773  0.5840652117217159   T   T   T
  0.4998478685822541  0.7501427433059735  0.5846380795440390   T   T   T
  0.4996713754113064  0.9991843498227524  0.5790094129469895   T   T   T
  0.7494120549499989  0.2517597150649217  0.5788497520697942   T   T   T
  0.7480874460342335  0.5019131060547887  0.5839400990681060   T   T   T
  0.7589724984296405  0.7608555020867976  0.5840589588934676   T   T   T
  0.7517534620902615  0.0079362028201372  0.5771060922159853   T   T   T
  0.9985506258441073  0.2514666008094679  0.5784265967960035   T   T   T
  0.9982573619574950  0.5005999749798032  0.5788493373321985   T   T   T
  0.0073438115734286  0.7527137359783492  0.5768436678490045   T   T   T
  0.0045777855180335  0.0052183000854285  0.5777854097065312   T   T   T
  0.1675661739083965  0.0824428448684189  0.4842945459359747   T   T   T
  0.1660806543508751  0.3330266273846948  0.4846676291782263   T   T   T
  0.1659084163376730  0.5839029594845087  0.4847657568239616   T   T   T
  0.1677611924053576  0.8328573078865243  0.4843175212664030   T   T   T
  0.4171485080897861  0.0822425672752095  0.4843183269420562   T   T   T
  0.4178020279157217  0.3360846982937453  0.4864129487469793   T   T   T
  0.4179587180853400  0.5828449331184619  0.4877274754119497   T   T   T
  0.4194835952356912  0.8305211897252113  0.4871612604326446   T   T   T
  0.6661056661956686  0.0840996012982723  0.4847682533235053   T   T   T
  0.6672301792590524  0.3366495121342770  0.4865561569975411   T   T   T
  0.6655454979531170  0.5844525948873729  0.4882611979355644   T   T   T
  0.6671596076407571  0.8320510227572486  0.4877279027456299   T   T   T
  0.9169780639805397  0.0839237304836244  0.4846700991353204   T   T   T
  0.9158365654096002  0.3341712824257773  0.4852446134812061   T   T   T
  0.9133565200734237  0.5827748425811133  0.4865578989670949   T   T   T
  0.9139215095573530  0.8322033813539171  0.4864142253183661   T   T   T
  0.7034863918359381  0.5464506674670437  0.6624000022691015   T   T   T
  0.5511133088490691  0.4773073051932049  0.6655228858716840   T   T   T
  0.4768777460002190  0.5517480558804234  0.6657387443162710   T   T   T
  0.5457558683809820  0.7041735484519114  0.6627707948763198   T   T   T
  0.6982012939194833  0.7730991213019921  0.6657176662636638   T   T   T
  0.7726323045723190  0.6988491984344947  0.6655088570521427   T   T   T
  0.7473598709113909  0.5026400477923327  0.6900922767680830   T   T   T
  0.5020777955439698  0.7478963995853837  0.6905583803856666   T   T   T
  0.4767671504734458  0.3163361314737593  0.6961333164222457   T   T   T
  0.3159835600571233  0.4767303122108484  0.6963178221929947   T   T   T
  0.7732469489791246  0.9340224176640012  0.6963025379651504   T   T   T
  0.9335990009605901  0.7731910272214912  0.6961336198557359   T   T   T
 
  0.00000000E+00  0.00000000E+00  0.00000000E+00
  0.00000000E+00  0.00000000E+00  0.00000000E+00
  0.00000000E+00  0.00000000E+00  0.00000000E+00
  0.00000000E+00  0.00000000E+00  0.00000000E+00
  0.00000000E+00  0.00000000E+00  0.00000000E+00
  0.00000000E+00  0.00000000E+00  0.00000000E+00
  0.00000000E+00  0.00000000E+00  0.00000000E+00
  0.00000000E+00  0.00000000E+00  0.00000000E+00
  0.00000000E+00  0.00000000E+00  0.00000000E+00
  0.00000000E+00  0.00000000E+00  0.00000000E+00
  0.00000000E+00  0.00000000E+00  0.00000000E+00
  0.00000000E+00  0.00000000E+00  0.00000000E+00
  0.00000000E+00  0.00000000E+00  0.00000000E+00
  0.00000000E+00  0.00000000E+00  0.00000000E+00
  0.00000000E+00  0.00000000E+00  0.00000000E+00
  0.00000000E+00  0.00000000E+00  0.00000000E+00
  0.00000000E+00  0.00000000E+00  0.00000000E+00
  0.00000000E+00  0.00000000E+00  0.00000000E+00
  0.00000000E+00  0.00000000E+00  0.00000000E+00
  0.00000000E+00  0.00000000E+00  0.00000000E+00
  0.00000000E+00  0.00000000E+00  0.00000000E+00
  0.00000000E+00  0.00000000E+00  0.00000000E+00
  0.00000000E+00  0.00000000E+00  0.00000000E+00
  0.00000000E+00  0.00000000E+00  0.00000000E+00
  0.00000000E+00  0.00000000E+00  0.00000000E+00
  0.00000000E+00  0.00000000E+00  0.00000000E+00
  0.00000000E+00  0.00000000E+00  0.00000000E+00
  0.00000000E+00  0.00000000E+00  0.00000000E+00
  0.00000000E+00  0.00000000E+00  0.00000000E+00
  0.00000000E+00  0.00000000E+00  0.00000000E+00
  0.00000000E+00  0.00000000E+00  0.00000000E+00
  0.00000000E+00  0.00000000E+00  0.00000000E+00
  0.00000000E+00  0.00000000E+00  0.00000000E+00
  0.00000000E+00  0.00000000E+00  0.00000000E+00
  0.00000000E+00  0.00000000E+00  0.00000000E+00
  0.00000000E+00  0.00000000E+00  0.00000000E+00
  0.00000000E+00  0.00000000E+00  0.00000000E+00
  0.00000000E+00  0.00000000E+00  0.00000000E+00
  0.00000000E+00  0.00000000E+00  0.00000000E+00
  0.00000000E+00  0.00000000E+00  0.00000000E+00
  0.00000000E+00  0.00000000E+00  0.00000000E+00
  0.00000000E+00  0.00000000E+00  0.00000000E+00
  0.00000000E+00  0.00000000E+00  0.00000000E+00
  0.00000000E+00  0.00000000E+00  0.00000000E+00
  0.00000000E+00  0.00000000E+00  0.00000000E+00
  0.00000000E+00  0.00000000E+00  0.00000000E+00
  0.00000000E+00  0.00000000E+00  0.00000000E+00
  0.00000000E+00  0.00000000E+00  0.00000000E+00
  0.00000000E+00  0.00000000E+00  0.00000000E+00
  0.00000000E+00  0.00000000E+00  0.00000000E+00
  0.00000000E+00  0.00000000E+00  0.00000000E+00
  0.00000000E+00  0.00000000E+00  0.00000000E+00
  0.00000000E+00  0.00000000E+00  0.00000000E+00
  0.00000000E+00  0.00000000E+00  0.00000000E+00
  0.00000000E+00  0.00000000E+00  0.00000000E+00
  0.00000000E+00  0.00000000E+00  0.00000000E+00
  0.00000000E+00  0.00000000E+00  0.00000000E+00
  0.00000000E+00  0.00000000E+00  0.00000000E+00
  0.00000000E+00  0.00000000E+00  0.00000000E+00
  0.00000000E+00  0.00000000E+00  0.00000000E+00
  0.00000000E+00  0.00000000E+00  0.00000000E+00
  0.00000000E+00  0.00000000E+00  0.00000000E+00
  0.00000000E+00  0.00000000E+00  0.00000000E+00
  0.00000000E+00  0.00000000E+00  0.00000000E+00
  0.00000000E+00  0.00000000E+00  0.00000000E+00
  0.00000000E+00  0.00000000E+00  0.00000000E+00
  0.00000000E+00  0.00000000E+00  0.00000000E+00
  0.00000000E+00  0.00000000E+00  0.00000000E+00
  0.00000000E+00  0.00000000E+00  0.00000000E+00
  0.00000000E+00  0.00000000E+00  0.00000000E+00
  0.00000000E+00  0.00000000E+00  0.00000000E+00
  0.00000000E+00  0.00000000E+00  0.00000000E+00
  0.00000000E+00  0.00000000E+00  0.00000000E+00
  0.00000000E+00  0.00000000E+00  0.00000000E+00
  0.00000000E+00  0.00000000E+00  0.00000000E+00
  0.00000000E+00  0.00000000E+00  0.00000000E+00
