Rh48 C4 Br4 N2                          
    1.000000000000000     
    10.8721879999999995    0.0000000000000000    0.0000000000000000
    -5.4360939999999998    9.4155909999999992    0.0000000000000000
     0.0000000000000000    0.0000000000000000   16.4385520000000014
   Rh   C    Br   N 
    48     4     4     2
Selective dynamics
Direct
  0.0833330000000032  0.1666669999999968  0.3649959999999979   F   F   F
  0.0833330000000032  0.4166669999999968  0.3649959999999979   F   F   F
  0.0833330000000032  0.6666669999999968  0.3649959999999979   F   F   F
  0.0833330000000032  0.9166669999999968  0.3649959999999979   F   F   F
  0.3333330000000032  0.1666669999999968  0.3649959999999979   F   F   F
  0.3333330000000032  0.4166669999999968  0.3649959999999979   F   F   F
  0.3333330000000032  0.6666669999999968  0.3649959999999979   F   F   F
  0.3333330000000032  0.9166669999999968  0.3649959999999979   F   F   F
  0.5833330000000032  0.1666669999999968  0.3649959999999979   F   F   F
  0.5833330000000032  0.4166669999999968  0.3649959999999979   F   F   F
  0.5833330000000032  0.6666669999999968  0.3649959999999979   F   F   F
  0.5833330000000032  0.9166669999999968  0.3649959999999979   F   F   F
  0.8333330000000032  0.1666669999999968  0.3649959999999979   F   F   F
  0.8333330000000032  0.4166669999999968  0.3649959999999979   F   F   F
  0.8333330000000032  0.6666669999999968  0.3649959999999979   F   F   F
  0.8333330000000032  0.9166669999999968  0.3649959999999979   F   F   F
  0.9969113021826672  0.9961916367713144  0.6195468796163723   T   T   T
  0.9945944602778383  0.2477709327219486  0.6223412318275692   T   T   T
  0.0007260778951235  0.5004024598037660  0.6201231136968346   T   T   T
  0.0010112166994531  0.7489580405083416  0.6191483860594929   T   T   T
  0.2470240847510965  0.9945242983337579  0.6222832216155183   T   T   T
  0.2444765996180251  0.2436632279008677  0.6259202924100578   T   T   T
  0.2500232160326448  0.4999655847135429  0.6247900949583709   T   T   T
  0.2495562185275944  0.7492410293802223  0.6201120470543415   T   T   T
  0.5007855413917710  0.0009834897488474  0.6202486078297440   T   T   T
  0.4995989272362635  0.2503984080564834  0.6246083437762309   T   T   T
  0.5063468914701517  0.5055468474810922  0.6259157896738472   T   T   T
  0.5022021938700263  0.7553954876084887  0.6223249672964073   T   T   T
  0.7496630756092770  0.0003173240468470  0.6191863616554301   T   T   T
  0.7489783454305581  0.2491725508468221  0.6202478352568690   T   T   T
  0.7554579020922958  0.5029411663880765  0.6222811995346618   T   T   T
  0.7538229928973408  0.7531047557126698  0.6195464530520596   T   T   T
  0.1677752955461997  0.0851108640089961  0.4925311631820719   T   T   T
  0.1676289901301828  0.3331771211151633  0.4934896416801706   T   T   T
  0.1688713579826029  0.5810920986409656  0.4938257102961359   T   T   T
  0.1683488032388638  0.8338914114886222  0.4922249203288089   T   T   T
  0.4160350052207562  0.0851676170899296  0.4944390902795277   T   T   T
  0.4157468304167224  0.3342383661885222  0.4930385950259577   T   T   T
  0.4168118364272928  0.5823584735637723  0.4934886145309108   T   T   T
  0.4173170802959731  0.8328212993137285  0.4933177658373538   T   T   T
  0.6661940259360577  0.0837919890938110  0.4923452192215763   T   T   T
  0.6648259032399508  0.3339508192446417  0.4944362270627991   T   T   T
  0.6648999421462136  0.5822188332104972  0.4925319251040392   T   T   T
  0.6656678582604769  0.8322270067642563  0.4927022598146493   T   T   T
  0.9177786529789458  0.0843404178419433  0.4927015710730700   T   T   T
  0.9171773503777843  0.3326747967470993  0.4933224170856576   T   T   T
  0.9160902907519244  0.5816271835522357  0.4922275529910820   T   T   T
  0.9169505698293534  0.8330533031111074  0.4916233532470429   T   T   T
  0.5197476153203624  0.4419918170285229  0.7449678096770924   T   T   T
  0.4431472779769479  0.5184769035546708  0.7450850272249028   T   T   T
  0.2315595647333240  0.3068483599089404  0.7450883162200839   T   T   T
  0.3081512970619471  0.2303478178381297  0.7449679628684009   T   T   T
  0.2205108964139555  0.0274393083740918  0.7773311247068122   T   T   T
  0.0281791657979937  0.2186269803840588  0.7762538920869559   T   T   T
  0.7226473551908015  0.5296306310860786  0.7773266851383482   T   T   T
  0.5315220094960225  0.7218856325592355  0.7762490252126852   T   T   T
  0.2963220061948206  0.4538557352809747  0.7478123132471453   T   T   T
  0.4551012696255157  0.2948969342127441  0.7481959281971484   T   T   T
 
  0.00000000E+00  0.00000000E+00  0.00000000E+00
  0.00000000E+00  0.00000000E+00  0.00000000E+00
  0.00000000E+00  0.00000000E+00  0.00000000E+00
  0.00000000E+00  0.00000000E+00  0.00000000E+00
  0.00000000E+00  0.00000000E+00  0.00000000E+00
  0.00000000E+00  0.00000000E+00  0.00000000E+00
  0.00000000E+00  0.00000000E+00  0.00000000E+00
  0.00000000E+00  0.00000000E+00  0.00000000E+00
  0.00000000E+00  0.00000000E+00  0.00000000E+00
  0.00000000E+00  0.00000000E+00  0.00000000E+00
  0.00000000E+00  0.00000000E+00  0.00000000E+00
  0.00000000E+00  0.00000000E+00  0.00000000E+00
  0.00000000E+00  0.00000000E+00  0.00000000E+00
  0.00000000E+00  0.00000000E+00  0.00000000E+00
  0.00000000E+00  0.00000000E+00  0.00000000E+00
  0.00000000E+00  0.00000000E+00  0.00000000E+00
  0.00000000E+00  0.00000000E+00  0.00000000E+00
  0.00000000E+00  0.00000000E+00  0.00000000E+00
  0.00000000E+00  0.00000000E+00  0.00000000E+00
  0.00000000E+00  0.00000000E+00  0.00000000E+00
  0.00000000E+00  0.00000000E+00  0.00000000E+00
  0.00000000E+00  0.00000000E+00  0.00000000E+00
  0.00000000E+00  0.00000000E+00  0.00000000E+00
  0.00000000E+00  0.00000000E+00  0.00000000E+00
  0.00000000E+00  0.00000000E+00  0.00000000E+00
  0.00000000E+00  0.00000000E+00  0.00000000E+00
  0.00000000E+00  0.00000000E+00  0.00000000E+00
  0.00000000E+00  0.00000000E+00  0.00000000E+00
  0.00000000E+00  0.00000000E+00  0.00000000E+00
  0.00000000E+00  0.00000000E+00  0.00000000E+00
  0.00000000E+00  0.00000000E+00  0.00000000E+00
  0.00000000E+00  0.00000000E+00  0.00000000E+00
  0.00000000E+00  0.00000000E+00  0.00000000E+00
  0.00000000E+00  0.00000000E+00  0.00000000E+00
  0.00000000E+00  0.00000000E+00  0.00000000E+00
  0.00000000E+00  0.00000000E+00  0.00000000E+00
  0.00000000E+00  0.00000000E+00  0.00000000E+00
  0.00000000E+00  0.00000000E+00  0.00000000E+00
  0.00000000E+00  0.00000000E+00  0.00000000E+00
  0.00000000E+00  0.00000000E+00  0.00000000E+00
  0.00000000E+00  0.00000000E+00  0.00000000E+00
  0.00000000E+00  0.00000000E+00  0.00000000E+00
  0.00000000E+00  0.00000000E+00  0.00000000E+00
  0.00000000E+00  0.00000000E+00  0.00000000E+00
  0.00000000E+00  0.00000000E+00  0.00000000E+00
  0.00000000E+00  0.00000000E+00  0.00000000E+00
  0.00000000E+00  0.00000000E+00  0.00000000E+00
  0.00000000E+00  0.00000000E+00  0.00000000E+00
  0.00000000E+00  0.00000000E+00  0.00000000E+00
  0.00000000E+00  0.00000000E+00  0.00000000E+00
  0.00000000E+00  0.00000000E+00  0.00000000E+00
  0.00000000E+00  0.00000000E+00  0.00000000E+00
  0.00000000E+00  0.00000000E+00  0.00000000E+00
  0.00000000E+00  0.00000000E+00  0.00000000E+00
  0.00000000E+00  0.00000000E+00  0.00000000E+00
  0.00000000E+00  0.00000000E+00  0.00000000E+00
  0.00000000E+00  0.00000000E+00  0.00000000E+00
  0.00000000E+00  0.00000000E+00  0.00000000E+00
