Pd48 C6 F6                              
    1.000000000000000     
    11.1817229999999999    0.0000000000000000    0.0000000000000000
     0.0000000000000000   11.1817229999999999    0.0000000000000000
     0.0000000000000000    0.0000000000000000   16.9003602499999985
   Pd   C    F 
    48     6     6
Selective dynamics
Direct
  0.9982930965563170  0.2492292530622038  0.4103887196362876   T   T   T
  0.0000000000000000  0.4999999982113650  0.4098813228711577   T   T   T
  0.0017069034436830  0.7507707433605262  0.4103887196362876   T   T   T
  0.0000000000000000  0.0000000000000000  0.4102661250539441   T   T   T
  0.2498432859474704  0.2498411986207145  0.4104213469170332   T   T   T
  0.2523772016827337  0.5003562954110734  0.4123620917867754   T   T   T
  0.2530307704239547  0.7469688886595023  0.4130686443481295   T   T   T
  0.2492297296209500  0.9982943848445771  0.4103868432207491   T   T   T
  0.5003572816939794  0.2523752571299056  0.4123608584673093   T   T   T
  0.4999999982113650  0.4999999982113650  0.4114523404822847   T   T   T
  0.4996427147287505  0.7476247392928244  0.4123608584673093   T   T   T
  0.4999999982113650  0.0000000000000000  0.4098773499232351   T   T   T
  0.7469692259987752  0.2530311077632277  0.4130686443481295   T   T   T
  0.7476227947399963  0.4996437010116566  0.4123620917867754   T   T   T
  0.7501567104752596  0.7501587978020154  0.4104213469170332   T   T   T
  0.7507702668017799  0.0017056151554229  0.4103868432207491   T   T   T
  0.1237724524716981  0.1237715786114393  0.5258112897242810   T   T   T
  0.1221237571954248  0.3735559490720632  0.5250593944863198   T   T   T
  0.1236676635811023  0.6235448944464324  0.5262824400830368   T   T   T
  0.1253607468844180  0.8746404665642089  0.5264421442538350   T   T   T
  0.3735586985984156  0.1221234588318652  0.5250625542276453   T   T   T
  0.3678906812577054  0.3678848376195560  0.5303798689207184   T   T   T
  0.3774501891162885  0.6225480243671697  0.5370384743459411   T   T   T
  0.3764526686468486  0.8763406605296638  0.5262770731023707   T   T   T
  0.6235473277758814  0.1236593358930662  0.5262770731023707   T   T   T
  0.6225498073064415  0.3774519720555602  0.5370384743459411   T   T   T
  0.6321093151650246  0.6321151588031739  0.5303798689207184   T   T   T
  0.6264412978243143  0.8778765375908648  0.5250625542276453   T   T   T
  0.8746392495383120  0.1253595298585211  0.5264421442538350   T   T   T
  0.8763323328416277  0.3764551019762976  0.5262824400830368   T   T   T
  0.8778762392273052  0.6264440473506667  0.5250593944863198   T   T   T
  0.8762275439510319  0.8762284178112907  0.5258112897242810   T   T   T
  0.1249999995528412  0.1249999995528412  0.2958516816231764   F   F   F
  0.1249999995528412  0.3749999986585237  0.2958516816231764   F   F   F
  0.1249999995528412  0.6249999977642062  0.2958516816231764   F   F   F
  0.1249999995528412  0.8749999968698887  0.2958516816231764   F   F   F
  0.3749999986585237  0.1249999995528412  0.2958516816231764   F   F   F
  0.3749999986585237  0.3749999986585237  0.2958516816231764   F   F   F
  0.3749999986585237  0.6249999977642062  0.2958516816231764   F   F   F
  0.3749999986585237  0.8749999968698887  0.2958516816231764   F   F   F
  0.6249999977642062  0.1249999995528412  0.2958516816231764   F   F   F
  0.6249999977642062  0.3749999986585237  0.2958516816231764   F   F   F
  0.6249999977642062  0.6249999977642062  0.2958516816231764   F   F   F
  0.6249999977642062  0.8749999968698887  0.2958516816231764   F   F   F
  0.8749999968698887  0.1249999995528412  0.2958516816231764   F   F   F
  0.8749999968698887  0.3749999986585237  0.2958516816231764   F   F   F
  0.8749999968698887  0.6249999977642062  0.2958516816231764   F   F   F
  0.8749999968698887  0.8749999968698887  0.2958516816231764   F   F   F
  0.3741747085454392  0.5343973100482629  0.6493825494006558   T   T   T
  0.4656051463213018  0.6258211182205997  0.6493827760367452   T   T   T
  0.5944736786522640  0.5944748179401671  0.6458267030171783   T   T   T
  0.6258252592591660  0.4656026729597187  0.6493825494006558   T   T   T
  0.5343948778252425  0.3741788916168858  0.6493827760367452   T   T   T
  0.4055263177704660  0.4055251784825629  0.6458267030171783   T   T   T
  0.2720355587155510  0.5580863105842511  0.6905352558943960   T   T   T
  0.4419203934651748  0.7279649093704776  0.6905358698177011   T   T   T
  0.6634085029603440  0.6634103121753725  0.6957597174189374   T   T   T
  0.7279644377071861  0.4419136858384860  0.6905352558943960   T   T   T
  0.5580796727142499  0.2720351049385883  0.6905358698177011   T   T   T
  0.3365915211862074  0.3365896976621130  0.6957597174189374   T   T   T
 
  0.00000000E+00  0.00000000E+00  0.00000000E+00
  0.00000000E+00  0.00000000E+00  0.00000000E+00
  0.00000000E+00  0.00000000E+00  0.00000000E+00
  0.00000000E+00  0.00000000E+00  0.00000000E+00
  0.00000000E+00  0.00000000E+00  0.00000000E+00
  0.00000000E+00  0.00000000E+00  0.00000000E+00
  0.00000000E+00  0.00000000E+00  0.00000000E+00
  0.00000000E+00  0.00000000E+00  0.00000000E+00
  0.00000000E+00  0.00000000E+00  0.00000000E+00
  0.00000000E+00  0.00000000E+00  0.00000000E+00
  0.00000000E+00  0.00000000E+00  0.00000000E+00
  0.00000000E+00  0.00000000E+00  0.00000000E+00
  0.00000000E+00  0.00000000E+00  0.00000000E+00
  0.00000000E+00  0.00000000E+00  0.00000000E+00
  0.00000000E+00  0.00000000E+00  0.00000000E+00
  0.00000000E+00  0.00000000E+00  0.00000000E+00
  0.00000000E+00  0.00000000E+00  0.00000000E+00
  0.00000000E+00  0.00000000E+00  0.00000000E+00
  0.00000000E+00  0.00000000E+00  0.00000000E+00
  0.00000000E+00  0.00000000E+00  0.00000000E+00
  0.00000000E+00  0.00000000E+00  0.00000000E+00
  0.00000000E+00  0.00000000E+00  0.00000000E+00
  0.00000000E+00  0.00000000E+00  0.00000000E+00
  0.00000000E+00  0.00000000E+00  0.00000000E+00
  0.00000000E+00  0.00000000E+00  0.00000000E+00
  0.00000000E+00  0.00000000E+00  0.00000000E+00
  0.00000000E+00  0.00000000E+00  0.00000000E+00
  0.00000000E+00  0.00000000E+00  0.00000000E+00
  0.00000000E+00  0.00000000E+00  0.00000000E+00
  0.00000000E+00  0.00000000E+00  0.00000000E+00
  0.00000000E+00  0.00000000E+00  0.00000000E+00
  0.00000000E+00  0.00000000E+00  0.00000000E+00
  0.00000000E+00  0.00000000E+00  0.00000000E+00
  0.00000000E+00  0.00000000E+00  0.00000000E+00
  0.00000000E+00  0.00000000E+00  0.00000000E+00
  0.00000000E+00  0.00000000E+00  0.00000000E+00
  0.00000000E+00  0.00000000E+00  0.00000000E+00
  0.00000000E+00  0.00000000E+00  0.00000000E+00
  0.00000000E+00  0.00000000E+00  0.00000000E+00
  0.00000000E+00  0.00000000E+00  0.00000000E+00
  0.00000000E+00  0.00000000E+00  0.00000000E+00
  0.00000000E+00  0.00000000E+00  0.00000000E+00
  0.00000000E+00  0.00000000E+00  0.00000000E+00
  0.00000000E+00  0.00000000E+00  0.00000000E+00
  0.00000000E+00  0.00000000E+00  0.00000000E+00
  0.00000000E+00  0.00000000E+00  0.00000000E+00
  0.00000000E+00  0.00000000E+00  0.00000000E+00
  0.00000000E+00  0.00000000E+00  0.00000000E+00
  0.00000000E+00  0.00000000E+00  0.00000000E+00
  0.00000000E+00  0.00000000E+00  0.00000000E+00
  0.00000000E+00  0.00000000E+00  0.00000000E+00
  0.00000000E+00  0.00000000E+00  0.00000000E+00
  0.00000000E+00  0.00000000E+00  0.00000000E+00
  0.00000000E+00  0.00000000E+00  0.00000000E+00
  0.00000000E+00  0.00000000E+00  0.00000000E+00
  0.00000000E+00  0.00000000E+00  0.00000000E+00
  0.00000000E+00  0.00000000E+00  0.00000000E+00
  0.00000000E+00  0.00000000E+00  0.00000000E+00
  0.00000000E+00  0.00000000E+00  0.00000000E+00
  0.00000000E+00  0.00000000E+00  0.00000000E+00
