Pt48 C4 N2 F4                           
    1.000000000000000     
    11.2480068000000006    0.0000000000000000    0.0000000000000000
     0.0000000000000000   11.2480068000000006    0.0000000000000000
     0.0000000000000000    0.0000000000000000   16.9136689300000000
   Pt   C    N    F 
    48     4     2     4
Selective dynamics
Direct
  0.2500762249863229  0.9996803601998110  0.4113206237148930   T   T   T
  0.2498976345578114  0.2499049510707110  0.4112875213729268   T   T   T
  0.2499166381293705  0.4996905506613842  0.4113265750694666   T   T   T
  0.2501772799447437  0.7498217632196003  0.4114144708404623   T   T   T
  0.5000040718399035  0.9999926515939421  0.4113332341445357   T   T   T
  0.4996924934016036  0.2499180736905302  0.4113200797186494   T   T   T
  0.5000010330415847  0.4999999835433471  0.4115601991326230   T   T   T
  0.5003116611017902  0.7500860517646686  0.4113218577449658   T   T   T
  0.7499230645613082  0.0003063404234496  0.4113328637055886   T   T   T
  0.7498250069080115  0.2501774779024402  0.4114194279156678   T   T   T
  0.7500885448599561  0.5003117581006435  0.4113261672937227   T   T   T
  0.7501046077738707  0.7501019007819778  0.4112946716015884   T   T   T
  0.9999923296092419  0.9999938495807115  0.4113509103714108   T   T   T
  0.9996814117724568  0.2500800708932971  0.4113319613323227   T   T   T
  0.9999929283542812  0.5000014675718489  0.4113434662051745   T   T   T
  0.0003048581631049  0.7499214750746219  0.4113313691474403   T   T   T
  0.1248521532536770  0.1248401698762720  0.5269016598140368   T   T   T
  0.1246507584170899  0.3747749030505574  0.5269718821194616   T   T   T
  0.1253294317766418  0.6246284015802317  0.5271901106065471   T   T   T
  0.1252704013916457  0.8747293917631396  0.5269841124345334   T   T   T
  0.3747748848492876  0.1246401770242898  0.5269558323225780   T   T   T
  0.3744605241480912  0.3744590655514841  0.5276452212719036   T   T   T
  0.3753284870239995  0.6246770509743058  0.5267872113789807   T   T   T
  0.3753759176307838  0.8746711108631686  0.5271850282494697   T   T   T
  0.6246135733129776  0.1253163163442608  0.5271889031046229   T   T   T
  0.6246655036868987  0.3753256327498065  0.5267853374740810   T   T   T
  0.6255356819897813  0.6255447752746122  0.5276411470211215   T   T   T
  0.6252172845096595  0.8753528923815281  0.5269694636213558   T   T   T
  0.8747300322790750  0.1252606013839355  0.5270034782703732   T   T   T
  0.8746707527982522  0.3753777464907060  0.5271981203222253   T   T   T
  0.8753520570387039  0.6252283657180868  0.5269731000588465   T   T   T
  0.8751513180053152  0.8751483336395580  0.5269221028419722   T   T   T
  0.1250000008890453  0.1250000000000000  0.2956188879357455   F   F   F
  0.1250000008890453  0.3750000008890453  0.2956188879357455   F   F   F
  0.1250000008890453  0.6250000026671358  0.2956188879357455   F   F   F
  0.1250000008890453  0.8750000026671358  0.2956188879357455   F   F   F
  0.3750000017780906  0.1250000000000000  0.2956188879357455   F   F   F
  0.3750000017780906  0.3750000008890453  0.2956188879357455   F   F   F
  0.3750000017780906  0.6250000026671358  0.2956188879357455   F   F   F
  0.3750000017780906  0.8750000026671358  0.2956188879357455   F   F   F
  0.6250000026671358  0.1250000000000000  0.2956188879357455   F   F   F
  0.6250000026671358  0.3750000008890453  0.2956188879357455   F   F   F
  0.6250000026671358  0.6250000026671358  0.2956188879357455   F   F   F
  0.6250000026671358  0.8750000026671358  0.2956188879357455   F   F   F
  0.8750000035561882  0.1250000000000000  0.2956188879357455   F   F   F
  0.8750000026671358  0.3750000008890453  0.2956188879357455   F   F   F
  0.8750000035561882  0.6250000026671358  0.2956188879357455   F   F   F
  0.8750000035561882  0.8750000026671358  0.2956188879357455   F   F   F
  0.4731891298088016  0.6150414674627029  0.7110653531608904   T   T   T
  0.3849622117141820  0.5268241808470506  0.7110610476252290   T   T   T
  0.5268628668825315  0.3849655915808015  0.7110601029680694   T   T   T
  0.6150661071505965  0.4731533645006536  0.7110619658433919   T   T   T
  0.4130230704582019  0.4129904506898683  0.7109477462632441   T   T   T
  0.5870551745049042  0.5870345030643520  0.7109540172224271   T   T   T
  0.7306517820912148  0.4441315380881008  0.7138675684469078   T   T   T
  0.5558773367633876  0.2693823791294889  0.7138596828337498   T   T   T
  0.4441526056673553  0.7306839821510920  0.7138666981660506   T   T   T
  0.2693649208260851  0.5559079974323922  0.7138648297732573   T   T   T
 
  0.00000000E+00  0.00000000E+00  0.00000000E+00
  0.00000000E+00  0.00000000E+00  0.00000000E+00
  0.00000000E+00  0.00000000E+00  0.00000000E+00
  0.00000000E+00  0.00000000E+00  0.00000000E+00
  0.00000000E+00  0.00000000E+00  0.00000000E+00
  0.00000000E+00  0.00000000E+00  0.00000000E+00
  0.00000000E+00  0.00000000E+00  0.00000000E+00
  0.00000000E+00  0.00000000E+00  0.00000000E+00
  0.00000000E+00  0.00000000E+00  0.00000000E+00
  0.00000000E+00  0.00000000E+00  0.00000000E+00
  0.00000000E+00  0.00000000E+00  0.00000000E+00
  0.00000000E+00  0.00000000E+00  0.00000000E+00
  0.00000000E+00  0.00000000E+00  0.00000000E+00
  0.00000000E+00  0.00000000E+00  0.00000000E+00
  0.00000000E+00  0.00000000E+00  0.00000000E+00
  0.00000000E+00  0.00000000E+00  0.00000000E+00
  0.00000000E+00  0.00000000E+00  0.00000000E+00
  0.00000000E+00  0.00000000E+00  0.00000000E+00
  0.00000000E+00  0.00000000E+00  0.00000000E+00
  0.00000000E+00  0.00000000E+00  0.00000000E+00
  0.00000000E+00  0.00000000E+00  0.00000000E+00
  0.00000000E+00  0.00000000E+00  0.00000000E+00
  0.00000000E+00  0.00000000E+00  0.00000000E+00
  0.00000000E+00  0.00000000E+00  0.00000000E+00
  0.00000000E+00  0.00000000E+00  0.00000000E+00
  0.00000000E+00  0.00000000E+00  0.00000000E+00
  0.00000000E+00  0.00000000E+00  0.00000000E+00
  0.00000000E+00  0.00000000E+00  0.00000000E+00
  0.00000000E+00  0.00000000E+00  0.00000000E+00
  0.00000000E+00  0.00000000E+00  0.00000000E+00
  0.00000000E+00  0.00000000E+00  0.00000000E+00
  0.00000000E+00  0.00000000E+00  0.00000000E+00
  0.00000000E+00  0.00000000E+00  0.00000000E+00
  0.00000000E+00  0.00000000E+00  0.00000000E+00
  0.00000000E+00  0.00000000E+00  0.00000000E+00
  0.00000000E+00  0.00000000E+00  0.00000000E+00
  0.00000000E+00  0.00000000E+00  0.00000000E+00
  0.00000000E+00  0.00000000E+00  0.00000000E+00
  0.00000000E+00  0.00000000E+00  0.00000000E+00
  0.00000000E+00  0.00000000E+00  0.00000000E+00
  0.00000000E+00  0.00000000E+00  0.00000000E+00
  0.00000000E+00  0.00000000E+00  0.00000000E+00
  0.00000000E+00  0.00000000E+00  0.00000000E+00
  0.00000000E+00  0.00000000E+00  0.00000000E+00
  0.00000000E+00  0.00000000E+00  0.00000000E+00
  0.00000000E+00  0.00000000E+00  0.00000000E+00
  0.00000000E+00  0.00000000E+00  0.00000000E+00
  0.00000000E+00  0.00000000E+00  0.00000000E+00
  0.00000000E+00  0.00000000E+00  0.00000000E+00
  0.00000000E+00  0.00000000E+00  0.00000000E+00
  0.00000000E+00  0.00000000E+00  0.00000000E+00
  0.00000000E+00  0.00000000E+00  0.00000000E+00
  0.00000000E+00  0.00000000E+00  0.00000000E+00
  0.00000000E+00  0.00000000E+00  0.00000000E+00
  0.00000000E+00  0.00000000E+00  0.00000000E+00
  0.00000000E+00  0.00000000E+00  0.00000000E+00
  0.00000000E+00  0.00000000E+00  0.00000000E+00
  0.00000000E+00  0.00000000E+00  0.00000000E+00
