Au48 C6 Br2 H4                          
    1.000000000000000     
    11.7981856999999994    0.0000000000000000    0.0000000000000000
     0.0000000000000000   11.7981856999999994    0.0000000000000000
     0.0000000000000000    0.0000000000000000   17.1745687199999999
   Au   C    Br   H 
    48     6     2     4
Selective dynamics
Direct
  0.2497320666324612  0.9998494353607654  0.4125314543218295   T   T   T
  0.2490504347208002  0.2490503429904436  0.4120140070185627   T   T   T
  0.2488654611442342  0.5005066272169287  0.4119339690487678   T   T   T
  0.2495142880679708  0.7504865419843298  0.4123705163117037   T   T   T
  0.5000006736945224  0.9999989810433121  0.4123671906453055   T   T   T
  0.5005071450143603  0.2488651679291749  0.4119337792486917   T   T   T
  0.5000017987077854  0.5000014996055953  0.4114541948612072   T   T   T
  0.4994945147914507  0.7511341970671594  0.4119346452920141   T   T   T
  0.7502678971119323  0.0001497254325216  0.4125320507162371   T   T   T
  0.7504861098228020  0.2495141546268869  0.4123700628800151   T   T   T
  0.7511336707322371  0.4994944860143420  0.4119346244872446   T   T   T
  0.7509485382381698  0.7509486778980801  0.4120149806721116   T   T   T
  0.9999992302304719  0.9999993641863654  0.4123867632102218   T   T   T
  0.9998492840936635  0.2497317297897936  0.4125309778524766   T   T   T
  0.9999988319171393  0.5000005161721290  0.4123668769219080   T   T   T
  0.0001495681841206  0.7502682876812017  0.4125323099578395   T   T   T
  0.1245969157450801  0.1245982551504810  0.5340078382608127   T   T   T
  0.1237550249005324  0.3751883587487868  0.5337946700319520   T   T   T
  0.1248425578652430  0.6252574291352744  0.5343276454268917   T   T   T
  0.1250657753173599  0.8749331462475070  0.5343044535459285   T   T   T
  0.3751881482050194  0.1237562416591942  0.5337952160054584   T   T   T
  0.3749955754007743  0.3749946617432656  0.5287252518453016   T   T   T
  0.3735803310452539  0.6264217834001045  0.5328481086195964   T   T   T
  0.3747428642476365  0.8751561973730588  0.5343278164440193   T   T   T
  0.6252585559320920  0.1248435383887951  0.5343277410685161   T   T   T
  0.6264229515979380  0.3735808596504242  0.5328488237702373   T   T   T
  0.6250082056839759  0.6250077427171377  0.5287346273277009   T   T   T
  0.6248136159317710  0.8762405740912698  0.5337975920571978   T   T   T
  0.8749330836011637  0.1250667098087774  0.5343042243510752   T   T   T
  0.8751560015153714  0.3747424778119637  0.5343277551779266   T   T   T
  0.8762409276750915  0.6248123847422633  0.5337969685606438   T   T   T
  0.8754007690789223  0.8754009245760486  0.5340094332245684   T   T   T
  0.1249999997881019  0.1250000006356942  0.2911281256324898   F   F   F
  0.1250000006356942  0.3750000010594832  0.2911281256324898   F   F   F
  0.1250000006356942  0.6250000006356942  0.2911281256324898   F   F   F
  0.1250000006356942  0.8750000019070754  0.2911281256324898   F   F   F
  0.3750000010594832  0.1250000006356942  0.2911281256324898   F   F   F
  0.3750000010594832  0.3750000010594832  0.2911281256324898   F   F   F
  0.3750000010594832  0.6250000006356942  0.2911281256324898   F   F   F
  0.3750000010594832  0.8750000019070754  0.2911281256324898   F   F   F
  0.6250000006356942  0.1250000006356942  0.2911281256324898   F   F   F
  0.6250000014832793  0.3750000010594832  0.2911281256324898   F   F   F
  0.6250000014832793  0.6250000006356942  0.2911281256324898   F   F   F
  0.6250000014832793  0.8750000019070754  0.2911281256324898   F   F   F
  0.8750000019070754  0.1250000006356942  0.2911281256324898   F   F   F
  0.8750000019070754  0.3750000010594832  0.2911281256324898   F   F   F
  0.8750000019070754  0.6250000006356942  0.2911281256324898   F   F   F
  0.8750000019070754  0.8750000019070754  0.2911281256324898   F   F   F
  0.4170986965380621  0.4171153870335189  0.7107998928416990   T   T   T
  0.3851252176286195  0.5310359810686265  0.7096360706560247   T   T   T
  0.4689678955505343  0.6148791831533558  0.7096500135494352   T   T   T
  0.5828974175893080  0.5828819405455761  0.7108262724364920   T   T   T
  0.6148716073744964  0.4689613352513788  0.7096529827283291   T   T   T
  0.5310292725318035  0.3851182077982997  0.7096387464027814   T   T   T
  0.3026727125024493  0.3026892458627515  0.7121441823556154   T   T   T
  0.6973242388896281  0.6973086705412612  0.7122047861895595   T   T   T
  0.2959711039134234  0.5549701962268401  0.7086093889557858   T   T   T
  0.4450545397908598  0.7040316687470352  0.7086342791003801   T   T   T
  0.7040282312656032  0.4450296758611074  0.7086399919476065   T   T   T
  0.5549451890552533  0.2959676739501802  0.7086135965705012   T   T   T
 
  0.00000000E+00  0.00000000E+00  0.00000000E+00
  0.00000000E+00  0.00000000E+00  0.00000000E+00
  0.00000000E+00  0.00000000E+00  0.00000000E+00
  0.00000000E+00  0.00000000E+00  0.00000000E+00
  0.00000000E+00  0.00000000E+00  0.00000000E+00
  0.00000000E+00  0.00000000E+00  0.00000000E+00
  0.00000000E+00  0.00000000E+00  0.00000000E+00
  0.00000000E+00  0.00000000E+00  0.00000000E+00
  0.00000000E+00  0.00000000E+00  0.00000000E+00
  0.00000000E+00  0.00000000E+00  0.00000000E+00
  0.00000000E+00  0.00000000E+00  0.00000000E+00
  0.00000000E+00  0.00000000E+00  0.00000000E+00
  0.00000000E+00  0.00000000E+00  0.00000000E+00
  0.00000000E+00  0.00000000E+00  0.00000000E+00
  0.00000000E+00  0.00000000E+00  0.00000000E+00
  0.00000000E+00  0.00000000E+00  0.00000000E+00
  0.00000000E+00  0.00000000E+00  0.00000000E+00
  0.00000000E+00  0.00000000E+00  0.00000000E+00
  0.00000000E+00  0.00000000E+00  0.00000000E+00
  0.00000000E+00  0.00000000E+00  0.00000000E+00
  0.00000000E+00  0.00000000E+00  0.00000000E+00
  0.00000000E+00  0.00000000E+00  0.00000000E+00
  0.00000000E+00  0.00000000E+00  0.00000000E+00
  0.00000000E+00  0.00000000E+00  0.00000000E+00
  0.00000000E+00  0.00000000E+00  0.00000000E+00
  0.00000000E+00  0.00000000E+00  0.00000000E+00
  0.00000000E+00  0.00000000E+00  0.00000000E+00
  0.00000000E+00  0.00000000E+00  0.00000000E+00
  0.00000000E+00  0.00000000E+00  0.00000000E+00
  0.00000000E+00  0.00000000E+00  0.00000000E+00
  0.00000000E+00  0.00000000E+00  0.00000000E+00
  0.00000000E+00  0.00000000E+00  0.00000000E+00
  0.00000000E+00  0.00000000E+00  0.00000000E+00
  0.00000000E+00  0.00000000E+00  0.00000000E+00
  0.00000000E+00  0.00000000E+00  0.00000000E+00
  0.00000000E+00  0.00000000E+00  0.00000000E+00
  0.00000000E+00  0.00000000E+00  0.00000000E+00
  0.00000000E+00  0.00000000E+00  0.00000000E+00
  0.00000000E+00  0.00000000E+00  0.00000000E+00
  0.00000000E+00  0.00000000E+00  0.00000000E+00
  0.00000000E+00  0.00000000E+00  0.00000000E+00
  0.00000000E+00  0.00000000E+00  0.00000000E+00
  0.00000000E+00  0.00000000E+00  0.00000000E+00
  0.00000000E+00  0.00000000E+00  0.00000000E+00
  0.00000000E+00  0.00000000E+00  0.00000000E+00
  0.00000000E+00  0.00000000E+00  0.00000000E+00
  0.00000000E+00  0.00000000E+00  0.00000000E+00
  0.00000000E+00  0.00000000E+00  0.00000000E+00
  0.00000000E+00  0.00000000E+00  0.00000000E+00
  0.00000000E+00  0.00000000E+00  0.00000000E+00
  0.00000000E+00  0.00000000E+00  0.00000000E+00
  0.00000000E+00  0.00000000E+00  0.00000000E+00
  0.00000000E+00  0.00000000E+00  0.00000000E+00
  0.00000000E+00  0.00000000E+00  0.00000000E+00
  0.00000000E+00  0.00000000E+00  0.00000000E+00
  0.00000000E+00  0.00000000E+00  0.00000000E+00
  0.00000000E+00  0.00000000E+00  0.00000000E+00
  0.00000000E+00  0.00000000E+00  0.00000000E+00
  0.00000000E+00  0.00000000E+00  0.00000000E+00
  0.00000000E+00  0.00000000E+00  0.00000000E+00
