Rh48 C6 F2 H4                           
    1.000000000000000     
    10.8856652999999994    0.0000000000000000    0.0000000000000000
     0.0000000000000000   10.8856652999999994    0.0000000000000000
     0.0000000000000000    0.0000000000000000   16.5545411300000005
   Rh   C    F    H 
    48     6     2     4
Selective dynamics
Direct
  0.9999887560083209  0.0000078251433990  0.4091252548241187   T   T   T
  0.9997917517738060  0.2497833706928319  0.4091754271445822   T   T   T
  0.0000007990916302  0.4999916201430494  0.4088582786205208   T   T   T
  0.0001923767447209  0.7502126525075923  0.4091696410603376   T   T   T
  0.2497857389557581  0.9998028817421201  0.4091582420916779   T   T   T
  0.2500216547451828  0.2500314560972754  0.4094631605382730   T   T   T
  0.2504837727194911  0.5001631374895936  0.4098089380307712   T   T   T
  0.2514032814842935  0.7485920531618362  0.4101303371382770   T   T   T
  0.5000056357856195  0.0000014091945602  0.4088513203299939   T   T   T
  0.5001737010022254  0.2504859366679781  0.4098041847242442   T   T   T
  0.5000036778963732  0.4999980852592856  0.4092618029741004   T   T   T
  0.4998399102728968  0.7495123874902134  0.4098051760812211   T   T   T
  0.7502232124217656  0.0002041764028462  0.4091756112137119   T   T   T
  0.7486064047890935  0.2513991525803121  0.4101393481048561   T   T   T
  0.7495147530760207  0.4998317271695996  0.4098089143257155   T   T   T
  0.7499766611607797  0.7499730420134441  0.4094681193948730   T   T   T
  0.1248377362511022  0.1248376285534079  0.5166202036436687   T   T   T
  0.1234389625023482  0.3746148671378364  0.5167975952777795   T   T   T
  0.1234494322289805  0.6250219661504488  0.5167581227981515   T   T   T
  0.1249816120480247  0.8750165795887952  0.5167502219430986   T   T   T
  0.3746126558598846  0.1234361411115259  0.5167990464998340   T   T   T
  0.3745745491581403  0.3745800897723726  0.5178461182267071   T   T   T
  0.3738515068663730  0.6261483278464226  0.5209722061669737   T   T   T
  0.3749710977669878  0.8765507756741187  0.5167602159026643   T   T   T
  0.6250327321031293  0.1234452151313405  0.5167576877928894   T   T   T
  0.6261539656939590  0.3738490893769466  0.5209859536281982   T   T   T
  0.6254313108746459  0.6254266847375689  0.5178345970848497   T   T   T
  0.6253893522328440  0.8765596574291763  0.5168009472880044   T   T   T
  0.8750224306062435  0.1249792612961613  0.5167374721685789   T   T   T
  0.8765586423711014  0.3749682818600988  0.5167516085410568   T   T   T
  0.8765635980329947  0.6253824546640203  0.5168019727938784   T   T   T
  0.8751630851102874  0.8751601162250466  0.5166230239902632   T   T   T
  0.1249999997703384  0.1249999997703384  0.3020319295313527   F   F   F
  0.1250000006889778  0.3750000002296616  0.3020319295313527   F   F   F
  0.1250000006889778  0.6250000006889778  0.3020319295313527   F   F   F
  0.1250000006889778  0.8750000011483010  0.3020319295313527   F   F   F
  0.3750000011483010  0.1249999997703384  0.3020319295313527   F   F   F
  0.3750000011483010  0.3750000002296616  0.3020319295313527   F   F   F
  0.3750000011483010  0.6250000006889778  0.3020319295313527   F   F   F
  0.3750000011483010  0.8750000011483010  0.3020319295313527   F   F   F
  0.6250000006889778  0.1249999997703384  0.3020319295313527   F   F   F
  0.6250000006889778  0.3750000002296616  0.3020319295313527   F   F   F
  0.6250000016076172  0.6250000006889778  0.3020319295313527   F   F   F
  0.6250000016076172  0.8750000011483010  0.3020319295313527   F   F   F
  0.8750000011483010  0.1249999997703384  0.3020319295313527   F   F   F
  0.8750000011483010  0.3750000002296616  0.3020319295313527   F   F   F
  0.8750000011483010  0.6250000006889778  0.3020319295313527   F   F   F
  0.8750000020669404  0.8750000011483010  0.3020319295313527   F   F   F
  0.4054375681386801  0.4054628336306791  0.6396352873733306   T   T   T
  0.3716886278888438  0.5355316901965566  0.6423982249894848   T   T   T
  0.4645244744617187  0.6283281447566793  0.6423897617480208   T   T   T
  0.5945580582807892  0.5945684965023972  0.6396335808265619   T   T   T
  0.6283155211143949  0.4645439667324496  0.6423822925594607   T   T   T
  0.5355088091098636  0.3717024695640063  0.6423904577110875   T   T   T
  0.3304980876665837  0.3305142691515073  0.6870546412665703   T   T   T
  0.6695347351225465  0.6695353902863772  0.6870580732941960   T   T   T
  0.2805200896187685  0.5561708676386417  0.6661615693893594   T   T   T
  0.4438527909481422  0.7195314440794931  0.6661528181532503   T   T   T
  0.7195207014194551  0.4438512160563448  0.6661439813894106   T   T   T
  0.5561620125592199  0.2805388074632944  0.6661429855969274   T   T   T
 
  0.00000000E+00  0.00000000E+00  0.00000000E+00
  0.00000000E+00  0.00000000E+00  0.00000000E+00
  0.00000000E+00  0.00000000E+00  0.00000000E+00
  0.00000000E+00  0.00000000E+00  0.00000000E+00
  0.00000000E+00  0.00000000E+00  0.00000000E+00
  0.00000000E+00  0.00000000E+00  0.00000000E+00
  0.00000000E+00  0.00000000E+00  0.00000000E+00
  0.00000000E+00  0.00000000E+00  0.00000000E+00
  0.00000000E+00  0.00000000E+00  0.00000000E+00
  0.00000000E+00  0.00000000E+00  0.00000000E+00
  0.00000000E+00  0.00000000E+00  0.00000000E+00
  0.00000000E+00  0.00000000E+00  0.00000000E+00
  0.00000000E+00  0.00000000E+00  0.00000000E+00
  0.00000000E+00  0.00000000E+00  0.00000000E+00
  0.00000000E+00  0.00000000E+00  0.00000000E+00
  0.00000000E+00  0.00000000E+00  0.00000000E+00
  0.00000000E+00  0.00000000E+00  0.00000000E+00
  0.00000000E+00  0.00000000E+00  0.00000000E+00
  0.00000000E+00  0.00000000E+00  0.00000000E+00
  0.00000000E+00  0.00000000E+00  0.00000000E+00
  0.00000000E+00  0.00000000E+00  0.00000000E+00
  0.00000000E+00  0.00000000E+00  0.00000000E+00
  0.00000000E+00  0.00000000E+00  0.00000000E+00
  0.00000000E+00  0.00000000E+00  0.00000000E+00
  0.00000000E+00  0.00000000E+00  0.00000000E+00
  0.00000000E+00  0.00000000E+00  0.00000000E+00
  0.00000000E+00  0.00000000E+00  0.00000000E+00
  0.00000000E+00  0.00000000E+00  0.00000000E+00
  0.00000000E+00  0.00000000E+00  0.00000000E+00
  0.00000000E+00  0.00000000E+00  0.00000000E+00
  0.00000000E+00  0.00000000E+00  0.00000000E+00
  0.00000000E+00  0.00000000E+00  0.00000000E+00
  0.00000000E+00  0.00000000E+00  0.00000000E+00
  0.00000000E+00  0.00000000E+00  0.00000000E+00
  0.00000000E+00  0.00000000E+00  0.00000000E+00
  0.00000000E+00  0.00000000E+00  0.00000000E+00
  0.00000000E+00  0.00000000E+00  0.00000000E+00
  0.00000000E+00  0.00000000E+00  0.00000000E+00
  0.00000000E+00  0.00000000E+00  0.00000000E+00
  0.00000000E+00  0.00000000E+00  0.00000000E+00
  0.00000000E+00  0.00000000E+00  0.00000000E+00
  0.00000000E+00  0.00000000E+00  0.00000000E+00
  0.00000000E+00  0.00000000E+00  0.00000000E+00
  0.00000000E+00  0.00000000E+00  0.00000000E+00
  0.00000000E+00  0.00000000E+00  0.00000000E+00
  0.00000000E+00  0.00000000E+00  0.00000000E+00
  0.00000000E+00  0.00000000E+00  0.00000000E+00
  0.00000000E+00  0.00000000E+00  0.00000000E+00
  0.00000000E+00  0.00000000E+00  0.00000000E+00
  0.00000000E+00  0.00000000E+00  0.00000000E+00
  0.00000000E+00  0.00000000E+00  0.00000000E+00
  0.00000000E+00  0.00000000E+00  0.00000000E+00
  0.00000000E+00  0.00000000E+00  0.00000000E+00
  0.00000000E+00  0.00000000E+00  0.00000000E+00
  0.00000000E+00  0.00000000E+00  0.00000000E+00
  0.00000000E+00  0.00000000E+00  0.00000000E+00
  0.00000000E+00  0.00000000E+00  0.00000000E+00
  0.00000000E+00  0.00000000E+00  0.00000000E+00
  0.00000000E+00  0.00000000E+00  0.00000000E+00
  0.00000000E+00  0.00000000E+00  0.00000000E+00
