Cu  C  H Br                             
   1.00000000000000     
    10.2424769999999992    0.0000000000000000    0.0000000000000000
    -5.1212390000000001    8.8702459999999999    0.0000000000000000
     0.0000000000000000    0.0000000000000000   24.2722108799999958
   Cu   C    H    Br
    64     6     2     4
Selective dynamics
Direct
  0.7500000436217675  0.9999999661790682  0.3089953377992387   F   F   F
  0.0000000023248248  0.2499999909810811  0.3089953377992387   F   F   F
  0.0000000042370090  0.4999999830895305  0.3089953377992387   F   F   F
  0.0000000055855054  0.7499999740706187  0.3089953377992387   F   F   F
  0.0000000084740179  0.9999999661790682  0.3089953377992387   F   F   F
  0.2500000140407437  0.2499999909810811  0.3089953377992387   F   F   F
  0.2500000159529208  0.4999999830895305  0.3089953377992387   F   F   F
  0.2500000173014243  0.7499999740706187  0.3089953377992387   F   F   F
  0.5000000257566555  0.2499999909810811  0.3089953377992387   F   F   F
  0.5000000276688397  0.4999999830895305  0.3089953377992387   F   F   F
  0.5000000290173432  0.7499999740706187  0.3089953377992387   F   F   F
  0.5000000319058486  0.9999999661790682  0.3089953377992387   F   F   F
  0.7500000374725744  0.2499999909810811  0.3089953377992387   F   F   F
  0.7500000393847586  0.4999999830895305  0.3089953377992387   F   F   F
  0.7500000417095833  0.7499999740706187  0.3089953377992387   F   F   F
  0.2500000201899297  0.9999999661790682  0.3089953377992387   F   F   F
  0.0833330000000032  0.1666669999999968  0.3951324008931820   F   F   F
  0.0833330000000032  0.4166669999999968  0.3951324008931820   F   F   F
  0.0833330000000032  0.6666669999999968  0.3951324008931820   F   F   F
  0.0833330000000032  0.9166669999999968  0.3951324008931820   F   F   F
  0.3333330000000032  0.1666669999999968  0.3951324008931820   F   F   F
  0.3333330000000032  0.4166669999999968  0.3951324008931820   F   F   F
  0.3333330000000032  0.6666669999999968  0.3951324008931820   F   F   F
  0.3333330000000032  0.9166669999999968  0.3951324008931820   F   F   F
  0.5833330000000032  0.1666669999999968  0.3951324008931820   F   F   F
  0.5833330000000032  0.4166669999999968  0.3951324008931820   F   F   F
  0.5833330000000032  0.6666669999999968  0.3951324008931820   F   F   F
  0.5833330000000032  0.9166669999999968  0.3951324008931820   F   F   F
  0.8333330000000032  0.1666669999999968  0.3951324008931820   F   F   F
  0.8333330000000032  0.4166669999999968  0.3951324008931820   F   F   F
  0.8333330000000032  0.6666669999999968  0.3951324008931820   F   F   F
  0.8333330000000032  0.9166669999999968  0.3951324008931820   F   F   F
  0.9996206043282678  0.9997843682873609  0.5647499603423344   T   T   T
  0.9996680421446464  0.2500060596638901  0.5650067991152684   T   T   T
  0.0004111431988096  0.5000085105222623  0.5649572869085798   T   T   T
  0.0000662665164562  0.7497588168692296  0.5647706983161735   T   T   T
  0.2498810543947177  0.9998039501340255  0.5650541595695240   T   T   T
  0.2501737142854821  0.2503685873279172  0.5638126351401067   T   T   T
  0.2500134605543487  0.4998560858921580  0.5649013934452662   T   T   T
  0.2498865747653607  0.7496046033110794  0.5650431443062550   T   T   T
  0.4998498501730969  0.0005854618460781  0.5649958072565316   T   T   T
  0.4995164006077635  0.2503079427874935  0.5648870981409941   T   T   T
  0.4994250466692659  0.4996287459154248  0.5638010457311028   T   T   T
  0.4998092644748075  0.7501498796604257  0.5650193816505217   T   T   T
  0.7494967004509430  0.0003060709967238  0.5647360983864290   T   T   T
  0.7493538820494723  0.2500188036119680  0.5650632752512535   T   T   T
  0.7500580989279051  0.4999499716372734  0.5650606635991370   T   T   T
  0.7499629656889842  0.7500926562199569  0.5647948902952743   T   T   T
  0.1665372369350872  0.0829185867267205  0.4799649745865930   T   T   T
  0.1662244998360629  0.3333063852255285  0.4799291787535978   T   T   T
  0.1666255629383866  0.5832727898695516  0.4799854565704396   T   T   T
  0.1667554153506918  0.8332389054902343  0.4800164532675659   T   T   T
  0.4164015361636211  0.0832103440273042  0.4800539807426171   T   T   T
  0.4167013153519039  0.3331002239445232  0.4795977552144287   T   T   T
  0.4165436699731859  0.5837176552117437  0.4798960395819907   T   T   T
  0.4166702559780585  0.8334709419512029  0.4801194903235411   T   T   T
  0.6664987714047532  0.0833841693997108  0.4799640073573900   T   T   T
  0.6665923730856189  0.3334205806225473  0.4800777733212071   T   T   T
  0.6669597325187665  0.5833637216110530  0.4799582183892585   T   T   T
  0.6665260398792514  0.8332912603218057  0.4800199082460276   T   T   T
  0.9165746858371027  0.0833219889142545  0.4800029671328114   T   T   T
  0.9163914962066553  0.3331799625292678  0.4801125043146282   T   T   T
  0.9165832270625401  0.5830953108889348  0.4800074472423238   T   T   T
  0.9167261443440636  0.8331873263865731  0.4800208132854810   T   T   T
  0.2970205768994968  0.4541739466703277  0.6912000764031797   T   T   T
  0.4546473133731163  0.5335742508712098  0.6925608241553788   T   T   T
  0.5336825936985263  0.4545546985986650  0.6925951205551117   T   T   T
  0.4542463697687878  0.2968772154057308  0.6912839310658453   T   T   T
  0.2967272195583892  0.2176185678642278  0.6924477647914037   T   T   T
  0.2177423760200511  0.2965955027560818  0.6924138692448853   T   T   T
  0.2352490435376004  0.5151577419651416  0.6897585613534881   T   T   T
  0.5152528512220488  0.2350986151976061  0.6898195047455412   T   T   T
  0.5534867236565146  0.7465523147364720  0.6913684136195589   T   T   T
  0.7466698293995809  0.5533736216853330  0.6913176406476753   T   T   T
  0.1964625187396181  0.0044124591227039  0.6910384725230718   T   T   T
  0.0045402933935851  0.1964959206982308  0.6910600318828694   T   T   T
 
  0.00000000E+00  0.00000000E+00  0.00000000E+00
  0.00000000E+00  0.00000000E+00  0.00000000E+00
  0.00000000E+00  0.00000000E+00  0.00000000E+00
  0.00000000E+00  0.00000000E+00  0.00000000E+00
  0.00000000E+00  0.00000000E+00  0.00000000E+00
  0.00000000E+00  0.00000000E+00  0.00000000E+00
  0.00000000E+00  0.00000000E+00  0.00000000E+00
  0.00000000E+00  0.00000000E+00  0.00000000E+00
  0.00000000E+00  0.00000000E+00  0.00000000E+00
  0.00000000E+00  0.00000000E+00  0.00000000E+00
  0.00000000E+00  0.00000000E+00  0.00000000E+00
  0.00000000E+00  0.00000000E+00  0.00000000E+00
  0.00000000E+00  0.00000000E+00  0.00000000E+00
  0.00000000E+00  0.00000000E+00  0.00000000E+00
  0.00000000E+00  0.00000000E+00  0.00000000E+00
  0.00000000E+00  0.00000000E+00  0.00000000E+00
  0.00000000E+00  0.00000000E+00  0.00000000E+00
  0.00000000E+00  0.00000000E+00  0.00000000E+00
  0.00000000E+00  0.00000000E+00  0.00000000E+00
  0.00000000E+00  0.00000000E+00  0.00000000E+00
  0.00000000E+00  0.00000000E+00  0.00000000E+00
  0.00000000E+00  0.00000000E+00  0.00000000E+00
  0.00000000E+00  0.00000000E+00  0.00000000E+00
  0.00000000E+00  0.00000000E+00  0.00000000E+00
  0.00000000E+00  0.00000000E+00  0.00000000E+00
  0.00000000E+00  0.00000000E+00  0.00000000E+00
  0.00000000E+00  0.00000000E+00  0.00000000E+00
  0.00000000E+00  0.00000000E+00  0.00000000E+00
  0.00000000E+00  0.00000000E+00  0.00000000E+00
  0.00000000E+00  0.00000000E+00  0.00000000E+00
  0.00000000E+00  0.00000000E+00  0.00000000E+00
  0.00000000E+00  0.00000000E+00  0.00000000E+00
  0.00000000E+00  0.00000000E+00  0.00000000E+00
  0.00000000E+00  0.00000000E+00  0.00000000E+00
  0.00000000E+00  0.00000000E+00  0.00000000E+00
  0.00000000E+00  0.00000000E+00  0.00000000E+00
  0.00000000E+00  0.00000000E+00  0.00000000E+00
  0.00000000E+00  0.00000000E+00  0.00000000E+00
  0.00000000E+00  0.00000000E+00  0.00000000E+00
  0.00000000E+00  0.00000000E+00  0.00000000E+00
  0.00000000E+00  0.00000000E+00  0.00000000E+00
  0.00000000E+00  0.00000000E+00  0.00000000E+00
  0.00000000E+00  0.00000000E+00  0.00000000E+00
  0.00000000E+00  0.00000000E+00  0.00000000E+00
  0.00000000E+00  0.00000000E+00  0.00000000E+00
  0.00000000E+00  0.00000000E+00  0.00000000E+00
  0.00000000E+00  0.00000000E+00  0.00000000E+00
  0.00000000E+00  0.00000000E+00  0.00000000E+00
  0.00000000E+00  0.00000000E+00  0.00000000E+00
  0.00000000E+00  0.00000000E+00  0.00000000E+00
  0.00000000E+00  0.00000000E+00  0.00000000E+00
  0.00000000E+00  0.00000000E+00  0.00000000E+00
  0.00000000E+00  0.00000000E+00  0.00000000E+00
  0.00000000E+00  0.00000000E+00  0.00000000E+00
  0.00000000E+00  0.00000000E+00  0.00000000E+00
  0.00000000E+00  0.00000000E+00  0.00000000E+00
  0.00000000E+00  0.00000000E+00  0.00000000E+00
  0.00000000E+00  0.00000000E+00  0.00000000E+00
  0.00000000E+00  0.00000000E+00  0.00000000E+00
  0.00000000E+00  0.00000000E+00  0.00000000E+00
  0.00000000E+00  0.00000000E+00  0.00000000E+00
  0.00000000E+00  0.00000000E+00  0.00000000E+00
  0.00000000E+00  0.00000000E+00  0.00000000E+00
  0.00000000E+00  0.00000000E+00  0.00000000E+00
  0.00000000E+00  0.00000000E+00  0.00000000E+00
  0.00000000E+00  0.00000000E+00  0.00000000E+00
  0.00000000E+00  0.00000000E+00  0.00000000E+00
  0.00000000E+00  0.00000000E+00  0.00000000E+00
  0.00000000E+00  0.00000000E+00  0.00000000E+00
  0.00000000E+00  0.00000000E+00  0.00000000E+00
  0.00000000E+00  0.00000000E+00  0.00000000E+00
  0.00000000E+00  0.00000000E+00  0.00000000E+00
  0.00000000E+00  0.00000000E+00  0.00000000E+00
  0.00000000E+00  0.00000000E+00  0.00000000E+00
  0.00000000E+00  0.00000000E+00  0.00000000E+00
  0.00000000E+00  0.00000000E+00  0.00000000E+00
