Ir  C  H Br                             
    1.000000000000000     
    10.9622135000000007    0.0000000000000000    0.0000000000000000
     0.0000000000000000   10.9622135000000007    0.0000000000000000
     0.0000000000000000    0.0000000000000000   23.8135916099999996
   Ir   C    H    Br
    64     6     4     2
Selective dynamics
Direct
  0.0000000000000000  0.2499999995438884  0.3149461921926360   F   F   F
  0.7499999986316652  0.7499999986316652  0.3149461921926360   F   F   F
  0.0000000000000000  0.4999999990877768  0.3149461921926360   F   F   F
  0.0000000000000000  0.7499999986316652  0.3149461921926360   F   F   F
  0.0000000000000000  0.0000000000000000  0.3149461921926360   F   F   F
  0.2499999995438884  0.2499999995438884  0.3149461921926360   F   F   F
  0.2499999995438884  0.4999999990877768  0.3149461921926360   F   F   F
  0.7499999986316652  0.0000000000000000  0.3149461921926360   F   F   F
  0.2499999995438884  0.7499999986316652  0.3149461921926360   F   F   F
  0.2499999995438884  0.0000000000000000  0.3149461921926360   F   F   F
  0.4999999990877768  0.2499999995438884  0.3149461921926360   F   F   F
  0.4999999990877768  0.4999999990877768  0.3149461921926360   F   F   F
  0.4999999990877768  0.7499999986316652  0.3149461921926360   F   F   F
  0.4999999990877768  0.0000000000000000  0.3149461921926360   F   F   F
  0.7499999986316652  0.2499999995438884  0.3149461921926360   F   F   F
  0.7499999986316652  0.4999999990877768  0.3149461921926360   F   F   F
  0.9992288001771066  0.2495429070759696  0.4778881862085070   T   T   T
  0.0000104725010753  0.4999941102009695  0.4778505763183032   T   T   T
  0.0007841075409546  0.7504642015969021  0.4778809332830665   T   T   T
  0.0000015696408139 -0.0000036003444969  0.4780606229074889   T   T   T
  0.2497670855977456  0.2497644086848079  0.4782106080294040   T   T   T
  0.2510044084350033  0.4996379012349287  0.4789928227380304   T   T   T
  0.2521820138968935  0.7478252002393678  0.4792463829417892   T   T   T
  0.2495235168869914  0.9992254843593505  0.4778971501499956   T   T   T
  0.4996396225299162  0.2510171284506418  0.4789999123701988   T   T   T
  0.4999886319665007  0.4999844911081350  0.4789854254060776   T   T   T
  0.5003524149760896  0.7489924781454936  0.4790087459248283   T   T   T
  0.4999932860041411 -0.0000196051912849  0.4778555742621925   T   T   T
  0.7478127553404980  0.2521748611693184  0.4792462592393441   T   T   T
  0.7490053268749074  0.5003482103366896  0.4789969410292111   T   T   T
  0.7502339098438970  0.7502493255198722  0.4782107840688646   T   T   T
  0.7504755915303850  0.0007723100489252  0.4778786957324749   T   T   T
  0.1248865481402047  0.1249040975340739  0.5563211540647688   T   T   T
  0.1229339908162326  0.3745603182201729  0.5564505036628101   T   T   T
  0.1229058952315835  0.6247586983523620  0.5565014199911236   T   T   T
  0.1250511464348647  0.8749536576299956  0.5563708636176345   T   T   T
  0.3745606376728077  0.1229500468310284  0.5564468106259571   T   T   T
  0.3728386242393056  0.3728262009758090  0.5575171444840360   T   T   T
  0.3722321201980113  0.6277732813105493  0.5627751752880988   T   T   T
  0.3752330050762407  0.8770943465152428  0.5565079658297267   T   T   T
  0.6247568210826868  0.1228971471544264  0.5565143094061170   T   T   T
  0.6277997943186049  0.3722454962242462  0.5627772850249060   T   T   T
  0.6271905524257790  0.6271610219987944  0.5575047003066509   T   T   T
  0.6254403811138379  0.8770620518348345  0.5564486401110288   T   T   T
  0.8749511343541616  0.1250374077658004  0.5563789835698145   T   T   T
  0.8771006151510089  0.3752428221689596  0.5565077074010069   T   T   T
  0.8770670485909172  0.6254347482341795  0.5564344950257780   T   T   T
  0.8751338444233135  0.8750977689220536  0.5563003496126319   T   T   T
  0.1250000002280558  0.1250000002280558  0.3963225717718615   F   F   F
  0.1250000002280558  0.3749999997719442  0.3963225717718615   F   F   F
  0.1250000002280558  0.6249999993158326  0.3963225717718615   F   F   F
  0.1250000002280558  0.8749999988597210  0.3963225717718615   F   F   F
  0.3749999997719442  0.1250000002280558  0.3963225717718615   F   F   F
  0.3749999997719442  0.3749999997719442  0.3963225717718615   F   F   F
  0.3749999997719442  0.6249999993158326  0.3963225717718615   F   F   F
  0.3749999997719442  0.8749999988597210  0.3963225717718615   F   F   F
  0.6249999993158326  0.1250000002280558  0.3963225717718615   F   F   F
  0.6249999993158326  0.3749999997719442  0.3963225717718615   F   F   F
  0.6249999993158326  0.6249999993158326  0.3963225717718615   F   F   F
  0.6249999993158326  0.8749999988597210  0.3963225717718615   F   F   F
  0.8749999988597210  0.1250000002280558  0.3963225717718615   F   F   F
  0.8749999988597210  0.3749999997719442  0.3963225717718615   F   F   F
  0.8749999988597210  0.6249999993158326  0.3963225717718615   F   F   F
  0.8749999988597210  0.8749999988597210  0.3963225717718615   F   F   F
  0.5955105990632346  0.5955851191309453  0.6421791031798150   T   T   T
  0.6281087405881786  0.4644868404685190  0.6463223534731812   T   T   T
  0.5355932620919512  0.3719681858999791  0.6463162087043861   T   T   T
  0.4044981877480132  0.4045156364771818  0.6421812216184454   T   T   T
  0.3718744365204728  0.5355844538618647  0.6463233774697983   T   T   T
  0.4643998429054460  0.6281528666030536  0.6463121704388083   T   T   T
  0.7163022391805486  0.4438926463280148  0.6652673686233207   T   T   T
  0.5562185010578885  0.2837548874243737  0.6652709711088057   T   T   T
  0.2837429928824146  0.5562113218513660  0.6652737469242286   T   T   T
  0.4438002946603790  0.7163261377801489  0.6652755488946089   T   T   T
  0.7001100360560194  0.7004513456270611  0.6893338365679041   T   T   T
  0.2997177607050753  0.2998475143680256  0.6894642060866885   T   T   T
 
  0.00000000E+00  0.00000000E+00  0.00000000E+00
  0.00000000E+00  0.00000000E+00  0.00000000E+00
  0.00000000E+00  0.00000000E+00  0.00000000E+00
  0.00000000E+00  0.00000000E+00  0.00000000E+00
  0.00000000E+00  0.00000000E+00  0.00000000E+00
  0.00000000E+00  0.00000000E+00  0.00000000E+00
  0.00000000E+00  0.00000000E+00  0.00000000E+00
  0.00000000E+00  0.00000000E+00  0.00000000E+00
  0.00000000E+00  0.00000000E+00  0.00000000E+00
  0.00000000E+00  0.00000000E+00  0.00000000E+00
  0.00000000E+00  0.00000000E+00  0.00000000E+00
  0.00000000E+00  0.00000000E+00  0.00000000E+00
  0.00000000E+00  0.00000000E+00  0.00000000E+00
  0.00000000E+00  0.00000000E+00  0.00000000E+00
  0.00000000E+00  0.00000000E+00  0.00000000E+00
  0.00000000E+00  0.00000000E+00  0.00000000E+00
  0.00000000E+00  0.00000000E+00  0.00000000E+00
  0.00000000E+00  0.00000000E+00  0.00000000E+00
  0.00000000E+00  0.00000000E+00  0.00000000E+00
  0.00000000E+00  0.00000000E+00  0.00000000E+00
  0.00000000E+00  0.00000000E+00  0.00000000E+00
  0.00000000E+00  0.00000000E+00  0.00000000E+00
  0.00000000E+00  0.00000000E+00  0.00000000E+00
  0.00000000E+00  0.00000000E+00  0.00000000E+00
  0.00000000E+00  0.00000000E+00  0.00000000E+00
  0.00000000E+00  0.00000000E+00  0.00000000E+00
  0.00000000E+00  0.00000000E+00  0.00000000E+00
  0.00000000E+00  0.00000000E+00  0.00000000E+00
  0.00000000E+00  0.00000000E+00  0.00000000E+00
  0.00000000E+00  0.00000000E+00  0.00000000E+00
  0.00000000E+00  0.00000000E+00  0.00000000E+00
  0.00000000E+00  0.00000000E+00  0.00000000E+00
  0.00000000E+00  0.00000000E+00  0.00000000E+00
  0.00000000E+00  0.00000000E+00  0.00000000E+00
  0.00000000E+00  0.00000000E+00  0.00000000E+00
  0.00000000E+00  0.00000000E+00  0.00000000E+00
  0.00000000E+00  0.00000000E+00  0.00000000E+00
  0.00000000E+00  0.00000000E+00  0.00000000E+00
  0.00000000E+00  0.00000000E+00  0.00000000E+00
  0.00000000E+00  0.00000000E+00  0.00000000E+00
  0.00000000E+00  0.00000000E+00  0.00000000E+00
  0.00000000E+00  0.00000000E+00  0.00000000E+00
  0.00000000E+00  0.00000000E+00  0.00000000E+00
  0.00000000E+00  0.00000000E+00  0.00000000E+00
  0.00000000E+00  0.00000000E+00  0.00000000E+00
  0.00000000E+00  0.00000000E+00  0.00000000E+00
  0.00000000E+00  0.00000000E+00  0.00000000E+00
  0.00000000E+00  0.00000000E+00  0.00000000E+00
  0.00000000E+00  0.00000000E+00  0.00000000E+00
  0.00000000E+00  0.00000000E+00  0.00000000E+00
  0.00000000E+00  0.00000000E+00  0.00000000E+00
  0.00000000E+00  0.00000000E+00  0.00000000E+00
  0.00000000E+00  0.00000000E+00  0.00000000E+00
  0.00000000E+00  0.00000000E+00  0.00000000E+00
  0.00000000E+00  0.00000000E+00  0.00000000E+00
  0.00000000E+00  0.00000000E+00  0.00000000E+00
  0.00000000E+00  0.00000000E+00  0.00000000E+00
  0.00000000E+00  0.00000000E+00  0.00000000E+00
  0.00000000E+00  0.00000000E+00  0.00000000E+00
  0.00000000E+00  0.00000000E+00  0.00000000E+00
  0.00000000E+00  0.00000000E+00  0.00000000E+00
  0.00000000E+00  0.00000000E+00  0.00000000E+00
  0.00000000E+00  0.00000000E+00  0.00000000E+00
  0.00000000E+00  0.00000000E+00  0.00000000E+00
  0.00000000E+00  0.00000000E+00  0.00000000E+00
  0.00000000E+00  0.00000000E+00  0.00000000E+00
  0.00000000E+00  0.00000000E+00  0.00000000E+00
  0.00000000E+00  0.00000000E+00  0.00000000E+00
  0.00000000E+00  0.00000000E+00  0.00000000E+00
  0.00000000E+00  0.00000000E+00  0.00000000E+00
  0.00000000E+00  0.00000000E+00  0.00000000E+00
  0.00000000E+00  0.00000000E+00  0.00000000E+00
  0.00000000E+00  0.00000000E+00  0.00000000E+00
  0.00000000E+00  0.00000000E+00  0.00000000E+00
  0.00000000E+00  0.00000000E+00  0.00000000E+00
  0.00000000E+00  0.00000000E+00  0.00000000E+00
