Pd  C  H Br                             
    1.000000000000000     
    11.1817229999999999    0.0000000000000000    0.0000000000000000
     0.0000000000000000   11.1817229999999999    0.0000000000000000
     0.0000000000000000    0.0000000000000000   23.9300040900000006
   Pd   C    H    Br
    64     6     2     4
Selective dynamics
Direct
  0.0000000000000000  0.2499999991056825  0.3134140709626578   F   F   F
  0.7499999973170475  0.7499999973170475  0.3134140709626578   F   F   F
  0.0000000000000000  0.4999999982113650  0.3134140709626578   F   F   F
  0.0000000000000000  0.7499999973170475  0.3134140709626578   F   F   F
  0.0000000000000000  0.0000000000000000  0.3134140709626578   F   F   F
  0.2499999991056825  0.2499999991056825  0.3134140709626578   F   F   F
  0.2499999991056825  0.4999999982113650  0.3134140709626578   F   F   F
  0.7499999973170475  0.0000000000000000  0.3134140709626578   F   F   F
  0.2499999991056825  0.7499999973170475  0.3134140709626578   F   F   F
  0.2499999991056825  0.0000000000000000  0.3134140709626578   F   F   F
  0.4999999982113650  0.2499999991056825  0.3134140709626578   F   F   F
  0.4999999982113650  0.4999999982113650  0.3134140709626578   F   F   F
  0.4999999982113650  0.7499999973170475  0.3134140709626578   F   F   F
  0.4999999982113650  0.0000000000000000  0.3134140709626578   F   F   F
  0.7499999973170475  0.2499999991056825  0.3134140709626578   F   F   F
  0.7499999973170475  0.4999999982113650  0.3134140709626578   F   F   F
  0.9950418408875670  0.2516071662403480  0.4776632794200628   T   T   T
  0.0000364664094799  0.4999759334468016  0.4786418180255831   T   T   T
  0.0049761897951062  0.7483572719191620  0.4776609344852399   T   T   T
 -0.0000141923454794 -0.0000242219078711  0.4759479947479059   T   T   T
  0.2482818503631353  0.2482602006740806  0.4761452693359491   T   T   T
  0.2483930450261032  0.5004848034489516  0.4775414512086850   T   T   T
  0.2531244382290440  0.7468839140113229  0.4796274985528168   T   T   T
  0.2516102512609517  0.9950388827823917  0.4776638534533599   T   T   T
  0.5004945874362887  0.2483978454987012  0.4775377913566094   T   T   T
  0.4999979661321395  0.5000259004197382  0.4755216319794276   T   T   T
  0.4995143135134549  0.7516068358320231  0.4775399076632550   T   T   T
  0.4999996130494531  0.9999733460317561  0.4786430342379410   T   T   T
  0.7469132849067209  0.2531148807170973  0.4796030825684218   T   T   T
  0.7516536625131008  0.4995615439202144  0.4775364863828911   T   T   T
  0.7517302010682275  0.7517255600592927  0.4761421972300645   T   T   T
  0.7483778979017947  0.0049705162349665  0.4776658463923188   T   T   T
  0.1222270739395181  0.1222136453591420  0.5582754567460091   T   T   T
  0.1214419754350989  0.3696308711195250  0.5579897240090333   T   T   T
  0.1250255202802214  0.6236013492002772  0.5658005858268337   T   T   T
  0.1245188757091154  0.8754696898598967  0.5583269624320200   T   T   T
  0.3696358556748539  0.1214063350143558  0.5579987361765715   T   T   T
  0.3651779049987281  0.3652079970384586  0.5589720437469506   T   T   T
  0.3814644103956872  0.6185141488583191  0.5613596407914521   T   T   T
  0.3763967227846576  0.8749652495403084  0.5658023015041960   T   T   T
  0.6236037934762995  0.1250107587258636  0.5657871721386817   T   T   T
  0.6185386408549775  0.3815037199828678  0.5613168499817413   T   T   T
  0.6348038019500956  0.6347990359978718  0.5589671718615534   T   T   T
  0.6303614439444776  0.8785548514175375  0.5579856665395434   T   T   T
  0.8754706678118181  0.1245092678492222  0.5583342587726368   T   T   T
  0.8749763538692670  0.3764294547411414  0.5657892921541298   T   T   T
  0.8785896698777869  0.6303434712219579  0.5579908147243045   T   T   T
  0.8777744578822014  0.8777677715046071  0.5582840925255085   T   T   T
  0.1249999995528412  0.1249999995528412  0.3960161475258630   F   F   F
  0.1249999995528412  0.3749999986585237  0.3960161475258630   F   F   F
  0.1249999995528412  0.6249999977642062  0.3960161475258630   F   F   F
  0.1249999995528412  0.8749999968698887  0.3960161475258630   F   F   F
  0.3749999986585237  0.1249999995528412  0.3960161475258630   F   F   F
  0.3749999986585237  0.3749999986585237  0.3960161475258630   F   F   F
  0.3749999986585237  0.6249999977642062  0.3960161475258630   F   F   F
  0.3749999986585237  0.8749999968698887  0.3960161475258630   F   F   F
  0.6249999977642062  0.1249999995528412  0.3960161475258630   F   F   F
  0.6249999977642062  0.3749999986585237  0.3960161475258630   F   F   F
  0.6249999977642062  0.6249999977642062  0.3960161475258630   F   F   F
  0.6249999977642062  0.8749999968698887  0.3960161475258630   F   F   F
  0.8749999968698887  0.1249999995528412  0.3960161475258630   F   F   F
  0.8749999968698887  0.3749999986585237  0.3960161475258630   F   F   F
  0.8749999968698887  0.6249999977642062  0.3960161475258630   F   F   F
  0.8749999968698887  0.8749999968698887  0.3960161475258630   F   F   F
  0.5933156039360722  0.5933244731848030  0.6423687504062968   T   T   T
  0.6247636166319896  0.4663760698219480  0.6419070959643527   T   T   T
  0.5336176761721874  0.3752799753348987  0.6419015401472349   T   T   T
  0.4066569262296692  0.4066891738962523  0.6423884164686655   T   T   T
  0.3752261379602610  0.5336317484542343  0.6419220088380237   T   T   T
  0.4663274671980094  0.6246878641422685  0.6419213368204227   T   T   T
  0.6539103424059659  0.6539082889903981  0.6644933148248110   T   T   T
  0.3461020550241554  0.3460650536990101  0.6644928945437245   T   T   T
  0.7888454911137250  0.4314885773149238  0.6655447436601161   T   T   T
  0.5686323222698537  0.2112283692801215  0.6655294959115434   T   T   T
  0.2111700729968768  0.5685386818825043  0.6655565474019454   T   T   T
  0.4314571626692996  0.7888747253303892  0.6655969463021238   T   T   T
 
  0.00000000E+00  0.00000000E+00  0.00000000E+00
  0.00000000E+00  0.00000000E+00  0.00000000E+00
  0.00000000E+00  0.00000000E+00  0.00000000E+00
  0.00000000E+00  0.00000000E+00  0.00000000E+00
  0.00000000E+00  0.00000000E+00  0.00000000E+00
  0.00000000E+00  0.00000000E+00  0.00000000E+00
  0.00000000E+00  0.00000000E+00  0.00000000E+00
  0.00000000E+00  0.00000000E+00  0.00000000E+00
  0.00000000E+00  0.00000000E+00  0.00000000E+00
  0.00000000E+00  0.00000000E+00  0.00000000E+00
  0.00000000E+00  0.00000000E+00  0.00000000E+00
  0.00000000E+00  0.00000000E+00  0.00000000E+00
  0.00000000E+00  0.00000000E+00  0.00000000E+00
  0.00000000E+00  0.00000000E+00  0.00000000E+00
  0.00000000E+00  0.00000000E+00  0.00000000E+00
  0.00000000E+00  0.00000000E+00  0.00000000E+00
  0.00000000E+00  0.00000000E+00  0.00000000E+00
  0.00000000E+00  0.00000000E+00  0.00000000E+00
  0.00000000E+00  0.00000000E+00  0.00000000E+00
  0.00000000E+00  0.00000000E+00  0.00000000E+00
  0.00000000E+00  0.00000000E+00  0.00000000E+00
  0.00000000E+00  0.00000000E+00  0.00000000E+00
  0.00000000E+00  0.00000000E+00  0.00000000E+00
  0.00000000E+00  0.00000000E+00  0.00000000E+00
  0.00000000E+00  0.00000000E+00  0.00000000E+00
  0.00000000E+00  0.00000000E+00  0.00000000E+00
  0.00000000E+00  0.00000000E+00  0.00000000E+00
  0.00000000E+00  0.00000000E+00  0.00000000E+00
  0.00000000E+00  0.00000000E+00  0.00000000E+00
  0.00000000E+00  0.00000000E+00  0.00000000E+00
  0.00000000E+00  0.00000000E+00  0.00000000E+00
  0.00000000E+00  0.00000000E+00  0.00000000E+00
  0.00000000E+00  0.00000000E+00  0.00000000E+00
  0.00000000E+00  0.00000000E+00  0.00000000E+00
  0.00000000E+00  0.00000000E+00  0.00000000E+00
  0.00000000E+00  0.00000000E+00  0.00000000E+00
  0.00000000E+00  0.00000000E+00  0.00000000E+00
  0.00000000E+00  0.00000000E+00  0.00000000E+00
  0.00000000E+00  0.00000000E+00  0.00000000E+00
  0.00000000E+00  0.00000000E+00  0.00000000E+00
  0.00000000E+00  0.00000000E+00  0.00000000E+00
  0.00000000E+00  0.00000000E+00  0.00000000E+00
  0.00000000E+00  0.00000000E+00  0.00000000E+00
  0.00000000E+00  0.00000000E+00  0.00000000E+00
  0.00000000E+00  0.00000000E+00  0.00000000E+00
  0.00000000E+00  0.00000000E+00  0.00000000E+00
  0.00000000E+00  0.00000000E+00  0.00000000E+00
  0.00000000E+00  0.00000000E+00  0.00000000E+00
  0.00000000E+00  0.00000000E+00  0.00000000E+00
  0.00000000E+00  0.00000000E+00  0.00000000E+00
  0.00000000E+00  0.00000000E+00  0.00000000E+00
  0.00000000E+00  0.00000000E+00  0.00000000E+00
  0.00000000E+00  0.00000000E+00  0.00000000E+00
  0.00000000E+00  0.00000000E+00  0.00000000E+00
  0.00000000E+00  0.00000000E+00  0.00000000E+00
  0.00000000E+00  0.00000000E+00  0.00000000E+00
  0.00000000E+00  0.00000000E+00  0.00000000E+00
  0.00000000E+00  0.00000000E+00  0.00000000E+00
  0.00000000E+00  0.00000000E+00  0.00000000E+00
  0.00000000E+00  0.00000000E+00  0.00000000E+00
  0.00000000E+00  0.00000000E+00  0.00000000E+00
  0.00000000E+00  0.00000000E+00  0.00000000E+00
  0.00000000E+00  0.00000000E+00  0.00000000E+00
  0.00000000E+00  0.00000000E+00  0.00000000E+00
  0.00000000E+00  0.00000000E+00  0.00000000E+00
  0.00000000E+00  0.00000000E+00  0.00000000E+00
  0.00000000E+00  0.00000000E+00  0.00000000E+00
  0.00000000E+00  0.00000000E+00  0.00000000E+00
  0.00000000E+00  0.00000000E+00  0.00000000E+00
  0.00000000E+00  0.00000000E+00  0.00000000E+00
  0.00000000E+00  0.00000000E+00  0.00000000E+00
  0.00000000E+00  0.00000000E+00  0.00000000E+00
  0.00000000E+00  0.00000000E+00  0.00000000E+00
  0.00000000E+00  0.00000000E+00  0.00000000E+00
  0.00000000E+00  0.00000000E+00  0.00000000E+00
  0.00000000E+00  0.00000000E+00  0.00000000E+00
