Cu  C  H  F                             
   1.00000000000000     
    10.2424769999999992    0.0000000000000000    0.0000000000000000
    -5.1212390000000001    8.8702459999999999    0.0000000000000000
     0.0000000000000000    0.0000000000000000   24.2722108799999958
   Cu   C    H    F 
    64     6     4     2
Selective dynamics
Direct
  0.7500000436217675  0.9999999661790682  0.3089953377992387   F   F   F
  0.0000000023248248  0.2499999909810811  0.3089953377992387   F   F   F
  0.0000000042370090  0.4999999830895305  0.3089953377992387   F   F   F
  0.0000000055855054  0.7499999740706187  0.3089953377992387   F   F   F
  0.0000000084740179  0.9999999661790682  0.3089953377992387   F   F   F
  0.2500000140407437  0.2499999909810811  0.3089953377992387   F   F   F
  0.2500000159529208  0.4999999830895305  0.3089953377992387   F   F   F
  0.2500000173014243  0.7499999740706187  0.3089953377992387   F   F   F
  0.5000000257566555  0.2499999909810811  0.3089953377992387   F   F   F
  0.5000000276688397  0.4999999830895305  0.3089953377992387   F   F   F
  0.5000000290173432  0.7499999740706187  0.3089953377992387   F   F   F
  0.5000000319058486  0.9999999661790682  0.3089953377992387   F   F   F
  0.7500000374725744  0.2499999909810811  0.3089953377992387   F   F   F
  0.7500000393847586  0.4999999830895305  0.3089953377992387   F   F   F
  0.7500000417095833  0.7499999740706187  0.3089953377992387   F   F   F
  0.2500000201899297  0.9999999661790682  0.3089953377992387   F   F   F
  0.0833330000000032  0.1666669999999968  0.3951324008931820   F   F   F
  0.0833330000000032  0.4166669999999968  0.3951324008931820   F   F   F
  0.0833330000000032  0.6666669999999968  0.3951324008931820   F   F   F
  0.0833330000000032  0.9166669999999968  0.3951324008931820   F   F   F
  0.3333330000000032  0.1666669999999968  0.3951324008931820   F   F   F
  0.3333330000000032  0.4166669999999968  0.3951324008931820   F   F   F
  0.3333330000000032  0.6666669999999968  0.3951324008931820   F   F   F
  0.3333330000000032  0.9166669999999968  0.3951324008931820   F   F   F
  0.5833330000000032  0.1666669999999968  0.3951324008931820   F   F   F
  0.5833330000000032  0.4166669999999968  0.3951324008931820   F   F   F
  0.5833330000000032  0.6666669999999968  0.3951324008931820   F   F   F
  0.5833330000000032  0.9166669999999968  0.3951324008931820   F   F   F
  0.8333330000000032  0.1666669999999968  0.3951324008931820   F   F   F
  0.8333330000000032  0.4166669999999968  0.3951324008931820   F   F   F
  0.8333330000000032  0.6666669999999968  0.3951324008931820   F   F   F
  0.8333330000000032  0.9166669999999968  0.3951324008931820   F   F   F
  0.9993434108836220  0.9996378223978271  0.5646971249497176   T   T   T
  0.9993245636274001  0.2497251682898111  0.5646008989149029   T   T   T
  0.9998593657828403  0.4999449391407247  0.5647717014599536   T   T   T
  0.9999654509299238  0.7500467316127822  0.5649029338557560   T   T   T
  0.2496078504271106  0.9997753764173597  0.5646413379062778   T   T   T
  0.2488918718921035  0.2493159018130277  0.5648597478329048   T   T   T
  0.2498422506217921  0.5001160979036282  0.5640129815590861   T   T   T
  0.2499398750908400  0.7500305966420586  0.5648206485515967   T   T   T
  0.4995339502336336  0.0001591364879422  0.5648144934912137   T   T   T
  0.4997598086040207  0.2501314399486726  0.5641538749781417   T   T   T
  0.5006807989956102  0.5011104529896839  0.5648431506475429   T   T   T
  0.5001913383765102  0.7507095242941024  0.5646156956097155   T   T   T
  0.7497434951188112  0.0001933909480363  0.5649908461025294   T   T   T
  0.7498459548013837  0.2502424526520972  0.5648733344003860   T   T   T
  0.7501951546619919  0.5002883172137784  0.5646216188980855   T   T   T
  0.7503884913336341  0.7506293837385656  0.5646861383879751   T   T   T
  0.1664493556157744  0.0832814002480644  0.4800144659630891   T   T   T
  0.1664560285252988  0.3330355289306873  0.4799476006318286   T   T   T
  0.1665421425880227  0.5834156780881387  0.4798906890475906   T   T   T
  0.1665898735185832  0.8332660076861748  0.4799523801881759   T   T   T
  0.4164343146343666  0.0832784465861050  0.4799011212092283   T   T   T
  0.4163487201505871  0.3336535212843901  0.4801916067518440   T   T   T
  0.4169094827561161  0.5834938656744606  0.4799455482973465   T   T   T
  0.4165567022485132  0.8333331263791408  0.4799428183023285   T   T   T
  0.6665067135264933  0.0833754858039970  0.4800373832331289   T   T   T
  0.6666604842227778  0.3334213466766063  0.4799308310868198   T   T   T
  0.6666916207505745  0.5834912746490464  0.4800149543602756   T   T   T
  0.6667217898839348  0.8334985294595983  0.4799819340101471   T   T   T
  0.9163737927595446  0.0831649717705711  0.4799708908318068   T   T   T
  0.9166123335961091  0.3333673889089703  0.4799403962839769   T   T   T
  0.9167244705597887  0.5834374560800963  0.4799390800341279   T   T   T
  0.9167449187530093  0.8332729016582643  0.4798661734232932   T   T   T
  0.2969192135674917  0.4541248301383896  0.6856567285879102   T   T   T
  0.4539385377460128  0.5356132431095015  0.6839028364523891   T   T   T
  0.5328433049529485  0.4565318060143526  0.6841202849137517   T   T   T
  0.4513235074965780  0.2996246364582315  0.6860158216554065   T   T   T
  0.2944785011713821  0.2182020997047842  0.6841589030749348   T   T   T
  0.2155012621062390  0.2971681857297357  0.6839535608182730   T   T   T
  0.5128972154334381  0.6584273563115487  0.6827952493452725   T   T   T
  0.6555993357490406  0.5156570781163158  0.6831751683179575   T   T   T
  0.2351812372679302  0.0954680284749015  0.6832225771340793   T   T   T
  0.0926786110310209  0.2379685761573030  0.6828472511072537   T   T   T
  0.2199399121215058  0.5307376607738372  0.6881157314926051   T   T   T
  0.5278990231717690  0.2228424540124550  0.6889444758209367   T   T   T
 
  0.00000000E+00  0.00000000E+00  0.00000000E+00
  0.00000000E+00  0.00000000E+00  0.00000000E+00
  0.00000000E+00  0.00000000E+00  0.00000000E+00
  0.00000000E+00  0.00000000E+00  0.00000000E+00
  0.00000000E+00  0.00000000E+00  0.00000000E+00
  0.00000000E+00  0.00000000E+00  0.00000000E+00
  0.00000000E+00  0.00000000E+00  0.00000000E+00
  0.00000000E+00  0.00000000E+00  0.00000000E+00
  0.00000000E+00  0.00000000E+00  0.00000000E+00
  0.00000000E+00  0.00000000E+00  0.00000000E+00
  0.00000000E+00  0.00000000E+00  0.00000000E+00
  0.00000000E+00  0.00000000E+00  0.00000000E+00
  0.00000000E+00  0.00000000E+00  0.00000000E+00
  0.00000000E+00  0.00000000E+00  0.00000000E+00
  0.00000000E+00  0.00000000E+00  0.00000000E+00
  0.00000000E+00  0.00000000E+00  0.00000000E+00
  0.00000000E+00  0.00000000E+00  0.00000000E+00
  0.00000000E+00  0.00000000E+00  0.00000000E+00
  0.00000000E+00  0.00000000E+00  0.00000000E+00
  0.00000000E+00  0.00000000E+00  0.00000000E+00
  0.00000000E+00  0.00000000E+00  0.00000000E+00
  0.00000000E+00  0.00000000E+00  0.00000000E+00
  0.00000000E+00  0.00000000E+00  0.00000000E+00
  0.00000000E+00  0.00000000E+00  0.00000000E+00
  0.00000000E+00  0.00000000E+00  0.00000000E+00
  0.00000000E+00  0.00000000E+00  0.00000000E+00
  0.00000000E+00  0.00000000E+00  0.00000000E+00
  0.00000000E+00  0.00000000E+00  0.00000000E+00
  0.00000000E+00  0.00000000E+00  0.00000000E+00
  0.00000000E+00  0.00000000E+00  0.00000000E+00
  0.00000000E+00  0.00000000E+00  0.00000000E+00
  0.00000000E+00  0.00000000E+00  0.00000000E+00
  0.00000000E+00  0.00000000E+00  0.00000000E+00
  0.00000000E+00  0.00000000E+00  0.00000000E+00
  0.00000000E+00  0.00000000E+00  0.00000000E+00
  0.00000000E+00  0.00000000E+00  0.00000000E+00
  0.00000000E+00  0.00000000E+00  0.00000000E+00
  0.00000000E+00  0.00000000E+00  0.00000000E+00
  0.00000000E+00  0.00000000E+00  0.00000000E+00
  0.00000000E+00  0.00000000E+00  0.00000000E+00
  0.00000000E+00  0.00000000E+00  0.00000000E+00
  0.00000000E+00  0.00000000E+00  0.00000000E+00
  0.00000000E+00  0.00000000E+00  0.00000000E+00
  0.00000000E+00  0.00000000E+00  0.00000000E+00
  0.00000000E+00  0.00000000E+00  0.00000000E+00
  0.00000000E+00  0.00000000E+00  0.00000000E+00
  0.00000000E+00  0.00000000E+00  0.00000000E+00
  0.00000000E+00  0.00000000E+00  0.00000000E+00
  0.00000000E+00  0.00000000E+00  0.00000000E+00
  0.00000000E+00  0.00000000E+00  0.00000000E+00
  0.00000000E+00  0.00000000E+00  0.00000000E+00
  0.00000000E+00  0.00000000E+00  0.00000000E+00
  0.00000000E+00  0.00000000E+00  0.00000000E+00
  0.00000000E+00  0.00000000E+00  0.00000000E+00
  0.00000000E+00  0.00000000E+00  0.00000000E+00
  0.00000000E+00  0.00000000E+00  0.00000000E+00
  0.00000000E+00  0.00000000E+00  0.00000000E+00
  0.00000000E+00  0.00000000E+00  0.00000000E+00
  0.00000000E+00  0.00000000E+00  0.00000000E+00
  0.00000000E+00  0.00000000E+00  0.00000000E+00
  0.00000000E+00  0.00000000E+00  0.00000000E+00
  0.00000000E+00  0.00000000E+00  0.00000000E+00
  0.00000000E+00  0.00000000E+00  0.00000000E+00
  0.00000000E+00  0.00000000E+00  0.00000000E+00
  0.00000000E+00  0.00000000E+00  0.00000000E+00
  0.00000000E+00  0.00000000E+00  0.00000000E+00
  0.00000000E+00  0.00000000E+00  0.00000000E+00
  0.00000000E+00  0.00000000E+00  0.00000000E+00
  0.00000000E+00  0.00000000E+00  0.00000000E+00
  0.00000000E+00  0.00000000E+00  0.00000000E+00
  0.00000000E+00  0.00000000E+00  0.00000000E+00
  0.00000000E+00  0.00000000E+00  0.00000000E+00
  0.00000000E+00  0.00000000E+00  0.00000000E+00
  0.00000000E+00  0.00000000E+00  0.00000000E+00
  0.00000000E+00  0.00000000E+00  0.00000000E+00
  0.00000000E+00  0.00000000E+00  0.00000000E+00
