Pt48 C4 N2 Br4                          
    1.000000000000000     
    11.2480068000000006    0.0000000000000000    0.0000000000000000
     0.0000000000000000   15.9070838000000006    0.0000000000000000
     0.0000000000000000    0.0000000000000000   15.6744472600000009
   Pt   C    N    Br
    48     4     2     4
Selective dynamics
Direct
  0.2503808822201137  0.2507553029774172  0.4016307150285172   T   T   T
  0.2502027108539551  0.5009564255970815  0.3910302620322739   T   T   T
  0.2455431374598476  0.7495783438327805  0.4011009398189529   T   T   T
  0.2488687104059011  0.0003415373576345  0.3994625282862856   T   T   T
  0.5024717313077360  0.2486638820978797  0.3922452255853486   T   T   T
  0.4999956618730153  0.5000012948903674  0.3915946784036777   T   T   T
  0.4975377333892865  0.7513367347708453  0.3922804992635349   T   T   T
  0.5000045633496200  0.9999969389820080  0.3994156117250114   T   T   T
  0.7544603535301064  0.2504328003614660  0.4010924536766396   T   T   T
  0.7498066865669344  0.4990586618626267  0.3910432081315136   T   T   T
  0.7495980816806807  0.7492415303345794  0.4016524374406387   T   T   T
  0.7511213178498082  0.9996568464456104  0.3994652915567087   T   T   T
  0.0036235217446077  0.2526284482550665  0.4035403232265935   T   T   T
  0.9999933046552556  0.5000041731961034  0.4001088701468873   T   T   T
  0.9963614932881484  0.7473821885583334  0.4035713800558653   T   T   T
  0.9999883082989385  0.9999876929345035  0.4009574457662879   T   T   T
  0.1265263482088343  0.1254898442470989  0.4897219793778405   T   T   T
  0.1384796032947193  0.3837421165238979  0.4926579029531055   T   T   T
  0.1182472000294226  0.6239141266507602  0.4909077768419081   T   T   T
  0.1187577020024833  0.8745363889886875  0.4891870332194301   T   T   T
  0.3734434782171334  0.1254491160158295  0.4887791337418861   T   T   T
  0.3898138270245184  0.3712644754337688  0.4862392648413660   T   T   T
  0.3658174151819154  0.6246130611860607  0.4890387972635892   T   T   T
  0.3729719636829572  0.8746300986383986  0.4857908342359636   T   T   T
  0.6270091947411061  0.1253864140477461  0.4857846016469978   T   T   T
  0.6341996506798679  0.3753820817749656  0.4890275016079713   T   T   T
  0.6102055770875410  0.6287204771131698  0.4862524236040784   T   T   T
  0.6265715159182008  0.8745683864135856  0.4887963604529233   T   T   T
  0.8811910033493717  0.1254737431587429  0.4891876633841861   T   T   T
  0.8817580303016825  0.3760783514132484  0.4909174646933678   T   T   T
  0.8615327858142976  0.6162713053250570  0.4926927794269247   T   T   T
  0.8734759099202023  0.8745257288494841  0.4897572143275681   T   T   T
  0.1250000000000000  0.1250000003143228  0.3189905147570755   F   F   F
  0.1250000000000000  0.3750000003143228  0.3189905147570755   F   F   F
  0.1250000008890453  0.6250000009429755  0.3189905147570755   F   F   F
  0.1250000008890453  0.8750000009429755  0.3189905147570755   F   F   F
  0.3750000008890453  0.1250000003143228  0.3189905147570755   F   F   F
  0.3750000008890453  0.3750000003143228  0.3189905147570755   F   F   F
  0.3750000008890453  0.6250000009429755  0.3189905147570755   F   F   F
  0.3750000008890453  0.8750000009429755  0.3189905147570755   F   F   F
  0.6250000017780906  0.1250000003143228  0.3189905147570755   F   F   F
  0.6250000017780906  0.3750000003143228  0.3189905147570755   F   F   F
  0.6250000017780906  0.6250000009429755  0.3189905147570755   F   F   F
  0.6250000026671358  0.8750000009429755  0.3189905147570755   F   F   F
  0.8750000026671358  0.1250000003143228  0.3189905147570755   F   F   F
  0.8750000026671358  0.3750000003143228  0.3189905147570755   F   F   F
  0.8750000035561882  0.6250000009429755  0.3189905147570755   F   F   F
  0.8750000026671358  0.8750000009429755  0.3189905147570755   F   F   F
  0.4262173723062546  0.5696081971670282  0.5924857903287801   T   T   T
  0.3819584457277116  0.4889936316190955  0.6138497832601217   T   T   T
  0.5737883696686836  0.4303781640546731  0.5925032211509773   T   T   T
  0.6180991741607968  0.5109379889596681  0.6138789268908553   T   T   T
  0.4522692676569307  0.4209118430893852  0.6004518453957672   T   T   T
  0.5476568255106500  0.5791107168984055  0.6004460084364780   T   T   T
  0.7878547662036510  0.5343559192002658  0.6271654511130862   T   T   T
  0.6153088656800634  0.1258240580824506  0.6367114432782230   T   T   T
  0.3848432316945321  0.8743675729552649  0.6367081590173242   T   T   T
  0.2121045611670098  0.4656252125281739  0.6271253779480261   T   T   T
 
  0.00000000E+00  0.00000000E+00  0.00000000E+00
  0.00000000E+00  0.00000000E+00  0.00000000E+00
  0.00000000E+00  0.00000000E+00  0.00000000E+00
  0.00000000E+00  0.00000000E+00  0.00000000E+00
  0.00000000E+00  0.00000000E+00  0.00000000E+00
  0.00000000E+00  0.00000000E+00  0.00000000E+00
  0.00000000E+00  0.00000000E+00  0.00000000E+00
  0.00000000E+00  0.00000000E+00  0.00000000E+00
  0.00000000E+00  0.00000000E+00  0.00000000E+00
  0.00000000E+00  0.00000000E+00  0.00000000E+00
  0.00000000E+00  0.00000000E+00  0.00000000E+00
  0.00000000E+00  0.00000000E+00  0.00000000E+00
  0.00000000E+00  0.00000000E+00  0.00000000E+00
  0.00000000E+00  0.00000000E+00  0.00000000E+00
  0.00000000E+00  0.00000000E+00  0.00000000E+00
  0.00000000E+00  0.00000000E+00  0.00000000E+00
  0.00000000E+00  0.00000000E+00  0.00000000E+00
  0.00000000E+00  0.00000000E+00  0.00000000E+00
  0.00000000E+00  0.00000000E+00  0.00000000E+00
  0.00000000E+00  0.00000000E+00  0.00000000E+00
  0.00000000E+00  0.00000000E+00  0.00000000E+00
  0.00000000E+00  0.00000000E+00  0.00000000E+00
  0.00000000E+00  0.00000000E+00  0.00000000E+00
  0.00000000E+00  0.00000000E+00  0.00000000E+00
  0.00000000E+00  0.00000000E+00  0.00000000E+00
  0.00000000E+00  0.00000000E+00  0.00000000E+00
  0.00000000E+00  0.00000000E+00  0.00000000E+00
  0.00000000E+00  0.00000000E+00  0.00000000E+00
  0.00000000E+00  0.00000000E+00  0.00000000E+00
  0.00000000E+00  0.00000000E+00  0.00000000E+00
  0.00000000E+00  0.00000000E+00  0.00000000E+00
  0.00000000E+00  0.00000000E+00  0.00000000E+00
  0.00000000E+00  0.00000000E+00  0.00000000E+00
  0.00000000E+00  0.00000000E+00  0.00000000E+00
  0.00000000E+00  0.00000000E+00  0.00000000E+00
  0.00000000E+00  0.00000000E+00  0.00000000E+00
  0.00000000E+00  0.00000000E+00  0.00000000E+00
  0.00000000E+00  0.00000000E+00  0.00000000E+00
  0.00000000E+00  0.00000000E+00  0.00000000E+00
  0.00000000E+00  0.00000000E+00  0.00000000E+00
  0.00000000E+00  0.00000000E+00  0.00000000E+00
  0.00000000E+00  0.00000000E+00  0.00000000E+00
  0.00000000E+00  0.00000000E+00  0.00000000E+00
  0.00000000E+00  0.00000000E+00  0.00000000E+00
  0.00000000E+00  0.00000000E+00  0.00000000E+00
  0.00000000E+00  0.00000000E+00  0.00000000E+00
  0.00000000E+00  0.00000000E+00  0.00000000E+00
  0.00000000E+00  0.00000000E+00  0.00000000E+00
  0.00000000E+00  0.00000000E+00  0.00000000E+00
  0.00000000E+00  0.00000000E+00  0.00000000E+00
  0.00000000E+00  0.00000000E+00  0.00000000E+00
  0.00000000E+00  0.00000000E+00  0.00000000E+00
  0.00000000E+00  0.00000000E+00  0.00000000E+00
  0.00000000E+00  0.00000000E+00  0.00000000E+00
  0.00000000E+00  0.00000000E+00  0.00000000E+00
  0.00000000E+00  0.00000000E+00  0.00000000E+00
  0.00000000E+00  0.00000000E+00  0.00000000E+00
  0.00000000E+00  0.00000000E+00  0.00000000E+00
