Ir48 C6 F6                              
    1.000000000000000     
    10.9622135000000007    0.0000000000000000    0.0000000000000000
     0.0000000000000000   15.5029109999999992    0.0000000000000000
     0.0000000000000000    0.0000000000000000   15.5412342500000005
   Ir   C    F 
    48     6     6
Selective dynamics
Direct
  0.2500274526968980  0.9999966668943543  0.4152675395601619   T   T   T
  0.2500049087967469  0.2500975241286199  0.4151424616672372   T   T   T
  0.2499416670212895  0.5000073397178681  0.4156387575901519   T   T   T
  0.2499933612602874  0.7499076308492647  0.4151470932384740   T   T   T
  0.4999999990877768  0.0000000000000000  0.3914341622494959   T   T   T
  0.5000047245603412  0.2500003655992202  0.3914431166045560   T   T   T
  0.4999999990877768  0.4999999993549622  0.3913237543972912   T   T   T
  0.4999952736152125  0.7499996324656593  0.3914431166045560   T   T   T
  0.7499725454786557  0.0000033331056457  0.4152675395601619   T   T   T
  0.7500066369152663  0.2500923672156148  0.4151470932384740   T   T   T
  0.7500583311542641  0.4999926589920562  0.4156387575901519   T   T   T
  0.7499950893788068  0.7499024739362596  0.4151424623106834   T   T   T
  0.0000000000000000  0.0000000000000000  0.3913336916198560   T   T   T
  0.9999996745835205  0.2500371556202055  0.3916227281178379   T   T   T
  0.9999999981755536  0.4999999993549622  0.3918969652404272   T   T   T
  0.0000003217675868  0.7499628424446740  0.3916227287612841   T   T   T
  0.1232876695413125  0.1250226583143075  0.4849954662570397   T   T   T
  0.1232678922762531  0.3749628847928363  0.4851410456861700   T   T   T
  0.1232671184523895  0.6250293980180857  0.4851644601145964   T   T   T
  0.1232783255277567  0.8749824549289116  0.4849999285771034   T   T   T
  0.3767574214319538  0.1251195945178054  0.4849633434061715   T   T   T
  0.3768379038726835  0.3750535657847891  0.4850360866624541   T   T   T
  0.3768328684368711  0.6249582356713645  0.4850558361062625   T   T   T
  0.3767706938714213  0.8748796479035192  0.4849678841058136   T   T   T
  0.6232293052163556  0.1251203501613602  0.4849678841058136   T   T   T
  0.6231671306509057  0.3750417630385527  0.4850558361062625   T   T   T
  0.6231620952150934  0.6249464329251282  0.4850360866624541   T   T   T
  0.6232425776558230  0.8748804035470741  0.4849633434061715   T   T   T
  0.8767216735600201  0.1250175431359679  0.4849999285771034   T   T   T
  0.8767328806353873  0.3749706006918316  0.4851644601145964   T   T   T
  0.8767321068115237  0.6250371139170809  0.4851410456861700   T   T   T
  0.8767123295464643  0.8749773397505720  0.4849954662570397   T   T   T
  0.1249999993158326  0.1249999996774775  0.3217247690607294   F   F   F
  0.1249999993158326  0.3749999996774775  0.3217247690607294   F   F   F
  0.1250000002280558  0.6249999990324397  0.3217247690607294   F   F   F
  0.1250000002280558  0.8749999983874019  0.3217247690607294   F   F   F
  0.3749999988597210  0.1249999996774775  0.3217247690607294   F   F   F
  0.3749999997719442  0.3749999996774775  0.3217247690607294   F   F   F
  0.3749999997719442  0.6249999990324397  0.3217247690607294   F   F   F
  0.3749999997719442  0.8749999983874019  0.3217247690607294   F   F   F
  0.6249999993158326  0.1249999996774775  0.3217247690607294   F   F   F
  0.6249999984036094  0.3749999996774775  0.3217247690607294   F   F   F
  0.6249999993158326  0.6249999990324397  0.3217247690607294   F   F   F
  0.6249999993158326  0.8749999983874019  0.3217247690607294   F   F   F
  0.8749999979474978  0.1249999996774775  0.3217247690607294   F   F   F
  0.8749999988597210  0.3749999996774775  0.3217247690607294   F   F   F
  0.8749999988597210  0.6249999990324397  0.3217247690607294   F   F   F
  0.8749999988597210  0.8749999983874019  0.3217247690607294   F   F   F
  0.3725972327238054  0.5044815870036814  0.6973125318884783   T   T   T
  0.4417894115563854  0.5800849469329705  0.6977122963005442   T   T   T
  0.5691177791265716  0.5755954492746298  0.6978129184164956   T   T   T
  0.6274027399094635  0.4955183988054372  0.6973125318884783   T   T   T
  0.5582106139858922  0.4199150646777525  0.6977122963005442   T   T   T
  0.4308822199612052  0.4244045494352946  0.6978129184164956   T   T   T
  0.2501632122159450  0.5088031684231780  0.6978726419239365   T   T   T
  0.3855243068008676  0.6573797621498016  0.7001722384243720   T   T   T
  0.6359618332719990  0.6486118979337832  0.7003824445108222   T   T   T
  0.7498367868718319  0.4911968302867393  0.6978726419239365   T   T   T
  0.6144757588792942  0.3426202572014034  0.7001722384243720   T   T   T
  0.3640381922702929  0.3513881136769399  0.7003824445108222   T   T   T
 
  0.00000000E+00  0.00000000E+00  0.00000000E+00
  0.00000000E+00  0.00000000E+00  0.00000000E+00
  0.00000000E+00  0.00000000E+00  0.00000000E+00
  0.00000000E+00  0.00000000E+00  0.00000000E+00
  0.00000000E+00  0.00000000E+00  0.00000000E+00
  0.00000000E+00  0.00000000E+00  0.00000000E+00
  0.00000000E+00  0.00000000E+00  0.00000000E+00
  0.00000000E+00  0.00000000E+00  0.00000000E+00
  0.00000000E+00  0.00000000E+00  0.00000000E+00
  0.00000000E+00  0.00000000E+00  0.00000000E+00
  0.00000000E+00  0.00000000E+00  0.00000000E+00
  0.00000000E+00  0.00000000E+00  0.00000000E+00
  0.00000000E+00  0.00000000E+00  0.00000000E+00
  0.00000000E+00  0.00000000E+00  0.00000000E+00
  0.00000000E+00  0.00000000E+00  0.00000000E+00
  0.00000000E+00  0.00000000E+00  0.00000000E+00
  0.00000000E+00  0.00000000E+00  0.00000000E+00
  0.00000000E+00  0.00000000E+00  0.00000000E+00
  0.00000000E+00  0.00000000E+00  0.00000000E+00
  0.00000000E+00  0.00000000E+00  0.00000000E+00
  0.00000000E+00  0.00000000E+00  0.00000000E+00
  0.00000000E+00  0.00000000E+00  0.00000000E+00
  0.00000000E+00  0.00000000E+00  0.00000000E+00
  0.00000000E+00  0.00000000E+00  0.00000000E+00
  0.00000000E+00  0.00000000E+00  0.00000000E+00
  0.00000000E+00  0.00000000E+00  0.00000000E+00
  0.00000000E+00  0.00000000E+00  0.00000000E+00
  0.00000000E+00  0.00000000E+00  0.00000000E+00
  0.00000000E+00  0.00000000E+00  0.00000000E+00
  0.00000000E+00  0.00000000E+00  0.00000000E+00
  0.00000000E+00  0.00000000E+00  0.00000000E+00
  0.00000000E+00  0.00000000E+00  0.00000000E+00
  0.00000000E+00  0.00000000E+00  0.00000000E+00
  0.00000000E+00  0.00000000E+00  0.00000000E+00
  0.00000000E+00  0.00000000E+00  0.00000000E+00
  0.00000000E+00  0.00000000E+00  0.00000000E+00
  0.00000000E+00  0.00000000E+00  0.00000000E+00
  0.00000000E+00  0.00000000E+00  0.00000000E+00
  0.00000000E+00  0.00000000E+00  0.00000000E+00
  0.00000000E+00  0.00000000E+00  0.00000000E+00
  0.00000000E+00  0.00000000E+00  0.00000000E+00
  0.00000000E+00  0.00000000E+00  0.00000000E+00
  0.00000000E+00  0.00000000E+00  0.00000000E+00
  0.00000000E+00  0.00000000E+00  0.00000000E+00
  0.00000000E+00  0.00000000E+00  0.00000000E+00
  0.00000000E+00  0.00000000E+00  0.00000000E+00
  0.00000000E+00  0.00000000E+00  0.00000000E+00
  0.00000000E+00  0.00000000E+00  0.00000000E+00
  0.00000000E+00  0.00000000E+00  0.00000000E+00
  0.00000000E+00  0.00000000E+00  0.00000000E+00
  0.00000000E+00  0.00000000E+00  0.00000000E+00
  0.00000000E+00  0.00000000E+00  0.00000000E+00
  0.00000000E+00  0.00000000E+00  0.00000000E+00
  0.00000000E+00  0.00000000E+00  0.00000000E+00
  0.00000000E+00  0.00000000E+00  0.00000000E+00
  0.00000000E+00  0.00000000E+00  0.00000000E+00
  0.00000000E+00  0.00000000E+00  0.00000000E+00
  0.00000000E+00  0.00000000E+00  0.00000000E+00
  0.00000000E+00  0.00000000E+00  0.00000000E+00
  0.00000000E+00  0.00000000E+00  0.00000000E+00
