Ag48 C6 H2 Br4                          
    1.000000000000000     
    11.7702790000000004    0.0000000000000000    0.0000000000000000
     0.0000000000000000   11.7702790000000004    0.0000000000000000
     0.0000000000000000    0.0000000000000000   16.8047373499999999
   Ag   C    H    Br
    48     6     2     4
Selective dynamics
Direct
  0.0001353692774657  0.2496509254469998  0.4102803969396476   T   T   T
  0.9999910023005611  0.4999953034241926  0.4102911963217437   T   T   T
  0.9998504720456367  0.7503541228098456  0.4102716890777316   T   T   T
  0.9999974857201153  0.0000013986906424  0.4103343137671942   T   T   T
  0.2498986262216576  0.2498941807230679  0.4104445458395816   T   T   T
  0.2491803888091937  0.4996012333818669  0.4098506694740962   T   T   T
  0.2495487439312924  0.7504566487217517  0.4098927101388057   T   T   T
  0.2496519583370045  0.0001446293948959  0.4102763161408447   T   T   T
  0.4996139071045249  0.2491772117521407  0.4098538942822074   T   T   T
  0.5000100061419559  0.4999911957021794  0.4095942048160879   T   T   T
  0.5004021091112918  0.7508272147466357  0.4098456152460059   T   T   T
  0.5000062565642693  0.0000050634844442  0.4102929291615212   T   T   T
  0.7504448181070700  0.2495520140736360  0.4099053627693081   T   T   T
  0.7508182477388274  0.5003879218924396  0.4098544304160399   T   T   T
  0.7501037165616751  0.7501032235903509  0.4104408758914602   T   T   T
  0.7503430473478119  0.9998632815532815  0.4102802635755012   T   T   T
  0.1250135633337024  0.1250140402150137  0.5234633429480340   T   T   T
  0.1248398127587222  0.3747050086707731  0.5234074133841560   T   T   T
  0.1241019960834180  0.6253687178319467  0.5226769757289489   T   T   T
  0.1247827242950237  0.8752182556615864  0.5231999283195776   T   T   T
  0.3747102559885391  0.1248431980459088  0.5234125114877344   T   T   T
  0.3747358825387650  0.3747195718830270  0.5225186659673255   T   T   T
  0.3750534354692192  0.6249568113678308  0.5200576466949585   T   T   T
  0.3746385615564733  0.8758882112433923  0.5226917976829952   T   T   T
  0.6253525191251796  0.1241297244956314  0.5227189203355422   T   T   T
  0.6249522008510411  0.3750414073587791  0.5200989718547362   T   T   T
  0.6252772681540151  0.6252674363854354  0.5225191322138159   T   T   T
  0.6252937721040084  0.8751597106258799  0.5234096869793277   T   T   T
  0.8752129653807117  0.1247860668953962  0.5232056996689138   T   T   T
  0.8758765769678547  0.3746429920067627  0.5227092084739127   T   T   T
  0.8751566281676375  0.6252907631919555  0.5234114973730044   T   T   T
  0.8749858096629737  0.8749863890193623  0.5234637915928886   T   T   T
  0.1249999995752020  0.1249999995752020  0.2975351471351644   F   F   F
  0.1249999995752020  0.3749999987256061  0.2975351471351644   F   F   F
  0.1249999995752020  0.6249999978760030  0.2975351471351644   F   F   F
  0.1249999995752020  0.8749999970264071  0.2975351471351644   F   F   F
  0.3749999987256061  0.1249999995752020  0.2975351471351644   F   F   F
  0.3749999987256061  0.3749999987256061  0.2975351471351644   F   F   F
  0.3749999987256061  0.6249999978760030  0.2975351471351644   F   F   F
  0.3749999987256061  0.8749999970264071  0.2975351471351644   F   F   F
  0.6249999978760030  0.1249999995752020  0.2975351471351644   F   F   F
  0.6249999978760030  0.3749999987256061  0.2975351471351644   F   F   F
  0.6249999978760030  0.6249999978760030  0.2975351471351644   F   F   F
  0.6249999978760030  0.8749999970264071  0.2975351471351644   F   F   F
  0.8749999970264071  0.1249999995752020  0.2975351471351644   F   F   F
  0.8749999970264071  0.3749999987256061  0.2975351471351644   F   F   F
  0.8749999970264071  0.6249999978760030  0.2975351471351644   F   F   F
  0.8749999970264071  0.8749999970264071  0.2975351471351644   F   F   F
  0.5839470277094989  0.5839502864263011  0.7014039182245710   T   T   T
  0.6149763881362489  0.4691775606676032  0.7027103131348795   T   T   T
  0.5308280925958826  0.3850242767623087  0.7027259777670238   T   T   T
  0.4160601530967369  0.4160442535179740  0.7014028663059477   T   T   T
  0.3850341514387594  0.5308179795067147  0.7026084321942676   T   T   T
  0.4691795527133849  0.6149612316513782  0.7026211759760983   T   T   T
  0.6493817395017132  0.6493765827126552  0.7022289968074560   T   T   T
  0.3506267201091404  0.3506176389189406  0.7022330464853752   T   T   T
  0.7720898018807532  0.4338723076864852  0.7041173996275418   T   T   T
  0.5661450877942329  0.2279084152006803  0.7041841102400781   T   T   T
  0.2279213120003689  0.5661092188841295  0.7038866347414938   T   T   T
  0.4338712110939227  0.7720822924061821  0.7039790774738535   T   T   T
 
  0.00000000E+00  0.00000000E+00  0.00000000E+00
  0.00000000E+00  0.00000000E+00  0.00000000E+00
  0.00000000E+00  0.00000000E+00  0.00000000E+00
  0.00000000E+00  0.00000000E+00  0.00000000E+00
  0.00000000E+00  0.00000000E+00  0.00000000E+00
  0.00000000E+00  0.00000000E+00  0.00000000E+00
  0.00000000E+00  0.00000000E+00  0.00000000E+00
  0.00000000E+00  0.00000000E+00  0.00000000E+00
  0.00000000E+00  0.00000000E+00  0.00000000E+00
  0.00000000E+00  0.00000000E+00  0.00000000E+00
  0.00000000E+00  0.00000000E+00  0.00000000E+00
  0.00000000E+00  0.00000000E+00  0.00000000E+00
  0.00000000E+00  0.00000000E+00  0.00000000E+00
  0.00000000E+00  0.00000000E+00  0.00000000E+00
  0.00000000E+00  0.00000000E+00  0.00000000E+00
  0.00000000E+00  0.00000000E+00  0.00000000E+00
  0.00000000E+00  0.00000000E+00  0.00000000E+00
  0.00000000E+00  0.00000000E+00  0.00000000E+00
  0.00000000E+00  0.00000000E+00  0.00000000E+00
  0.00000000E+00  0.00000000E+00  0.00000000E+00
  0.00000000E+00  0.00000000E+00  0.00000000E+00
  0.00000000E+00  0.00000000E+00  0.00000000E+00
  0.00000000E+00  0.00000000E+00  0.00000000E+00
  0.00000000E+00  0.00000000E+00  0.00000000E+00
  0.00000000E+00  0.00000000E+00  0.00000000E+00
  0.00000000E+00  0.00000000E+00  0.00000000E+00
  0.00000000E+00  0.00000000E+00  0.00000000E+00
  0.00000000E+00  0.00000000E+00  0.00000000E+00
  0.00000000E+00  0.00000000E+00  0.00000000E+00
  0.00000000E+00  0.00000000E+00  0.00000000E+00
  0.00000000E+00  0.00000000E+00  0.00000000E+00
  0.00000000E+00  0.00000000E+00  0.00000000E+00
  0.00000000E+00  0.00000000E+00  0.00000000E+00
  0.00000000E+00  0.00000000E+00  0.00000000E+00
  0.00000000E+00  0.00000000E+00  0.00000000E+00
  0.00000000E+00  0.00000000E+00  0.00000000E+00
  0.00000000E+00  0.00000000E+00  0.00000000E+00
  0.00000000E+00  0.00000000E+00  0.00000000E+00
  0.00000000E+00  0.00000000E+00  0.00000000E+00
  0.00000000E+00  0.00000000E+00  0.00000000E+00
  0.00000000E+00  0.00000000E+00  0.00000000E+00
  0.00000000E+00  0.00000000E+00  0.00000000E+00
  0.00000000E+00  0.00000000E+00  0.00000000E+00
  0.00000000E+00  0.00000000E+00  0.00000000E+00
  0.00000000E+00  0.00000000E+00  0.00000000E+00
  0.00000000E+00  0.00000000E+00  0.00000000E+00
  0.00000000E+00  0.00000000E+00  0.00000000E+00
  0.00000000E+00  0.00000000E+00  0.00000000E+00
  0.00000000E+00  0.00000000E+00  0.00000000E+00
  0.00000000E+00  0.00000000E+00  0.00000000E+00
  0.00000000E+00  0.00000000E+00  0.00000000E+00
  0.00000000E+00  0.00000000E+00  0.00000000E+00
  0.00000000E+00  0.00000000E+00  0.00000000E+00
  0.00000000E+00  0.00000000E+00  0.00000000E+00
  0.00000000E+00  0.00000000E+00  0.00000000E+00
  0.00000000E+00  0.00000000E+00  0.00000000E+00
  0.00000000E+00  0.00000000E+00  0.00000000E+00
  0.00000000E+00  0.00000000E+00  0.00000000E+00
  0.00000000E+00  0.00000000E+00  0.00000000E+00
  0.00000000E+00  0.00000000E+00  0.00000000E+00
