Pt48 C6 Cl2 H4                          
    1.000000000000000     
    11.2480068000000006    0.0000000000000000    0.0000000000000000
     0.0000000000000000   11.2480068000000006    0.0000000000000000
     0.0000000000000000    0.0000000000000000   16.9154553700000001
   Pt   C    Cl   H 
    48     6     2     4
Selective dynamics
Direct
  0.2494676542573373  0.9989044025355653  0.4104798211533378   T   T   T
  0.2505787252652567  0.2505869839563530  0.4109472473553950   T   T   T
  0.2532130934503769  0.5003749492626852  0.4127680250917365   T   T   T
  0.2531445082267822  0.7468566637595302  0.4130834961294809   T   T   T
  0.4999946861225908  0.0000005962926437  0.4100680440189564   T   T   T
  0.5003762847991950  0.2532193735126924  0.4127676699977982   T   T   T
  0.4999984868543947  0.4999934601709555  0.4143226962663107   T   T   T
  0.4996135989206536  0.7467898381564879  0.4127591848429404   T   T   T
  0.7505506942235698  0.0011030748257284  0.4104843560213212   T   T   T
  0.7468660072263660  0.2531435625290115  0.4130984677802019   T   T   T
  0.7467936669630149  0.4996126168980979  0.4127712392625895   T   T   T
  0.7494271268460722  0.7494218602812808  0.4109460074428313   T   T   T
  0.9999926174388207  0.0000016161730159  0.4104130293720161   T   T   T
  0.9989005243618578  0.2494656032661595  0.4104938532047342   T   T   T
  0.0000028249005553  0.4999939357198429  0.4100800166838425   T   T   T
  0.0010980017172599  0.7505417125845071  0.4104812488958132   T   T   T
  0.1237601483206063  0.1237445001559436  0.5260569042559737   T   T   T
  0.1228230782917734  0.3744932981940963  0.5258190500289288   T   T   T
  0.1234758167663017  0.6241064723612837  0.5264464640538478   T   T   T
  0.1255047609297506  0.8745165248557640  0.5265811683505319   T   T   T
  0.3744973111852588  0.1228080790982204  0.5257934301911007   T   T   T
  0.3682337912082616  0.3682240166896165  0.5323278278012964   T   T   T
  0.3732434012909707  0.6267625639113916  0.5383876989343008   T   T   T
  0.3759031561707076  0.8765356649667524  0.5264207966999948   T   T   T
  0.6240866260215086  0.1234693972502328  0.5264426953544259   T   T   T
  0.6267538904058796  0.3732404603031512  0.5383894098113231   T   T   T
  0.6317618356338883  0.6317646360354203  0.5323300921327956   T   T   T
  0.6254899375264316  0.8771874632164156  0.5258113829295112   T   T   T
  0.8745174274990148  0.1254893221989164  0.5266049675154250   T   T   T
  0.8765283463992120  0.3758979939168654  0.5264506897472714   T   T   T
  0.8771864974881964  0.6255049487486488  0.5258092460695067   T   T   T
  0.8762572479473718  0.8762543398242642  0.5260725692428920   T   T   T
  0.1250000008890453  0.1250000000000000  0.2955876676466929   F   F   F
  0.1250000008890453  0.3750000008890453  0.2955876676466929   F   F   F
  0.1250000008890453  0.6250000026671358  0.2955876676466929   F   F   F
  0.1250000008890453  0.8750000026671358  0.2955876676466929   F   F   F
  0.3750000017780906  0.1250000000000000  0.2955876676466929   F   F   F
  0.3750000017780906  0.3750000008890453  0.2955876676466929   F   F   F
  0.3750000017780906  0.6250000026671358  0.2955876676466929   F   F   F
  0.3750000017780906  0.8750000026671358  0.2955876676466929   F   F   F
  0.6250000026671358  0.1250000000000000  0.2955876676466929   F   F   F
  0.6250000026671358  0.3750000008890453  0.2955876676466929   F   F   F
  0.6250000026671358  0.6250000026671358  0.2955876676466929   F   F   F
  0.6250000026671358  0.8750000026671358  0.2955876676466929   F   F   F
  0.8750000035561882  0.1250000000000000  0.2955876676466929   F   F   F
  0.8750000026671358  0.3750000008890453  0.2955876676466929   F   F   F
  0.8750000035561882  0.6250000026671358  0.2955876676466929   F   F   F
  0.8750000035561882  0.8750000026671358  0.2955876676466929   F   F   F
  0.4069889819723329  0.4070177926716383  0.6485789755827298   T   T   T
  0.3748237286015907  0.5350809235494367  0.6527846935318848   T   T   T
  0.4648827614781510  0.6251816877707910  0.6527931796212343   T   T   T
  0.5930242758523718  0.5930026262208585  0.6485815643278912   T   T   T
  0.6251615491433640  0.4648906371278798  0.6527844467588650   T   T   T
  0.5350911856893035  0.3748008391264861  0.6527892940513951   T   T   T
  0.3185534797619454  0.3185596069056373  0.7131762155729433   T   T   T
  0.6814321769631562  0.6814251440497614  0.7131767301642071   T   T   T
  0.2881266605099029  0.5543182141683829  0.6788030858119356   T   T   T
  0.4456894898319135  0.7118643929457136  0.6787995819836254   T   T   T
  0.7118641096739964  0.4456751021293002  0.6787982800860703   T   T   T
  0.5543007705666767  0.2881346418188073  0.6787901300935246   T   T   T
 
  0.00000000E+00  0.00000000E+00  0.00000000E+00
  0.00000000E+00  0.00000000E+00  0.00000000E+00
  0.00000000E+00  0.00000000E+00  0.00000000E+00
  0.00000000E+00  0.00000000E+00  0.00000000E+00
  0.00000000E+00  0.00000000E+00  0.00000000E+00
  0.00000000E+00  0.00000000E+00  0.00000000E+00
  0.00000000E+00  0.00000000E+00  0.00000000E+00
  0.00000000E+00  0.00000000E+00  0.00000000E+00
  0.00000000E+00  0.00000000E+00  0.00000000E+00
  0.00000000E+00  0.00000000E+00  0.00000000E+00
  0.00000000E+00  0.00000000E+00  0.00000000E+00
  0.00000000E+00  0.00000000E+00  0.00000000E+00
  0.00000000E+00  0.00000000E+00  0.00000000E+00
  0.00000000E+00  0.00000000E+00  0.00000000E+00
  0.00000000E+00  0.00000000E+00  0.00000000E+00
  0.00000000E+00  0.00000000E+00  0.00000000E+00
  0.00000000E+00  0.00000000E+00  0.00000000E+00
  0.00000000E+00  0.00000000E+00  0.00000000E+00
  0.00000000E+00  0.00000000E+00  0.00000000E+00
  0.00000000E+00  0.00000000E+00  0.00000000E+00
  0.00000000E+00  0.00000000E+00  0.00000000E+00
  0.00000000E+00  0.00000000E+00  0.00000000E+00
  0.00000000E+00  0.00000000E+00  0.00000000E+00
  0.00000000E+00  0.00000000E+00  0.00000000E+00
  0.00000000E+00  0.00000000E+00  0.00000000E+00
  0.00000000E+00  0.00000000E+00  0.00000000E+00
  0.00000000E+00  0.00000000E+00  0.00000000E+00
  0.00000000E+00  0.00000000E+00  0.00000000E+00
  0.00000000E+00  0.00000000E+00  0.00000000E+00
  0.00000000E+00  0.00000000E+00  0.00000000E+00
  0.00000000E+00  0.00000000E+00  0.00000000E+00
  0.00000000E+00  0.00000000E+00  0.00000000E+00
  0.00000000E+00  0.00000000E+00  0.00000000E+00
  0.00000000E+00  0.00000000E+00  0.00000000E+00
  0.00000000E+00  0.00000000E+00  0.00000000E+00
  0.00000000E+00  0.00000000E+00  0.00000000E+00
  0.00000000E+00  0.00000000E+00  0.00000000E+00
  0.00000000E+00  0.00000000E+00  0.00000000E+00
  0.00000000E+00  0.00000000E+00  0.00000000E+00
  0.00000000E+00  0.00000000E+00  0.00000000E+00
  0.00000000E+00  0.00000000E+00  0.00000000E+00
  0.00000000E+00  0.00000000E+00  0.00000000E+00
  0.00000000E+00  0.00000000E+00  0.00000000E+00
  0.00000000E+00  0.00000000E+00  0.00000000E+00
  0.00000000E+00  0.00000000E+00  0.00000000E+00
  0.00000000E+00  0.00000000E+00  0.00000000E+00
  0.00000000E+00  0.00000000E+00  0.00000000E+00
  0.00000000E+00  0.00000000E+00  0.00000000E+00
  0.00000000E+00  0.00000000E+00  0.00000000E+00
  0.00000000E+00  0.00000000E+00  0.00000000E+00
  0.00000000E+00  0.00000000E+00  0.00000000E+00
  0.00000000E+00  0.00000000E+00  0.00000000E+00
  0.00000000E+00  0.00000000E+00  0.00000000E+00
  0.00000000E+00  0.00000000E+00  0.00000000E+00
  0.00000000E+00  0.00000000E+00  0.00000000E+00
  0.00000000E+00  0.00000000E+00  0.00000000E+00
  0.00000000E+00  0.00000000E+00  0.00000000E+00
  0.00000000E+00  0.00000000E+00  0.00000000E+00
  0.00000000E+00  0.00000000E+00  0.00000000E+00
  0.00000000E+00  0.00000000E+00  0.00000000E+00
