Ir48 C4 N2 F4                           
    1.000000000000000     
    10.9622135000000007    0.0000000000000000    0.0000000000000000
     0.0000000000000000   15.5029109999999992    0.0000000000000000
     0.0000000000000000    0.0000000000000000   15.5412342500000005
   Ir   C    N    F 
    48     4     2     4
Selective dynamics
Direct
  0.2499655332733468  0.0002387341893879  0.4149950050277056   T   T   T
  0.2498572660749190  0.2503058110067116  0.4126664134093829   T   T   T
  0.2492861728846449  0.4998093897494229  0.4118880509669935   T   T   T
  0.2522570565690216  0.7482304580927917  0.4137625273813015   T   T   T
  0.4999955489744110  0.0000003382356297  0.3931596386838194   T   T   T
  0.5002454875439710  0.2511775704338035  0.3924677621851203   T   T   T
  0.4999988958906485  0.5000015318233793  0.3960052846037740   T   T   T
  0.4997509786536227  0.7488195962537176  0.3924664816372001   T   T   T
  0.7500387320240876  0.9997616372104616  0.4149732063781784   T   T   T
  0.7477470158496970  0.2517602231550171  0.4137554948529427   T   T   T
  0.7507137843932128  0.5001872663267761  0.4118790002524335   T   T   T
  0.7501411660026847  0.7497082104340507  0.4126440273212708   T   T   T
  0.0000012697826008  0.9999978721931981  0.3918895513696654   T   T   T
  0.9992139007403438  0.2498643391019542  0.3923189699568752   T   T   T
  0.0000029296990789  0.4999962598933791  0.3923741206684710   T   T   T
  0.0007932758297287  0.7501421267911894  0.3923121210055456   T   T   T
  0.1229372810016542  0.1253664658378995  0.4850294011282301   T   T   T
  0.1191279141159001  0.3743605704814712  0.4849190510293795   T   T   T
  0.1235914455807432  0.6247348053841293  0.4849153889904656   T   T   T
  0.1243691244095899  0.8741989722100385  0.4848585996928421   T   T   T
  0.3768460088338159  0.1255910094598462  0.4847741575296283   T   T   T
  0.3716095823390404  0.3744908398865121  0.4867582395279371   T   T   T
  0.3776949692293172  0.6201564195015408  0.4908638668346583   T   T   T
  0.3766554785996306  0.8744687111457736  0.4846032941561091   T   T   T
  0.6233430259959576  0.1255306716589004  0.4846065673285267   T   T   T
  0.6223116367693962  0.3798465141214962  0.4908622593509264   T   T   T
  0.6283816793608352  0.6255098151616281  0.4867634508393337   T   T   T
  0.6231500540614689  0.8744056730306653  0.4847771785090771   T   T   T
  0.8756297841009939  0.1258002866750658  0.4848601832210662   T   T   T
  0.8764130598476569  0.3752695638466363  0.4849134476516710   T   T   T
  0.8808666642441381  0.6256415481969526  0.4849226524532142   T   T   T
  0.8770682965794450  0.8746300814877301  0.4850322695185412   T   T   T
  0.1249999993158326  0.1249999996774775  0.3217247690607294   F   F   F
  0.1249999993158326  0.3749999996774775  0.3217247690607294   F   F   F
  0.1250000002280558  0.6249999990324397  0.3217247690607294   F   F   F
  0.1250000002280558  0.8749999983874019  0.3217247690607294   F   F   F
  0.3749999988597210  0.1249999996774775  0.3217247690607294   F   F   F
  0.3749999997719442  0.3749999996774775  0.3217247690607294   F   F   F
  0.3749999997719442  0.6249999990324397  0.3217247690607294   F   F   F
  0.3749999997719442  0.8749999983874019  0.3217247690607294   F   F   F
  0.6249999993158326  0.1249999996774775  0.3217247690607294   F   F   F
  0.6249999984036094  0.3749999996774775  0.3217247690607294   F   F   F
  0.6249999993158326  0.6249999990324397  0.3217247690607294   F   F   F
  0.6249999993158326  0.8749999983874019  0.3217247690607294   F   F   F
  0.8749999979474978  0.1249999996774775  0.3217247690607294   F   F   F
  0.8749999988597210  0.3749999996774775  0.3217247690607294   F   F   F
  0.8749999988597210  0.6249999990324397  0.3217247690607294   F   F   F
  0.8749999988597210  0.8749999983874019  0.3217247690607294   F   F   F
  0.5546244445252526  0.4152528410210437  0.6133476694420992   T   T   T
  0.6216585524284142  0.4959610209150540  0.6223391758215087   T   T   T
  0.4453882184902085  0.5847517943684792  0.6133448893884079   T   T   T
  0.3783638701570382  0.5040348323788422  0.6223403551272497   T   T   T
  0.5760588951347216  0.5731546594719603  0.6045187376751500   T   T   T
  0.4239469093270074  0.4268403375853325  0.6045158780701456   T   T   T
  0.2601803639828404  0.5080021309842522  0.6449193009117664   T   T   T
  0.4216948905341837  0.6453848774624475  0.6775770784496089   T   T   T
  0.5783159523887917  0.3546101481335455  0.6775702081817627   T   T   T
  0.7398173401554828  0.4919935389805090  0.6449119030746999   T   T   T
 
  0.00000000E+00  0.00000000E+00  0.00000000E+00
  0.00000000E+00  0.00000000E+00  0.00000000E+00
  0.00000000E+00  0.00000000E+00  0.00000000E+00
  0.00000000E+00  0.00000000E+00  0.00000000E+00
  0.00000000E+00  0.00000000E+00  0.00000000E+00
  0.00000000E+00  0.00000000E+00  0.00000000E+00
  0.00000000E+00  0.00000000E+00  0.00000000E+00
  0.00000000E+00  0.00000000E+00  0.00000000E+00
  0.00000000E+00  0.00000000E+00  0.00000000E+00
  0.00000000E+00  0.00000000E+00  0.00000000E+00
  0.00000000E+00  0.00000000E+00  0.00000000E+00
  0.00000000E+00  0.00000000E+00  0.00000000E+00
  0.00000000E+00  0.00000000E+00  0.00000000E+00
  0.00000000E+00  0.00000000E+00  0.00000000E+00
  0.00000000E+00  0.00000000E+00  0.00000000E+00
  0.00000000E+00  0.00000000E+00  0.00000000E+00
  0.00000000E+00  0.00000000E+00  0.00000000E+00
  0.00000000E+00  0.00000000E+00  0.00000000E+00
  0.00000000E+00  0.00000000E+00  0.00000000E+00
  0.00000000E+00  0.00000000E+00  0.00000000E+00
  0.00000000E+00  0.00000000E+00  0.00000000E+00
  0.00000000E+00  0.00000000E+00  0.00000000E+00
  0.00000000E+00  0.00000000E+00  0.00000000E+00
  0.00000000E+00  0.00000000E+00  0.00000000E+00
  0.00000000E+00  0.00000000E+00  0.00000000E+00
  0.00000000E+00  0.00000000E+00  0.00000000E+00
  0.00000000E+00  0.00000000E+00  0.00000000E+00
  0.00000000E+00  0.00000000E+00  0.00000000E+00
  0.00000000E+00  0.00000000E+00  0.00000000E+00
  0.00000000E+00  0.00000000E+00  0.00000000E+00
  0.00000000E+00  0.00000000E+00  0.00000000E+00
  0.00000000E+00  0.00000000E+00  0.00000000E+00
  0.00000000E+00  0.00000000E+00  0.00000000E+00
  0.00000000E+00  0.00000000E+00  0.00000000E+00
  0.00000000E+00  0.00000000E+00  0.00000000E+00
  0.00000000E+00  0.00000000E+00  0.00000000E+00
  0.00000000E+00  0.00000000E+00  0.00000000E+00
  0.00000000E+00  0.00000000E+00  0.00000000E+00
  0.00000000E+00  0.00000000E+00  0.00000000E+00
  0.00000000E+00  0.00000000E+00  0.00000000E+00
  0.00000000E+00  0.00000000E+00  0.00000000E+00
  0.00000000E+00  0.00000000E+00  0.00000000E+00
  0.00000000E+00  0.00000000E+00  0.00000000E+00
  0.00000000E+00  0.00000000E+00  0.00000000E+00
  0.00000000E+00  0.00000000E+00  0.00000000E+00
  0.00000000E+00  0.00000000E+00  0.00000000E+00
  0.00000000E+00  0.00000000E+00  0.00000000E+00
  0.00000000E+00  0.00000000E+00  0.00000000E+00
  0.00000000E+00  0.00000000E+00  0.00000000E+00
  0.00000000E+00  0.00000000E+00  0.00000000E+00
  0.00000000E+00  0.00000000E+00  0.00000000E+00
  0.00000000E+00  0.00000000E+00  0.00000000E+00
  0.00000000E+00  0.00000000E+00  0.00000000E+00
  0.00000000E+00  0.00000000E+00  0.00000000E+00
  0.00000000E+00  0.00000000E+00  0.00000000E+00
  0.00000000E+00  0.00000000E+00  0.00000000E+00
  0.00000000E+00  0.00000000E+00  0.00000000E+00
  0.00000000E+00  0.00000000E+00  0.00000000E+00
