Au  C  H Cl                             
    1.000000000000000     
    11.7981856999999994    0.0000000000000000    0.0000000000000000
     0.0000000000000000   16.6851543000000007    0.0000000000000000
     0.0000000000000000    0.0000000000000000   22.4243196299999994
   Au   C    H    Cl
    64     6     2     4
Selective dynamics
Direct
  0.0000000016951773  0.2499999991010000  0.3344583079330619   F   F   F
  0.7500000012713812  0.7499999979023286  0.3344583079330619   F   F   F
  0.0000000016951773  0.4999999988013286  0.3344583079330619   F   F   F
  0.0000000016951773  0.7499999979023286  0.3344583079330619   F   F   F
  0.0000000016951773  0.0000000000000000  0.3344583079330619   F   F   F
  0.2500000004237961  0.2499999991010000  0.3344583079330619   F   F   F
  0.2500000004237961  0.4999999988013286  0.3344583079330619   F   F   F
  0.7500000012713812  0.0000000000000000  0.3344583079330619   F   F   F
  0.2500000004237961  0.7499999979023286  0.3344583079330619   F   F   F
  0.2500000004237961  0.0000000000000000  0.3344583079330619   F   F   F
  0.5000000008475851  0.2499999991010000  0.3344583079330619   F   F   F
  0.5000000008475851  0.4999999988013286  0.3344583079330619   F   F   F
  0.5000000008475851  0.7499999979023286  0.3344583079330619   F   F   F
  0.5000000008475851  0.0000000000000000  0.3344583079330619   F   F   F
  0.7500000012713812  0.2499999991010000  0.3344583079330619   F   F   F
  0.7500000012713812  0.4999999988013286  0.3344583079330619   F   F   F
  0.0007510620860247  0.2500181841981424  0.4701963031573694   T   T   T
  0.0000173627330764  0.4999927500753890  0.4700435478270938   T   T   T
  0.9992479911727925  0.7499879592781880  0.4702097415095559   T   T   T
 -0.0000084205324991 -0.0000125486528832  0.4700056731818849   T   T   T
  0.2493146874939330  0.2499767103402161  0.4702041608565061   T   T   T
  0.2506651242822137  0.5000484444123559  0.4701329992008547   T   T   T
  0.2506415747257618  0.7500303644042416  0.4701163200143781   T   T   T
  0.2507960330872425  0.0001039162526624  0.4701947642738197   T   T   T
  0.5006435516887489  0.2499578876502331  0.4701303871441450   T   T   T
  0.5000012711294972  0.5000001360158242  0.4699992547096288   T   T   T
  0.5008843658938995  0.7500717017982531  0.4701739268946694   T   T   T
  0.4999935864291358  0.0000097678959598  0.4703479911922515   T   T   T
  0.7494453248711320  0.2499623211165291  0.4701189540788127   T   T   T
  0.7493368325725894  0.4999479853548615  0.4701311090482855   T   T   T
  0.7507757592743594  0.7500224271009510  0.4702328176440341   T   T   T
  0.7492184480995184 -0.0000973183654050  0.4701926081255050   T   T   T
  0.1243813207565692  0.1247122053140661  0.5286538393583488   T   T   T
  0.1262066653469116  0.3758453193751396  0.5289535092191414   T   T   T
  0.1234681735972147  0.6257242685749715  0.5288636198036739   T   T   T
  0.1249870248560398  0.8749937491722340  0.5286741608595759   T   T   T
  0.3757764478666227  0.1253637071514632  0.5286999657109483   T   T   T
  0.3750503834116189  0.3749649867115836  0.5286938408045916   T   T   T
  0.3739615225041034  0.6249397567680999  0.5275880349747502   T   T   T
  0.3740264002550146  0.8749835825590490  0.5287482689952818   T   T   T
  0.6259964153940819  0.1249896263778780  0.5287615368580922   T   T   T
  0.6260630851957828  0.3750872406246225  0.5276033727756800   T   T   T
  0.6249771102822685  0.6250102998213859  0.5287082613628201   T   T   T
  0.6240738115705040  0.8749067340407310  0.5287668220646603   T   T   T
  0.8750046710082956  0.1250063626050524  0.5286750912327743   T   T   T
  0.8765457256350613  0.3742726706771391  0.5288677197123506   T   T   T
  0.8737965477154441  0.6239404354538886  0.5289175725721967   T   T   T
  0.8749768627545401  0.8751507308646214  0.5286891174523956   T   T   T
  0.1250000006356942  0.1249999995504965  0.4002249949199452   F   F   F
  0.1250000006356942  0.3749999992508322  0.4002249949199452   F   F   F
  0.1250000006356942  0.6249999983518251  0.4002249949199452   F   F   F
  0.1250000006356942  0.8749999974528251  0.4002249949199452   F   F   F
  0.3750000002118981  0.1249999995504965  0.4002249949199452   F   F   F
  0.3750000002118981  0.3749999992508322  0.4002249949199452   F   F   F
  0.3750000010594832  0.6249999983518251  0.4002249949199452   F   F   F
  0.3750000010594832  0.8749999974528251  0.4002249949199452   F   F   F
  0.6250000006356942  0.1249999995504965  0.4002249949199452   F   F   F
  0.6250000006356942  0.3749999992508322  0.4002249949199452   F   F   F
  0.6250000014832793  0.6249999983518251  0.4002249949199452   F   F   F
  0.6250000006356942  0.8749999974528251  0.4002249949199452   F   F   F
  0.8750000010594832  0.1249999995504965  0.4002249949199452   F   F   F
  0.8750000010594832  0.3749999992508322  0.4002249949199452   F   F   F
  0.8750000019070754  0.6249999983518251  0.4002249949199452   F   F   F
  0.8750000010594832  0.8749999974528251  0.4002249949199452   F   F   F
  0.5682331725291160  0.5682823110464401  0.6630649191820850   T   T   T
  0.6186191002931912  0.4924452373433047  0.6633315730454810   T   T   T
  0.5497122902924400  0.4237836351589150  0.6639652438689750   T   T   T
  0.4317651665297201  0.4317333202856116  0.6630210503746718   T   T   T
  0.3813626870024023  0.5075669585040368  0.6632652441864779   T   T   T
  0.4502790809293481  0.5762338959634252  0.6639475163256364   T   T   T
  0.6214354335156352  0.6216364859133867  0.6639967350827043   T   T   T
  0.3785365161800769  0.3783856813309206  0.6639431371238368   T   T   T
  0.7637616831910173  0.4853926418169608  0.6623476791007832   T   T   T
  0.6078565388463295  0.3290130060311118  0.6654444516786006   T   T   T
  0.2361786646509354  0.5145193996974101  0.6621893719437667   T   T   T
  0.3920955334677527  0.6710085101030203  0.6654058843830731   T   T   T
 
  0.00000000E+00  0.00000000E+00  0.00000000E+00
  0.00000000E+00  0.00000000E+00  0.00000000E+00
  0.00000000E+00  0.00000000E+00  0.00000000E+00
  0.00000000E+00  0.00000000E+00  0.00000000E+00
  0.00000000E+00  0.00000000E+00  0.00000000E+00
  0.00000000E+00  0.00000000E+00  0.00000000E+00
  0.00000000E+00  0.00000000E+00  0.00000000E+00
  0.00000000E+00  0.00000000E+00  0.00000000E+00
  0.00000000E+00  0.00000000E+00  0.00000000E+00
  0.00000000E+00  0.00000000E+00  0.00000000E+00
  0.00000000E+00  0.00000000E+00  0.00000000E+00
  0.00000000E+00  0.00000000E+00  0.00000000E+00
  0.00000000E+00  0.00000000E+00  0.00000000E+00
  0.00000000E+00  0.00000000E+00  0.00000000E+00
  0.00000000E+00  0.00000000E+00  0.00000000E+00
  0.00000000E+00  0.00000000E+00  0.00000000E+00
  0.00000000E+00  0.00000000E+00  0.00000000E+00
  0.00000000E+00  0.00000000E+00  0.00000000E+00
  0.00000000E+00  0.00000000E+00  0.00000000E+00
  0.00000000E+00  0.00000000E+00  0.00000000E+00
  0.00000000E+00  0.00000000E+00  0.00000000E+00
  0.00000000E+00  0.00000000E+00  0.00000000E+00
  0.00000000E+00  0.00000000E+00  0.00000000E+00
  0.00000000E+00  0.00000000E+00  0.00000000E+00
  0.00000000E+00  0.00000000E+00  0.00000000E+00
  0.00000000E+00  0.00000000E+00  0.00000000E+00
  0.00000000E+00  0.00000000E+00  0.00000000E+00
  0.00000000E+00  0.00000000E+00  0.00000000E+00
  0.00000000E+00  0.00000000E+00  0.00000000E+00
  0.00000000E+00  0.00000000E+00  0.00000000E+00
  0.00000000E+00  0.00000000E+00  0.00000000E+00
  0.00000000E+00  0.00000000E+00  0.00000000E+00
  0.00000000E+00  0.00000000E+00  0.00000000E+00
  0.00000000E+00  0.00000000E+00  0.00000000E+00
  0.00000000E+00  0.00000000E+00  0.00000000E+00
  0.00000000E+00  0.00000000E+00  0.00000000E+00
  0.00000000E+00  0.00000000E+00  0.00000000E+00
  0.00000000E+00  0.00000000E+00  0.00000000E+00
  0.00000000E+00  0.00000000E+00  0.00000000E+00
  0.00000000E+00  0.00000000E+00  0.00000000E+00
  0.00000000E+00  0.00000000E+00  0.00000000E+00
  0.00000000E+00  0.00000000E+00  0.00000000E+00
  0.00000000E+00  0.00000000E+00  0.00000000E+00
  0.00000000E+00  0.00000000E+00  0.00000000E+00
  0.00000000E+00  0.00000000E+00  0.00000000E+00
  0.00000000E+00  0.00000000E+00  0.00000000E+00
  0.00000000E+00  0.00000000E+00  0.00000000E+00
  0.00000000E+00  0.00000000E+00  0.00000000E+00
  0.00000000E+00  0.00000000E+00  0.00000000E+00
  0.00000000E+00  0.00000000E+00  0.00000000E+00
  0.00000000E+00  0.00000000E+00  0.00000000E+00
  0.00000000E+00  0.00000000E+00  0.00000000E+00
  0.00000000E+00  0.00000000E+00  0.00000000E+00
  0.00000000E+00  0.00000000E+00  0.00000000E+00
  0.00000000E+00  0.00000000E+00  0.00000000E+00
  0.00000000E+00  0.00000000E+00  0.00000000E+00
  0.00000000E+00  0.00000000E+00  0.00000000E+00
  0.00000000E+00  0.00000000E+00  0.00000000E+00
  0.00000000E+00  0.00000000E+00  0.00000000E+00
  0.00000000E+00  0.00000000E+00  0.00000000E+00
  0.00000000E+00  0.00000000E+00  0.00000000E+00
  0.00000000E+00  0.00000000E+00  0.00000000E+00
  0.00000000E+00  0.00000000E+00  0.00000000E+00
  0.00000000E+00  0.00000000E+00  0.00000000E+00
  0.00000000E+00  0.00000000E+00  0.00000000E+00
  0.00000000E+00  0.00000000E+00  0.00000000E+00
  0.00000000E+00  0.00000000E+00  0.00000000E+00
  0.00000000E+00  0.00000000E+00  0.00000000E+00
  0.00000000E+00  0.00000000E+00  0.00000000E+00
  0.00000000E+00  0.00000000E+00  0.00000000E+00
  0.00000000E+00  0.00000000E+00  0.00000000E+00
  0.00000000E+00  0.00000000E+00  0.00000000E+00
  0.00000000E+00  0.00000000E+00  0.00000000E+00
  0.00000000E+00  0.00000000E+00  0.00000000E+00
  0.00000000E+00  0.00000000E+00  0.00000000E+00
  0.00000000E+00  0.00000000E+00  0.00000000E+00
