Rh48 C6 Cl6                             
    1.000000000000000     
    10.8856652999999994    0.0000000000000000    0.0000000000000000
     0.0000000000000000   10.8856652999999994    0.0000000000000000
     0.0000000000000000    0.0000000000000000   16.5544572700000003
   Rh   C    Cl
    48     6     6
Selective dynamics
Direct
  0.0000029111797062  0.0000050544335153  0.4086928646336929   T   T   T
  0.9985839684047590  0.2510018916375856  0.4096300985442483   T   T   T
  0.0000033389391803  0.4999958050017455  0.4099910360590684   T   T   T
  0.0014216685016635  0.7489990226128214  0.4096279758139403   T   T   T
  0.2509977644896679  0.9985814320393303  0.4096297155155142   T   T   T
  0.2495877850053958  0.2495962493427299  0.4090409219619460   T   T   T
  0.2492117221981758  0.4999445843743473  0.4091508049913770   T   T   T
  0.2517786906256489  0.7482186876229235  0.4105149253622571   T   T   T
  0.5000024061582877  0.0000019068840871  0.4099905627510410   T   T   T
  0.4999480471414230  0.2492135737131917  0.4091509690237842   T   T   T
  0.4999959549213031  0.4999952220654578  0.4080559385499640   T   T   T
  0.5000533879703752  0.7507911068315494  0.4091569216852378   T   T   T
  0.7489968359335748  0.0014204960264692  0.4096287494679274   T   T   T
  0.7482224528956323  0.2517804007585553  0.4105132738823869   T   T   T
  0.7507896988001477  0.5000486915426308  0.4091548774042479   T   T   T
  0.7504091045061259  0.7504110856733419  0.4090418616957194   T   T   T
  0.1243577614220115  0.1243590236156820  0.5161019432449336   T   T   T
  0.1243204271921456  0.3731553466455111  0.5171002407478795   T   T   T
  0.1248295207297900  0.6252604584837371  0.5195393690102250   T   T   T
  0.1244473844506615  0.8755537545895038  0.5168059506092462   T   T   T
  0.3731535185467791  0.1243205022963920  0.5170957635476441   T   T   T
  0.3730363352413733  0.3730353237234141  0.5165392045469730   T   T   T
  0.3772551764060665  0.6227359712656408  0.5216342360834574   T   T   T
  0.3747392180151294  0.8751743678303612  0.5195387653599610   T   T   T
  0.6252599878757508  0.1248243309813901  0.5195358344318279   T   T   T
  0.6227445121428730  0.3772590169342038  0.5216371925947030   T   T   T
  0.6269611419177821  0.6269652154446490  0.5165443848082134   T   T   T
  0.6268451969301125  0.8756825689523211  0.5170927274914732   T   T   T
  0.8755536468047040  0.1244510976932531  0.5168084526243462   T   T   T
  0.8751772369535402  0.3747348083773687  0.5195324398369792   T   T   T
  0.8756816309555404  0.6268420212032098  0.5170988436630708   T   T   T
  0.8756404345738673  0.8756467783195063  0.5160953705045941   T   T   T
  0.1249999997703384  0.1249999997703384  0.3020334595360623   F   F   F
  0.1250000006889778  0.3750000002296616  0.3020334595360623   F   F   F
  0.1250000006889778  0.6250000006889778  0.3020334595360623   F   F   F
  0.1250000006889778  0.8750000011483010  0.3020334595360623   F   F   F
  0.3750000011483010  0.1249999997703384  0.3020334595360623   F   F   F
  0.3750000011483010  0.3750000002296616  0.3020334595360623   F   F   F
  0.3750000011483010  0.6250000006889778  0.3020334595360623   F   F   F
  0.3750000011483010  0.8750000011483010  0.3020334595360623   F   F   F
  0.6250000006889778  0.1249999997703384  0.3020334595360623   F   F   F
  0.6250000006889778  0.3750000002296616  0.3020334595360623   F   F   F
  0.6250000016076172  0.6250000006889778  0.3020334595360623   F   F   F
  0.6250000016076172  0.8750000011483010  0.3020334595360623   F   F   F
  0.8750000011483010  0.1249999997703384  0.3020334595360623   F   F   F
  0.8750000011483010  0.3750000002296616  0.3020334595360623   F   F   F
  0.8750000011483010  0.6250000006889778  0.3020334595360623   F   F   F
  0.8750000020669404  0.8750000011483010  0.3020334595360623   F   F   F
  0.6305034787196178  0.4642240496068695  0.6381139468877706   T   T   T
  0.5358115330165418  0.3694747587457528  0.6381194537883133   T   T   T
  0.4019191351726903  0.4019855374599786  0.6383206895210023   T   T   T
  0.3694618053890508  0.5357731062798194  0.6381208380442160   T   T   T
  0.4642141347090885  0.6305843721243960  0.6381236350745638   T   T   T
  0.5981167226413007  0.5980084502276952  0.6383204843496486   T   T   T
  0.7786924132367545  0.4267528869611894  0.6740967382552725   T   T   T
  0.5731991430106618  0.2212899383359925  0.6740856646056699   T   T   T
  0.3070437554914491  0.3070821249729576  0.6985321502051463   T   T   T
  0.2213197213311702  0.5732645542821757  0.6741002634218702   T   T   T
  0.4268213168355004  0.7787154662687215  0.6740677633765060   T   T   T
  0.6929537245871771  0.6929240497891200  0.6985403139041608   T   T   T
 
  0.00000000E+00  0.00000000E+00  0.00000000E+00
  0.00000000E+00  0.00000000E+00  0.00000000E+00
  0.00000000E+00  0.00000000E+00  0.00000000E+00
  0.00000000E+00  0.00000000E+00  0.00000000E+00
  0.00000000E+00  0.00000000E+00  0.00000000E+00
  0.00000000E+00  0.00000000E+00  0.00000000E+00
  0.00000000E+00  0.00000000E+00  0.00000000E+00
  0.00000000E+00  0.00000000E+00  0.00000000E+00
  0.00000000E+00  0.00000000E+00  0.00000000E+00
  0.00000000E+00  0.00000000E+00  0.00000000E+00
  0.00000000E+00  0.00000000E+00  0.00000000E+00
  0.00000000E+00  0.00000000E+00  0.00000000E+00
  0.00000000E+00  0.00000000E+00  0.00000000E+00
  0.00000000E+00  0.00000000E+00  0.00000000E+00
  0.00000000E+00  0.00000000E+00  0.00000000E+00
  0.00000000E+00  0.00000000E+00  0.00000000E+00
  0.00000000E+00  0.00000000E+00  0.00000000E+00
  0.00000000E+00  0.00000000E+00  0.00000000E+00
  0.00000000E+00  0.00000000E+00  0.00000000E+00
  0.00000000E+00  0.00000000E+00  0.00000000E+00
  0.00000000E+00  0.00000000E+00  0.00000000E+00
  0.00000000E+00  0.00000000E+00  0.00000000E+00
  0.00000000E+00  0.00000000E+00  0.00000000E+00
  0.00000000E+00  0.00000000E+00  0.00000000E+00
  0.00000000E+00  0.00000000E+00  0.00000000E+00
  0.00000000E+00  0.00000000E+00  0.00000000E+00
  0.00000000E+00  0.00000000E+00  0.00000000E+00
  0.00000000E+00  0.00000000E+00  0.00000000E+00
  0.00000000E+00  0.00000000E+00  0.00000000E+00
  0.00000000E+00  0.00000000E+00  0.00000000E+00
  0.00000000E+00  0.00000000E+00  0.00000000E+00
  0.00000000E+00  0.00000000E+00  0.00000000E+00
  0.00000000E+00  0.00000000E+00  0.00000000E+00
  0.00000000E+00  0.00000000E+00  0.00000000E+00
  0.00000000E+00  0.00000000E+00  0.00000000E+00
  0.00000000E+00  0.00000000E+00  0.00000000E+00
  0.00000000E+00  0.00000000E+00  0.00000000E+00
  0.00000000E+00  0.00000000E+00  0.00000000E+00
  0.00000000E+00  0.00000000E+00  0.00000000E+00
  0.00000000E+00  0.00000000E+00  0.00000000E+00
  0.00000000E+00  0.00000000E+00  0.00000000E+00
  0.00000000E+00  0.00000000E+00  0.00000000E+00
  0.00000000E+00  0.00000000E+00  0.00000000E+00
  0.00000000E+00  0.00000000E+00  0.00000000E+00
  0.00000000E+00  0.00000000E+00  0.00000000E+00
  0.00000000E+00  0.00000000E+00  0.00000000E+00
  0.00000000E+00  0.00000000E+00  0.00000000E+00
  0.00000000E+00  0.00000000E+00  0.00000000E+00
  0.00000000E+00  0.00000000E+00  0.00000000E+00
  0.00000000E+00  0.00000000E+00  0.00000000E+00
  0.00000000E+00  0.00000000E+00  0.00000000E+00
  0.00000000E+00  0.00000000E+00  0.00000000E+00
  0.00000000E+00  0.00000000E+00  0.00000000E+00
  0.00000000E+00  0.00000000E+00  0.00000000E+00
  0.00000000E+00  0.00000000E+00  0.00000000E+00
  0.00000000E+00  0.00000000E+00  0.00000000E+00
  0.00000000E+00  0.00000000E+00  0.00000000E+00
  0.00000000E+00  0.00000000E+00  0.00000000E+00
  0.00000000E+00  0.00000000E+00  0.00000000E+00
  0.00000000E+00  0.00000000E+00  0.00000000E+00
