Cu  C  H  F                             
    1.000000000000000     
    10.2424774999999997    0.0000000000000000    0.0000000000000000
     0.0000000000000000   10.2424774999999997    0.0000000000000000
     0.0000000000000000    0.0000000000000000   23.4318939600000000
   Cu   C    H    F 
    64     6     4     2
Selective dynamics
Direct
  0.2499999995118358  0.0000000000000000  0.3200765594451340   F   F   F
  0.0000000000000000  0.4999999990236716  0.3200765594451340   F   F   F
  0.2499999995118358  0.2499999995118358  0.3200765594451340   F   F   F
  0.2499999995118358  0.4999999990236716  0.3200765594451340   F   F   F
  0.2499999995118358  0.7499999985355075  0.3200765594451340   F   F   F
  0.4999999990236716  0.0000000000000000  0.3200765594451340   F   F   F
  0.4999999990236716  0.2499999995118358  0.3200765594451340   F   F   F
  0.0000000000000000  0.7499999985355075  0.3200765594451340   F   F   F
  0.4999999990236716  0.4999999990236716  0.3200765594451340   F   F   F
  0.4999999990236716  0.7499999985355075  0.3200765594451340   F   F   F
  0.7499999985355075  0.0000000000000000  0.3200765594451340   F   F   F
  0.7499999985355075  0.2499999995118358  0.3200765594451340   F   F   F
  0.7499999985355075  0.4999999990236716  0.3200765594451340   F   F   F
  0.7499999985355075  0.7499999985355075  0.3200765594451340   F   F   F
  0.0000000000000000  0.0000000000000000  0.3200765594451340   F   F   F
  0.0000000000000000  0.2499999995118358  0.3200765594451340   F   F   F
  0.2498536915696616  0.0000172737985356  0.4741245438355320   T   T   T
  0.2499451545806425  0.2499484735033138  0.4741438473781354   T   T   T
  0.2499634609823936  0.5000818550761418  0.4741818378214636   T   T   T
  0.2500660378747504  0.7499400701556648  0.4740906023718010   T   T   T
  0.4999978394549770  0.0000040273816742  0.4739989968887791   T   T   T
  0.5000801930121600  0.2499649960091729  0.4741817966799463   T   T   T
  0.4999748026859729  0.4999812548111668  0.4741689659332693   T   T   T
  0.4999082533261114  0.7500430642296728  0.4741844184371295   T   T   T
  0.7501422426502542 -0.0000072089621703  0.4741286922456260   T   T   T
  0.7499353100569823  0.2500601987848959  0.4740963853186528   T   T   T
  0.7500447847408129  0.4999050041794078  0.4741848635126587   T   T   T
  0.7500468666882398  0.7500597609540897  0.4741503250327360   T   T   T
  0.0000020474538312  0.0000048554941149  0.4741846788328761   T   T   T
  0.0000166927415153  0.2498551673502491  0.4741251468255454   T   T   T
  0.0000121946495539  0.4999920019720375  0.4739994939942019   T   T   T
 -0.0000012737644282  0.7501407829724758  0.4741283194944806   T   T   T
  0.1250341930864209  0.1250303575542476  0.5495829847376897   T   T   T
  0.1247413558274042  0.3751816389679619  0.5495014024318197   T   T   T
  0.1247867364557660  0.6249887302136646  0.5494150494378741   T   T   T
  0.1252379580698322  0.8747602184612299  0.5496759793175263   T   T   T
  0.3752006645207003  0.1247311371254121  0.5494902796582166   T   T   T
  0.3748795392901273  0.3748788378005975  0.5489930710719412   T   T   T
  0.3745691579146498  0.6254289536258421  0.5497398586837962   T   T   T
  0.3749952576500446  0.8752257536508475  0.5494133302811234   T   T   T
  0.6249906489871900  0.1247844263564582  0.5494145581910791   T   T   T
  0.6254283603244866  0.3745697614670466  0.5497452987699153   T   T   T
  0.6251184611164241  0.6251162077436179  0.5489939068592393   T   T   T
  0.6248061647925536  0.8752656488691215  0.5495023845908257   T   T   T
  0.8747623124299327  0.1252388603383100  0.5496714252715960   T   T   T
  0.8752259069260304  0.3749955710215636  0.5494126521619862   T   T   T
  0.8752791796509194  0.6248024152268115  0.5494957112035979   T   T   T
  0.8749761705137385  0.8749739759164202  0.5495869783087581   T   T   T
  0.1250000002440785  0.1249999992677573  0.3973486452223582   F   F   F
  0.1250000002440785  0.3749999997559215  0.3973486452223582   F   F   F
  0.1250000002440785  0.6249999982914289  0.3973486452223582   F   F   F
  0.1250000002440785  0.8749999987795931  0.3973486452223582   F   F   F
  0.3749999997559215  0.1249999992677573  0.3973486452223582   F   F   F
  0.3749999997559215  0.3749999997559215  0.3973486452223582   F   F   F
  0.3749999997559215  0.6249999982914289  0.3973486452223582   F   F   F
  0.3749999997559215  0.8749999987795931  0.3973486452223582   F   F   F
  0.6249999982914289  0.1249999992677573  0.3973486452223582   F   F   F
  0.6249999982914289  0.3749999997559215  0.3973486452223582   F   F   F
  0.6249999992677573  0.6249999982914289  0.3973486452223582   F   F   F
  0.6249999992677573  0.8749999987795931  0.3973486452223582   F   F   F
  0.8749999987795931  0.1249999992677573  0.3973486452223582   F   F   F
  0.8749999978032648  0.3749999997559215  0.3973486452223582   F   F   F
  0.8749999987795931  0.6249999982914289  0.3973486452223582   F   F   F
  0.8749999987795931  0.8749999987795931  0.3973486452223582   F   F   F
  0.5946312970535174  0.5946257665004510  0.6692753228732701   T   T   T
  0.6328042677720211  0.4640146202569849  0.6678133911932357   T   T   T
  0.5360014823848805  0.3671865676021946  0.6678104564742220   T   T   T
  0.4053225641729311  0.4053156936591359  0.6692446109253936   T   T   T
  0.3671698961359339  0.5359721291287816  0.6678113392458143   T   T   T
  0.4639948996609881  0.6327881447431445  0.6678119400795332   T   T   T
  0.7360686377445494  0.4383998449736595  0.6679532862478381   T   T   T
  0.5614636387551790  0.2638703463399959  0.6679423474401268   T   T   T
  0.2638437904519694  0.5615013037060561  0.6679413815563724   T   T   T
  0.4384208305422592  0.7360672863037451  0.6679451972322209   T   T   T
  0.6885567325075190  0.6884949163229597  0.6732954829410631   T   T   T
  0.3113159783445699  0.3113673769174695  0.6732978259356812   T   T   T
 
  0.00000000E+00  0.00000000E+00  0.00000000E+00
  0.00000000E+00  0.00000000E+00  0.00000000E+00
  0.00000000E+00  0.00000000E+00  0.00000000E+00
  0.00000000E+00  0.00000000E+00  0.00000000E+00
  0.00000000E+00  0.00000000E+00  0.00000000E+00
  0.00000000E+00  0.00000000E+00  0.00000000E+00
  0.00000000E+00  0.00000000E+00  0.00000000E+00
  0.00000000E+00  0.00000000E+00  0.00000000E+00
  0.00000000E+00  0.00000000E+00  0.00000000E+00
  0.00000000E+00  0.00000000E+00  0.00000000E+00
  0.00000000E+00  0.00000000E+00  0.00000000E+00
  0.00000000E+00  0.00000000E+00  0.00000000E+00
  0.00000000E+00  0.00000000E+00  0.00000000E+00
  0.00000000E+00  0.00000000E+00  0.00000000E+00
  0.00000000E+00  0.00000000E+00  0.00000000E+00
  0.00000000E+00  0.00000000E+00  0.00000000E+00
  0.00000000E+00  0.00000000E+00  0.00000000E+00
  0.00000000E+00  0.00000000E+00  0.00000000E+00
  0.00000000E+00  0.00000000E+00  0.00000000E+00
  0.00000000E+00  0.00000000E+00  0.00000000E+00
  0.00000000E+00  0.00000000E+00  0.00000000E+00
  0.00000000E+00  0.00000000E+00  0.00000000E+00
  0.00000000E+00  0.00000000E+00  0.00000000E+00
  0.00000000E+00  0.00000000E+00  0.00000000E+00
  0.00000000E+00  0.00000000E+00  0.00000000E+00
  0.00000000E+00  0.00000000E+00  0.00000000E+00
  0.00000000E+00  0.00000000E+00  0.00000000E+00
  0.00000000E+00  0.00000000E+00  0.00000000E+00
  0.00000000E+00  0.00000000E+00  0.00000000E+00
  0.00000000E+00  0.00000000E+00  0.00000000E+00
  0.00000000E+00  0.00000000E+00  0.00000000E+00
  0.00000000E+00  0.00000000E+00  0.00000000E+00
  0.00000000E+00  0.00000000E+00  0.00000000E+00
  0.00000000E+00  0.00000000E+00  0.00000000E+00
  0.00000000E+00  0.00000000E+00  0.00000000E+00
  0.00000000E+00  0.00000000E+00  0.00000000E+00
  0.00000000E+00  0.00000000E+00  0.00000000E+00
  0.00000000E+00  0.00000000E+00  0.00000000E+00
  0.00000000E+00  0.00000000E+00  0.00000000E+00
  0.00000000E+00  0.00000000E+00  0.00000000E+00
  0.00000000E+00  0.00000000E+00  0.00000000E+00
  0.00000000E+00  0.00000000E+00  0.00000000E+00
  0.00000000E+00  0.00000000E+00  0.00000000E+00
  0.00000000E+00  0.00000000E+00  0.00000000E+00
  0.00000000E+00  0.00000000E+00  0.00000000E+00
  0.00000000E+00  0.00000000E+00  0.00000000E+00
  0.00000000E+00  0.00000000E+00  0.00000000E+00
  0.00000000E+00  0.00000000E+00  0.00000000E+00
  0.00000000E+00  0.00000000E+00  0.00000000E+00
  0.00000000E+00  0.00000000E+00  0.00000000E+00
  0.00000000E+00  0.00000000E+00  0.00000000E+00
  0.00000000E+00  0.00000000E+00  0.00000000E+00
  0.00000000E+00  0.00000000E+00  0.00000000E+00
  0.00000000E+00  0.00000000E+00  0.00000000E+00
  0.00000000E+00  0.00000000E+00  0.00000000E+00
  0.00000000E+00  0.00000000E+00  0.00000000E+00
  0.00000000E+00  0.00000000E+00  0.00000000E+00
  0.00000000E+00  0.00000000E+00  0.00000000E+00
  0.00000000E+00  0.00000000E+00  0.00000000E+00
  0.00000000E+00  0.00000000E+00  0.00000000E+00
  0.00000000E+00  0.00000000E+00  0.00000000E+00
  0.00000000E+00  0.00000000E+00  0.00000000E+00
  0.00000000E+00  0.00000000E+00  0.00000000E+00
  0.00000000E+00  0.00000000E+00  0.00000000E+00
  0.00000000E+00  0.00000000E+00  0.00000000E+00
  0.00000000E+00  0.00000000E+00  0.00000000E+00
  0.00000000E+00  0.00000000E+00  0.00000000E+00
  0.00000000E+00  0.00000000E+00  0.00000000E+00
  0.00000000E+00  0.00000000E+00  0.00000000E+00
  0.00000000E+00  0.00000000E+00  0.00000000E+00
  0.00000000E+00  0.00000000E+00  0.00000000E+00
  0.00000000E+00  0.00000000E+00  0.00000000E+00
  0.00000000E+00  0.00000000E+00  0.00000000E+00
  0.00000000E+00  0.00000000E+00  0.00000000E+00
  0.00000000E+00  0.00000000E+00  0.00000000E+00
  0.00000000E+00  0.00000000E+00  0.00000000E+00
