Ag48 C4 N2 Br4                          
    1.000000000000000     
    11.7702790000000004    0.0000000000000000    0.0000000000000000
     0.0000000000000000   11.7702790000000004    0.0000000000000000
     0.0000000000000000    0.0000000000000000   16.7990261099999998
   Ag   C    N    Br
    48     4     2     4
Selective dynamics
Direct
  0.0001989681848613  0.2496785402996906  0.4104182785280059   T   T   T
  0.0000006287490493  0.4999996013094687  0.4103912909334042   T   T   T
  0.9997997918761143  0.7503196430334711  0.4104176780575486   T   T   T
  0.9999981380560854  0.0000015500249333  0.4104380326385169   T   T   T
  0.2499273337047754  0.2499279804297601  0.4106260675593418   T   T   T
  0.2492456073309839  0.4995478340483572  0.4100637913703267   T   T   T
  0.2495901581869973  0.7504095079417752  0.4100670611126702   T   T   T
  0.2496800706590037  0.0002000195895278  0.4104183787787505   T   T   T
  0.4995483682192230  0.2492451242881870  0.4100640781564024   T   T   T
  0.4999996298965996  0.5000003615633233  0.4100192754225276   T   T   T
  0.5004527239267489  0.7507543390983926  0.4100643581507057   T   T   T
  0.5000012135014273  0.9999993103031954  0.4103918491722638   T   T   T
  0.7504118489153626  0.2495875801267644  0.4100675116254635   T   T   T
  0.7507549110221987  0.5004517802445747  0.4100641393416993   T   T   T
  0.7500719411787173  0.7500729428256960  0.4106258924077224   T   T   T
  0.7503210016611277  0.9998009532658472  0.4104180853422577   T   T   T
  0.1248872693853329  0.1248876844552953  0.5235013960754245   T   T   T
  0.1247115829806447  0.3749133264486701  0.5235307941219105   T   T   T
  0.1242437251137218  0.6253740966566639  0.5228802589384287   T   T   T
  0.1248219061342368  0.8751770996587069  0.5233476265001826   T   T   T
  0.3749133358140071  0.1247115125700589  0.5235315521658563   T   T   T
  0.3746548532359171  0.3746553342995895  0.5230037891156982   T   T   T
  0.3750389935137690  0.6249609350248662  0.5206824145696558   T   T   T
  0.3746251492841708  0.8757553459153442  0.5228805634525386   T   T   T
  0.6253750424445101  0.1242443322587548  0.5228802867241171   T   T   T
  0.6249615093926195  0.3750386845215274  0.5206810417149370   T   T   T
  0.6253460466399687  0.6253439504093095  0.5230035388929437   T   T   T
  0.6250875040858404  0.8752880660022271  0.5235307284826760   T   T   T
  0.8751777376239929  0.1248225168685480  0.5233486006097863   T   T   T
  0.8757561380829983  0.3746258779416536  0.5228794349350139   T   T   T
  0.8752888412099225  0.6250863913801794  0.5235307310896715   T   T   T
  0.8751127444249960  0.8751120557234628  0.5235000287167750   T   T   T
  0.1249999995752020  0.1249999995752020  0.2976363014891490   F   F   F
  0.1249999995752020  0.3749999987256061  0.2976363014891490   F   F   F
  0.1249999995752020  0.6249999978760030  0.2976363014891490   F   F   F
  0.1249999995752020  0.8749999970264071  0.2976363014891490   F   F   F
  0.3749999987256061  0.1249999995752020  0.2976363014891490   F   F   F
  0.3749999987256061  0.3749999987256061  0.2976363014891490   F   F   F
  0.3749999987256061  0.6249999978760030  0.2976363014891490   F   F   F
  0.3749999987256061  0.8749999970264071  0.2976363014891490   F   F   F
  0.6249999978760030  0.1249999995752020  0.2976363014891490   F   F   F
  0.6249999978760030  0.3749999987256061  0.2976363014891490   F   F   F
  0.6249999978760030  0.6249999978760030  0.2976363014891490   F   F   F
  0.6249999978760030  0.8749999970264071  0.2976363014891490   F   F   F
  0.8749999970264071  0.1249999995752020  0.2976363014891490   F   F   F
  0.8749999970264071  0.3749999987256061  0.2976363014891490   F   F   F
  0.8749999970264071  0.6249999978760030  0.2976363014891490   F   F   F
  0.8749999970264071  0.8749999970264071  0.2976363014891490   F   F   F
  0.5265098534109356  0.3888632608439266  0.7025433842347084   T   T   T
  0.6111119509465652  0.4734787677636803  0.7025448153256093   T   T   T
  0.4734907403395923  0.6111373035585643  0.7025414786900868   T   T   T
  0.3888913795497970  0.5265238066064697  0.7025421634067754   T   T   T
  0.5827318118038676  0.5826943450770656  0.7023155634099254   T   T   T
  0.4172760053193869  0.4173095647631726  0.7023148742751104   T   T   T
  0.2313086337299168  0.5606556241115044  0.7036372231701193   T   T   T
  0.4394185354938287  0.7686992568431421  0.7036340899530913   T   T   T
  0.5605847155589814  0.2313059122190566  0.7036391195607337   T   T   T
  0.7686950286686240  0.4393482355378211  0.7036429353115778   T   T   T
 
  0.00000000E+00  0.00000000E+00  0.00000000E+00
  0.00000000E+00  0.00000000E+00  0.00000000E+00
  0.00000000E+00  0.00000000E+00  0.00000000E+00
  0.00000000E+00  0.00000000E+00  0.00000000E+00
  0.00000000E+00  0.00000000E+00  0.00000000E+00
  0.00000000E+00  0.00000000E+00  0.00000000E+00
  0.00000000E+00  0.00000000E+00  0.00000000E+00
  0.00000000E+00  0.00000000E+00  0.00000000E+00
  0.00000000E+00  0.00000000E+00  0.00000000E+00
  0.00000000E+00  0.00000000E+00  0.00000000E+00
  0.00000000E+00  0.00000000E+00  0.00000000E+00
  0.00000000E+00  0.00000000E+00  0.00000000E+00
  0.00000000E+00  0.00000000E+00  0.00000000E+00
  0.00000000E+00  0.00000000E+00  0.00000000E+00
  0.00000000E+00  0.00000000E+00  0.00000000E+00
  0.00000000E+00  0.00000000E+00  0.00000000E+00
  0.00000000E+00  0.00000000E+00  0.00000000E+00
  0.00000000E+00  0.00000000E+00  0.00000000E+00
  0.00000000E+00  0.00000000E+00  0.00000000E+00
  0.00000000E+00  0.00000000E+00  0.00000000E+00
  0.00000000E+00  0.00000000E+00  0.00000000E+00
  0.00000000E+00  0.00000000E+00  0.00000000E+00
  0.00000000E+00  0.00000000E+00  0.00000000E+00
  0.00000000E+00  0.00000000E+00  0.00000000E+00
  0.00000000E+00  0.00000000E+00  0.00000000E+00
  0.00000000E+00  0.00000000E+00  0.00000000E+00
  0.00000000E+00  0.00000000E+00  0.00000000E+00
  0.00000000E+00  0.00000000E+00  0.00000000E+00
  0.00000000E+00  0.00000000E+00  0.00000000E+00
  0.00000000E+00  0.00000000E+00  0.00000000E+00
  0.00000000E+00  0.00000000E+00  0.00000000E+00
  0.00000000E+00  0.00000000E+00  0.00000000E+00
  0.00000000E+00  0.00000000E+00  0.00000000E+00
  0.00000000E+00  0.00000000E+00  0.00000000E+00
  0.00000000E+00  0.00000000E+00  0.00000000E+00
  0.00000000E+00  0.00000000E+00  0.00000000E+00
  0.00000000E+00  0.00000000E+00  0.00000000E+00
  0.00000000E+00  0.00000000E+00  0.00000000E+00
  0.00000000E+00  0.00000000E+00  0.00000000E+00
  0.00000000E+00  0.00000000E+00  0.00000000E+00
  0.00000000E+00  0.00000000E+00  0.00000000E+00
  0.00000000E+00  0.00000000E+00  0.00000000E+00
  0.00000000E+00  0.00000000E+00  0.00000000E+00
  0.00000000E+00  0.00000000E+00  0.00000000E+00
  0.00000000E+00  0.00000000E+00  0.00000000E+00
  0.00000000E+00  0.00000000E+00  0.00000000E+00
  0.00000000E+00  0.00000000E+00  0.00000000E+00
  0.00000000E+00  0.00000000E+00  0.00000000E+00
  0.00000000E+00  0.00000000E+00  0.00000000E+00
  0.00000000E+00  0.00000000E+00  0.00000000E+00
  0.00000000E+00  0.00000000E+00  0.00000000E+00
  0.00000000E+00  0.00000000E+00  0.00000000E+00
  0.00000000E+00  0.00000000E+00  0.00000000E+00
  0.00000000E+00  0.00000000E+00  0.00000000E+00
  0.00000000E+00  0.00000000E+00  0.00000000E+00
  0.00000000E+00  0.00000000E+00  0.00000000E+00
  0.00000000E+00  0.00000000E+00  0.00000000E+00
  0.00000000E+00  0.00000000E+00  0.00000000E+00
