Pd48 C6 F6                              
    1.000000000000000     
    11.1817229999999999    0.0000000000000000    0.0000000000000000
     0.0000000000000000   11.1817229999999999    0.0000000000000000
     0.0000000000000000    0.0000000000000000   16.9003602499999985
   Pd   C    F 
    48     6     6
Selective dynamics
Direct
  0.9999737978826744  0.2501569256266123  0.4112303267998811   T   T   T
  0.0000000000000000  0.4999999982113650  0.4112194345652540   T   T   T
  0.0000262021173256  0.7498430707961177  0.4112303267998811   T   T   T
  0.0000000000000000  0.0000000000000000  0.4111259301594217   T   T   T
  0.2497947308261175  0.2497942044952168  0.4110698208163015   T   T   T
  0.2490995762364676  0.4999967488752830  0.4106576776405504   T   T   T
  0.2497113078175488  0.7502892448762282  0.4109858814138789   T   T   T
  0.2501566605968009  0.9999738150050845  0.4112307503020887   T   T   T
  0.4999967780026395  0.2491001303761635  0.4106578653112294   T   T   T
  0.4999999982113650  0.4999999982113650  0.4102606370266244   T   T   T
  0.5000032184200904  0.7508998660465664  0.4106578653112294   T   T   T
  0.4999999982113650  0.0000000000000000  0.4112207132079320   T   T   T
  0.7502886886051812  0.2497107515465018  0.4109858814138789   T   T   T
  0.7509004201862624  0.5000032475474470  0.4106576776405504   T   T   T
  0.7502052655966125  0.7502057919275131  0.4110698208163015   T   T   T
  0.7498433358259291  0.0000261849949155  0.4112307503020887   T   T   T
  0.1250049292437865  0.1250054021802569  0.5264365451912028   T   T   T
  0.1250440608323728  0.3750645580362004  0.5265456712859660   T   T   T
  0.1249602432080010  0.6249531697899116  0.5266863554668717   T   T   T
  0.1249659256634033  0.8750342090892289  0.5264156908857629   T   T   T
  0.3750646355212339  0.1250448280771721  0.5265448545548708   T   T   T
  0.3753811689976416  0.3753807362955257  0.5243877364178147   T   T   T
  0.3747467635027704  0.6252540798332902  0.5240593313612862   T   T   T
  0.3750462224337454  0.8750384258056982  0.5266849259882562   T   T   T
  0.6249537739889846  0.1249615706170317  0.5266849259882562   T   T   T
  0.6252532329199596  0.3747459165894469  0.5240593313612862   T   T   T
  0.6246188274250883  0.6246192601272043  0.5243877364178147   T   T   T
  0.6249353609014960  0.8749551683455579  0.5265448545548708   T   T   T
  0.8750340707593267  0.1249657873335011  0.5264156908857629   T   T   T
  0.8750397532147289  0.3750468266328184  0.5266863554668717   T   T   T
  0.8749559355903571  0.6249354383865295  0.5265456712859660   T   T   T
  0.8749950671789435  0.8749945942424731  0.5264365451912028   T   T   T
  0.1249999995528412  0.1249999995528412  0.2958516816231764   F   F   F
  0.1249999995528412  0.3749999986585237  0.2958516816231764   F   F   F
  0.1249999995528412  0.6249999977642062  0.2958516816231764   F   F   F
  0.1249999995528412  0.8749999968698887  0.2958516816231764   F   F   F
  0.3749999986585237  0.1249999995528412  0.2958516816231764   F   F   F
  0.3749999986585237  0.3749999986585237  0.2958516816231764   F   F   F
  0.3749999986585237  0.6249999977642062  0.2958516816231764   F   F   F
  0.3749999986585237  0.8749999968698887  0.2958516816231764   F   F   F
  0.6249999977642062  0.1249999995528412  0.2958516816231764   F   F   F
  0.6249999977642062  0.3749999986585237  0.2958516816231764   F   F   F
  0.6249999977642062  0.6249999977642062  0.2958516816231764   F   F   F
  0.6249999977642062  0.8749999968698887  0.2958516816231764   F   F   F
  0.8749999968698887  0.1249999995528412  0.2958516816231764   F   F   F
  0.8749999968698887  0.3749999986585237  0.2958516816231764   F   F   F
  0.8749999968698887  0.6249999977642062  0.2958516816231764   F   F   F
  0.8749999968698887  0.8749999968698887  0.2958516816231764   F   F   F
  0.3792729550576723  0.5323720799671818  0.7031671396623125   T   T   T
  0.4676489157737365  0.6207310523573355  0.7031674148553790   T   T   T
  0.5884065678293382  0.5883880481507049  0.7028948579017325   T   T   T
  0.6207270127469329  0.4676279030407997  0.7031671396623125   T   T   T
  0.5323511083728079  0.3792689574801500  0.7031674148553790   T   T   T
  0.4115934285933918  0.4116119482720180  0.7028948579017325   T   T   T
  0.2629689452388746  0.5630172865189280  0.7062756873712317   T   T   T
  0.4369743863532847  0.7370261040301642  0.7062760107474730   T   T   T
  0.6734956659481597  0.6735064195665146  0.7075978100140219   T   T   T
  0.7370310511838554  0.4369827099038091  0.7062756873712317   T   T   T
  0.5630256798261399  0.2629739102789017  0.7062760107474730   T   T   T
  0.3265043581983917  0.3264935902709709  0.7075978100140219   T   T   T
 
  0.00000000E+00  0.00000000E+00  0.00000000E+00
  0.00000000E+00  0.00000000E+00  0.00000000E+00
  0.00000000E+00  0.00000000E+00  0.00000000E+00
  0.00000000E+00  0.00000000E+00  0.00000000E+00
  0.00000000E+00  0.00000000E+00  0.00000000E+00
  0.00000000E+00  0.00000000E+00  0.00000000E+00
  0.00000000E+00  0.00000000E+00  0.00000000E+00
  0.00000000E+00  0.00000000E+00  0.00000000E+00
  0.00000000E+00  0.00000000E+00  0.00000000E+00
  0.00000000E+00  0.00000000E+00  0.00000000E+00
  0.00000000E+00  0.00000000E+00  0.00000000E+00
  0.00000000E+00  0.00000000E+00  0.00000000E+00
  0.00000000E+00  0.00000000E+00  0.00000000E+00
  0.00000000E+00  0.00000000E+00  0.00000000E+00
  0.00000000E+00  0.00000000E+00  0.00000000E+00
  0.00000000E+00  0.00000000E+00  0.00000000E+00
  0.00000000E+00  0.00000000E+00  0.00000000E+00
  0.00000000E+00  0.00000000E+00  0.00000000E+00
  0.00000000E+00  0.00000000E+00  0.00000000E+00
  0.00000000E+00  0.00000000E+00  0.00000000E+00
  0.00000000E+00  0.00000000E+00  0.00000000E+00
  0.00000000E+00  0.00000000E+00  0.00000000E+00
  0.00000000E+00  0.00000000E+00  0.00000000E+00
  0.00000000E+00  0.00000000E+00  0.00000000E+00
  0.00000000E+00  0.00000000E+00  0.00000000E+00
  0.00000000E+00  0.00000000E+00  0.00000000E+00
  0.00000000E+00  0.00000000E+00  0.00000000E+00
  0.00000000E+00  0.00000000E+00  0.00000000E+00
  0.00000000E+00  0.00000000E+00  0.00000000E+00
  0.00000000E+00  0.00000000E+00  0.00000000E+00
  0.00000000E+00  0.00000000E+00  0.00000000E+00
  0.00000000E+00  0.00000000E+00  0.00000000E+00
  0.00000000E+00  0.00000000E+00  0.00000000E+00
  0.00000000E+00  0.00000000E+00  0.00000000E+00
  0.00000000E+00  0.00000000E+00  0.00000000E+00
  0.00000000E+00  0.00000000E+00  0.00000000E+00
  0.00000000E+00  0.00000000E+00  0.00000000E+00
  0.00000000E+00  0.00000000E+00  0.00000000E+00
  0.00000000E+00  0.00000000E+00  0.00000000E+00
  0.00000000E+00  0.00000000E+00  0.00000000E+00
  0.00000000E+00  0.00000000E+00  0.00000000E+00
  0.00000000E+00  0.00000000E+00  0.00000000E+00
  0.00000000E+00  0.00000000E+00  0.00000000E+00
  0.00000000E+00  0.00000000E+00  0.00000000E+00
  0.00000000E+00  0.00000000E+00  0.00000000E+00
  0.00000000E+00  0.00000000E+00  0.00000000E+00
  0.00000000E+00  0.00000000E+00  0.00000000E+00
  0.00000000E+00  0.00000000E+00  0.00000000E+00
  0.00000000E+00  0.00000000E+00  0.00000000E+00
  0.00000000E+00  0.00000000E+00  0.00000000E+00
  0.00000000E+00  0.00000000E+00  0.00000000E+00
  0.00000000E+00  0.00000000E+00  0.00000000E+00
  0.00000000E+00  0.00000000E+00  0.00000000E+00
  0.00000000E+00  0.00000000E+00  0.00000000E+00
  0.00000000E+00  0.00000000E+00  0.00000000E+00
  0.00000000E+00  0.00000000E+00  0.00000000E+00
  0.00000000E+00  0.00000000E+00  0.00000000E+00
  0.00000000E+00  0.00000000E+00  0.00000000E+00
  0.00000000E+00  0.00000000E+00  0.00000000E+00
  0.00000000E+00  0.00000000E+00  0.00000000E+00
