Pt  C  H Br                             
   1.00000000000000     
    11.2480069999999994    0.0000000000000000    0.0000000000000000
    -5.6240030000000001    9.7410599999999992    0.0000000000000000
     0.0000000000000000    0.0000000000000000   24.8879693399999979
   Pt   C    H    Br
    64     6     2     4
Selective dynamics
Direct
  0.9999999587182344  0.7499999743354451  0.3013504194553178   F   F   F
  0.2499999964438118  0.0000000000000000  0.3013504194553178   F   F   F
  0.2499999825579735  0.2499999917873410  0.3013504194553178   F   F   F
  0.2499999690478916  0.4999999825481041  0.3013504194553178   F   F   F
  0.2499999551620533  0.7499999743354451  0.3013504194553178   F   F   F
  0.4999999928876306  0.0000000000000000  0.3013504194553178   F   F   F
  0.4999999790017924  0.2499999917873410  0.3013504194553178   F   F   F
  0.4999999654917033  0.4999999825481041  0.3013504194553178   F   F   F
  0.7499999893314424  0.0000000000000000  0.3013504194553178   F   F   F
  0.7499999754456042  0.2499999917873410  0.3013504194553178   F   F   F
  0.7499999619355222  0.4999999825481041  0.3013504194553178   F   F   F
  0.7499999480496840  0.7499999743354451  0.3013504194553178   F   F   F
  0.0000000000000000  0.0000000000000000  0.3013504194553178   F   F   F
  0.9999999861141617  0.2499999917873410  0.3013504194553178   F   F   F
  0.9999999583793340  0.4999999825481041  0.3013504194553178   F   F   F
  0.4999999516058651  0.7499999743354451  0.3013504194553178   F   F   F
  0.0833330000000032  0.1666669999999968  0.3936034172243978   F   F   F
  0.0833330000000032  0.4166669999999968  0.3936034172243978   F   F   F
  0.0833330000000032  0.6666669999999968  0.3936034172243978   F   F   F
  0.0833330000000032  0.9166669999999968  0.3936034172243978   F   F   F
  0.3333330000000032  0.1666669999999968  0.3936034172243978   F   F   F
  0.3333330000000032  0.4166669999999968  0.3936034172243978   F   F   F
  0.3333330000000032  0.6666669999999968  0.3936034172243978   F   F   F
  0.3333330000000032  0.9166669999999968  0.3936034172243978   F   F   F
  0.5833330000000032  0.1666669999999968  0.3936034172243978   F   F   F
  0.5833330000000032  0.4166669999999968  0.3936034172243978   F   F   F
  0.5833330000000032  0.6666669999999968  0.3936034172243978   F   F   F
  0.5833330000000032  0.9166669999999968  0.3936034172243978   F   F   F
  0.8333330000000032  0.1666669999999968  0.3936034172243978   F   F   F
  0.8333330000000032  0.4166669999999968  0.3936034172243978   F   F   F
  0.8333330000000032  0.6666669999999968  0.3936034172243978   F   F   F
  0.8333330000000032  0.9166669999999968  0.3936034172243978   F   F   F
  0.2444013664720880  0.2453636357908925  0.5773536744902953   T   T   T
  0.2408193278017605  0.4981210944948846  0.5782527755563420   T   T   T
  0.2508320777414852  0.7509273941580099  0.5793011690851568   T   T   T
  0.2503096685942717  0.9996685824550942  0.5783223445285317   T   T   T
  0.4967755661452138  0.2419112613667175  0.5777787388363265   T   T   T
  0.4896193675306106  0.4920727086324189  0.5816851543115525   T   T   T
  0.4988563140313197  0.7511601661610822  0.5830566981990737   T   T   T
  0.4990802604384464  0.9991545409914349  0.5793123358983658   T   T   T
  0.7493130053489476  0.2521097919565195  0.5790137009005391   T   T   T
  0.7486411949043489  0.5013556803924976  0.5824521274571024   T   T   T
  0.7579340818478043  0.7603839575712961  0.5816867444867281   T   T   T
  0.7518801258946320  0.0091588910325025  0.5782411355118703   T   T   T
  0.9982710034196551  0.2517155547399160  0.5783106931828187   T   T   T
  0.9978737431822932  0.5006856604364130  0.5790137460185620   T   T   T
  0.0080794489886520  0.7532133163453201  0.5777635491317870   T   T   T
  0.0046142392304492  0.0055775987094635  0.5773508392679660   T   T   T
  0.1675228340175073  0.0824655643397668  0.4839686913529400   T   T   T
  0.1660362721595127  0.3333487783732010  0.4845594574267976   T   T   T
  0.1661519221706859  0.5835196696077272  0.4851346502177962   T   T   T
  0.1672764080708060  0.8324825827277629  0.4843031174792905   T   T   T
  0.4175015825216188  0.0827067237414906  0.4843112635361658   T   T   T
  0.4176889757415871  0.3352806168842001  0.4860047838808867   T   T   T
  0.4169620018066382  0.5826672210653242  0.4870109898963727   T   T   T
  0.4187850408575866  0.8312060897603972  0.4869040479503660   T   T   T
  0.6664678818922822  0.0838407573097754  0.4851321012690060   T   T   T
  0.6667788551725968  0.3358581266345528  0.4863841323238106   T   T   T
  0.6655542324635652  0.5844649114254932  0.4870546632053554   T   T   T
  0.6673308788645427  0.8330245017485347  0.4870068946398171   T   T   T
  0.9166536794704365  0.0839711033345888  0.4845551310166530   T   T   T
  0.9157327669145308  0.3342747377723068  0.4851713855944564   T   T   T
  0.9141510815441242  0.5832238973488384  0.4863821095845152   T   T   T
  0.9147152781786080  0.8323077370861722  0.4860002739130929   T   T   T
  0.7034422283570945  0.5465220377538246  0.6602578774543486   T   T   T
  0.5510299755911864  0.4781978190379508  0.6615786008654811   T   T   T
  0.4771628257324989  0.5525910887398497  0.6618349420603489   T   T   T
  0.5451000973658797  0.7049181442260032  0.6606539182126142   T   T   T
  0.6974627888814685  0.7728678603446381  0.6618427170172106   T   T   T
  0.7719096620928773  0.6990171830683590  0.6615842333633059   T   T   T
  0.7467148930152109  0.5032692844283611  0.6884238581900368   T   T   T
  0.5021097494894793  0.7479496399531556  0.6890412766350796   T   T   T
  0.4696473853205562  0.2940804895442664  0.6911926924492401   T   T   T
  0.2928951133243997  0.4706445984279218  0.6910029883703566   T   T   T
  0.7793492743305301  0.9570750679749644  0.6910177378486784   T   T   T
  0.9559613666687755  0.7803588770400813  0.6911534694254122   T   T   T
 
  0.00000000E+00  0.00000000E+00  0.00000000E+00
  0.00000000E+00  0.00000000E+00  0.00000000E+00
  0.00000000E+00  0.00000000E+00  0.00000000E+00
  0.00000000E+00  0.00000000E+00  0.00000000E+00
  0.00000000E+00  0.00000000E+00  0.00000000E+00
  0.00000000E+00  0.00000000E+00  0.00000000E+00
  0.00000000E+00  0.00000000E+00  0.00000000E+00
  0.00000000E+00  0.00000000E+00  0.00000000E+00
  0.00000000E+00  0.00000000E+00  0.00000000E+00
  0.00000000E+00  0.00000000E+00  0.00000000E+00
  0.00000000E+00  0.00000000E+00  0.00000000E+00
  0.00000000E+00  0.00000000E+00  0.00000000E+00
  0.00000000E+00  0.00000000E+00  0.00000000E+00
  0.00000000E+00  0.00000000E+00  0.00000000E+00
  0.00000000E+00  0.00000000E+00  0.00000000E+00
  0.00000000E+00  0.00000000E+00  0.00000000E+00
  0.00000000E+00  0.00000000E+00  0.00000000E+00
  0.00000000E+00  0.00000000E+00  0.00000000E+00
  0.00000000E+00  0.00000000E+00  0.00000000E+00
  0.00000000E+00  0.00000000E+00  0.00000000E+00
  0.00000000E+00  0.00000000E+00  0.00000000E+00
  0.00000000E+00  0.00000000E+00  0.00000000E+00
  0.00000000E+00  0.00000000E+00  0.00000000E+00
  0.00000000E+00  0.00000000E+00  0.00000000E+00
  0.00000000E+00  0.00000000E+00  0.00000000E+00
  0.00000000E+00  0.00000000E+00  0.00000000E+00
  0.00000000E+00  0.00000000E+00  0.00000000E+00
  0.00000000E+00  0.00000000E+00  0.00000000E+00
  0.00000000E+00  0.00000000E+00  0.00000000E+00
  0.00000000E+00  0.00000000E+00  0.00000000E+00
  0.00000000E+00  0.00000000E+00  0.00000000E+00
  0.00000000E+00  0.00000000E+00  0.00000000E+00
  0.00000000E+00  0.00000000E+00  0.00000000E+00
  0.00000000E+00  0.00000000E+00  0.00000000E+00
  0.00000000E+00  0.00000000E+00  0.00000000E+00
  0.00000000E+00  0.00000000E+00  0.00000000E+00
  0.00000000E+00  0.00000000E+00  0.00000000E+00
  0.00000000E+00  0.00000000E+00  0.00000000E+00
  0.00000000E+00  0.00000000E+00  0.00000000E+00
  0.00000000E+00  0.00000000E+00  0.00000000E+00
  0.00000000E+00  0.00000000E+00  0.00000000E+00
  0.00000000E+00  0.00000000E+00  0.00000000E+00
  0.00000000E+00  0.00000000E+00  0.00000000E+00
  0.00000000E+00  0.00000000E+00  0.00000000E+00
  0.00000000E+00  0.00000000E+00  0.00000000E+00
  0.00000000E+00  0.00000000E+00  0.00000000E+00
  0.00000000E+00  0.00000000E+00  0.00000000E+00
  0.00000000E+00  0.00000000E+00  0.00000000E+00
  0.00000000E+00  0.00000000E+00  0.00000000E+00
  0.00000000E+00  0.00000000E+00  0.00000000E+00
  0.00000000E+00  0.00000000E+00  0.00000000E+00
  0.00000000E+00  0.00000000E+00  0.00000000E+00
  0.00000000E+00  0.00000000E+00  0.00000000E+00
  0.00000000E+00  0.00000000E+00  0.00000000E+00
  0.00000000E+00  0.00000000E+00  0.00000000E+00
  0.00000000E+00  0.00000000E+00  0.00000000E+00
  0.00000000E+00  0.00000000E+00  0.00000000E+00
  0.00000000E+00  0.00000000E+00  0.00000000E+00
  0.00000000E+00  0.00000000E+00  0.00000000E+00
  0.00000000E+00  0.00000000E+00  0.00000000E+00
  0.00000000E+00  0.00000000E+00  0.00000000E+00
  0.00000000E+00  0.00000000E+00  0.00000000E+00
  0.00000000E+00  0.00000000E+00  0.00000000E+00
  0.00000000E+00  0.00000000E+00  0.00000000E+00
  0.00000000E+00  0.00000000E+00  0.00000000E+00
  0.00000000E+00  0.00000000E+00  0.00000000E+00
  0.00000000E+00  0.00000000E+00  0.00000000E+00
  0.00000000E+00  0.00000000E+00  0.00000000E+00
  0.00000000E+00  0.00000000E+00  0.00000000E+00
  0.00000000E+00  0.00000000E+00  0.00000000E+00
  0.00000000E+00  0.00000000E+00  0.00000000E+00
  0.00000000E+00  0.00000000E+00  0.00000000E+00
  0.00000000E+00  0.00000000E+00  0.00000000E+00
  0.00000000E+00  0.00000000E+00  0.00000000E+00
  0.00000000E+00  0.00000000E+00  0.00000000E+00
  0.00000000E+00  0.00000000E+00  0.00000000E+00
