Au48 C6 F2 H4                           
    1.000000000000000     
    11.7981856999999994    0.0000000000000000    0.0000000000000000
     0.0000000000000000   11.7981856999999994    0.0000000000000000
     0.0000000000000000    0.0000000000000000   17.1725139099999993
   Au   C    F    H 
    48     6     2     4
Selective dynamics
Direct
  0.2497526583244891  0.9998900970884961  0.4125160197241939   T   T   T
  0.2492376504914091  0.2492377194844337  0.4120819142571932   T   T   T
  0.2492052055906697  0.5004750515694525  0.4120434279752772   T   T   T
  0.2496574228487063  0.7503427275229697  0.4124829979582856   T   T   T
  0.5000005904689502  0.9999982662702820  0.4124473819630552   T   T   T
  0.5004745681772604  0.2492048807897902  0.4120441665605625   T   T   T
  0.5000082784489308  0.5000094291313104  0.4119769181599864   T   T   T
  0.4995336043781506  0.7507878708691393  0.4120422833134612   T   T   T
  0.7502467638074037  0.0001084626212133  0.4125167057112051   T   T   T
  0.7503434021159094  0.2496569827214472  0.4124837569386202   T   T   T
  0.7507883590340469  0.4995343430659105  0.4120423458842524   T   T   T
  0.7507542635267086  0.7507543965660304  0.4120804189762168   T   T   T
  0.9999996917407259  0.9999997738016546  0.4126101586586017   T   T   T
  0.9998900895036158  0.2497526440956079  0.4125159778870540   T   T   T
  0.9999984525451637  0.5000006517116873  0.4124466844083017   T   T   T
  0.0001085790644879  0.7502467752216333  0.4125160507638199   T   T   T
  0.1249255768588782  0.1249257959928727  0.5340407946750005   T   T   T
  0.1243010370832138  0.3750857755242407  0.5338473329966504   T   T   T
  0.1246137000710874  0.6251058674413272  0.5341736149224658   T   T   T
  0.1250712927891300  0.8749303842587679  0.5341913029940528   T   T   T
  0.3750854700252333  0.1243014933003366  0.5338477780395721   T   T   T
  0.3742900820370920  0.3742899107273843  0.5298248768987435   T   T   T
  0.3738461278011869  0.6261504357958074  0.5328080531714789   T   T   T
  0.3748889346946456  0.8753898829369717  0.5341754596884272   T   T   T
  0.6251060193037929  0.1246144604641160  0.5341739239794023   T   T   T
  0.6261518293059467  0.3738468696934021  0.5328066361164616   T   T   T
  0.6257062580155122  0.6257062436848955  0.5298491303742452   T   T   T
  0.6249127790355260  0.8757025550853257  0.5338503317934595   T   T   T
  0.8749305981032833  0.1250718064807756  0.5341914609631431   T   T   T
  0.8753901615702588  0.3748894559818083  0.5341752028098057   T   T   T
  0.8757028367404303  0.6249123450428016  0.5338504504578054   T   T   T
  0.8750788202654434  0.8750784251793746  0.5340441462489878   T   T   T
  0.1249999997881019  0.1250000006356942  0.2911629611252380   F   F   F
  0.1250000006356942  0.3750000010594832  0.2911629611252380   F   F   F
  0.1250000006356942  0.6250000006356942  0.2911629611252380   F   F   F
  0.1250000006356942  0.8750000019070754  0.2911629611252380   F   F   F
  0.3750000010594832  0.1250000006356942  0.2911629611252380   F   F   F
  0.3750000010594832  0.3750000010594832  0.2911629611252380   F   F   F
  0.3750000010594832  0.6250000006356942  0.2911629611252380   F   F   F
  0.3750000010594832  0.8750000019070754  0.2911629611252380   F   F   F
  0.6250000006356942  0.1250000006356942  0.2911629611252380   F   F   F
  0.6250000014832793  0.3750000010594832  0.2911629611252380   F   F   F
  0.6250000014832793  0.6250000006356942  0.2911629611252380   F   F   F
  0.6250000014832793  0.8750000019070754  0.2911629611252380   F   F   F
  0.8750000019070754  0.1250000006356942  0.2911629611252380   F   F   F
  0.8750000019070754  0.3750000010594832  0.2911629611252380   F   F   F
  0.8750000019070754  0.6250000006356942  0.2911629611252380   F   F   F
  0.8750000019070754  0.8750000019070754  0.2911629611252380   F   F   F
  0.4179637921137882  0.4179595403093757  0.7099670364017641   T   T   T
  0.3848831048419328  0.5312387837246888  0.7089349867891954   T   T   T
  0.4687761833843993  0.6151547348203863  0.7089539865175070   T   T   T
  0.5820794603178001  0.5820679236321098  0.7100125361308329   T   T   T
  0.6151539406093178  0.4687610770584030  0.7089498394098825   T   T   T
  0.5312358972985507  0.3848918821540082  0.7089309064766809   T   T   T
  0.3363170722852331  0.3362969254193189  0.7128784947587832   T   T   T
  0.6637597879948558  0.6637569879511034  0.7129661017726718   T   T   T
  0.2951584224476278  0.5531057297045407  0.7089431774175168   T   T   T
  0.4469296906463214  0.7048912850175242  0.7089886648920611   T   T   T
  0.7048797171560253  0.4469148655512640  0.7089800550511427   T   T   T
  0.5530838861133560  0.2951678838479097  0.7089349600754105   T   T   T
 
  0.00000000E+00  0.00000000E+00  0.00000000E+00
  0.00000000E+00  0.00000000E+00  0.00000000E+00
  0.00000000E+00  0.00000000E+00  0.00000000E+00
  0.00000000E+00  0.00000000E+00  0.00000000E+00
  0.00000000E+00  0.00000000E+00  0.00000000E+00
  0.00000000E+00  0.00000000E+00  0.00000000E+00
  0.00000000E+00  0.00000000E+00  0.00000000E+00
  0.00000000E+00  0.00000000E+00  0.00000000E+00
  0.00000000E+00  0.00000000E+00  0.00000000E+00
  0.00000000E+00  0.00000000E+00  0.00000000E+00
  0.00000000E+00  0.00000000E+00  0.00000000E+00
  0.00000000E+00  0.00000000E+00  0.00000000E+00
  0.00000000E+00  0.00000000E+00  0.00000000E+00
  0.00000000E+00  0.00000000E+00  0.00000000E+00
  0.00000000E+00  0.00000000E+00  0.00000000E+00
  0.00000000E+00  0.00000000E+00  0.00000000E+00
  0.00000000E+00  0.00000000E+00  0.00000000E+00
  0.00000000E+00  0.00000000E+00  0.00000000E+00
  0.00000000E+00  0.00000000E+00  0.00000000E+00
  0.00000000E+00  0.00000000E+00  0.00000000E+00
  0.00000000E+00  0.00000000E+00  0.00000000E+00
  0.00000000E+00  0.00000000E+00  0.00000000E+00
  0.00000000E+00  0.00000000E+00  0.00000000E+00
  0.00000000E+00  0.00000000E+00  0.00000000E+00
  0.00000000E+00  0.00000000E+00  0.00000000E+00
  0.00000000E+00  0.00000000E+00  0.00000000E+00
  0.00000000E+00  0.00000000E+00  0.00000000E+00
  0.00000000E+00  0.00000000E+00  0.00000000E+00
  0.00000000E+00  0.00000000E+00  0.00000000E+00
  0.00000000E+00  0.00000000E+00  0.00000000E+00
  0.00000000E+00  0.00000000E+00  0.00000000E+00
  0.00000000E+00  0.00000000E+00  0.00000000E+00
  0.00000000E+00  0.00000000E+00  0.00000000E+00
  0.00000000E+00  0.00000000E+00  0.00000000E+00
  0.00000000E+00  0.00000000E+00  0.00000000E+00
  0.00000000E+00  0.00000000E+00  0.00000000E+00
  0.00000000E+00  0.00000000E+00  0.00000000E+00
  0.00000000E+00  0.00000000E+00  0.00000000E+00
  0.00000000E+00  0.00000000E+00  0.00000000E+00
  0.00000000E+00  0.00000000E+00  0.00000000E+00
  0.00000000E+00  0.00000000E+00  0.00000000E+00
  0.00000000E+00  0.00000000E+00  0.00000000E+00
  0.00000000E+00  0.00000000E+00  0.00000000E+00
  0.00000000E+00  0.00000000E+00  0.00000000E+00
  0.00000000E+00  0.00000000E+00  0.00000000E+00
  0.00000000E+00  0.00000000E+00  0.00000000E+00
  0.00000000E+00  0.00000000E+00  0.00000000E+00
  0.00000000E+00  0.00000000E+00  0.00000000E+00
  0.00000000E+00  0.00000000E+00  0.00000000E+00
  0.00000000E+00  0.00000000E+00  0.00000000E+00
  0.00000000E+00  0.00000000E+00  0.00000000E+00
  0.00000000E+00  0.00000000E+00  0.00000000E+00
  0.00000000E+00  0.00000000E+00  0.00000000E+00
  0.00000000E+00  0.00000000E+00  0.00000000E+00
  0.00000000E+00  0.00000000E+00  0.00000000E+00
  0.00000000E+00  0.00000000E+00  0.00000000E+00
  0.00000000E+00  0.00000000E+00  0.00000000E+00
  0.00000000E+00  0.00000000E+00  0.00000000E+00
  0.00000000E+00  0.00000000E+00  0.00000000E+00
  0.00000000E+00  0.00000000E+00  0.00000000E+00
