Rh  C  N Br                             
    1.000000000000000     
    10.8856652999999994    0.0000000000000000    0.0000000000000000
     0.0000000000000000   10.8856652999999994    0.0000000000000000
     0.0000000000000000    0.0000000000000000   23.7729958199999984
   Rh   C    N    Br
    64     4     2     4
Selective dynamics
Direct
  0.0000000000000000  0.0000000000000000  0.3154840078544225   F   F   F
  0.7500000013779555  0.5000000009186394  0.3154840078544225   F   F   F
  0.0000000018372788  0.2500000004593161  0.3154840078544225   F   F   F
  0.0000000018372788  0.5000000009186394  0.3154840078544225   F   F   F
  0.0000000000000000  0.7500000013779555  0.3154840078544225   F   F   F
  0.2500000004593161  0.0000000000000000  0.3154840078544225   F   F   F
  0.2500000004593161  0.2500000004593161  0.3154840078544225   F   F   F
  0.7500000013779555  0.7500000013779555  0.3154840078544225   F   F   F
  0.2500000004593161  0.5000000009186394  0.3154840078544225   F   F   F
  0.2500000004593161  0.7500000013779555  0.3154840078544225   F   F   F
  0.5000000009186394  0.0000000000000000  0.3154840078544225   F   F   F
  0.5000000009186394  0.2500000004593161  0.3154840078544225   F   F   F
  0.5000000009186394  0.5000000009186394  0.3154840078544225   F   F   F
  0.5000000009186394  0.7500000013779555  0.3154840078544225   F   F   F
  0.7500000013779555  0.0000000000000000  0.3154840078544225   F   F   F
  0.7500000013779555  0.2500000004593161  0.3154840078544225   F   F   F
  0.0000068551646988 -0.0000010750401701  0.4729635552186048   T   T   T
  0.9978648742568658  0.2517547942883324  0.4739940780204762   T   T   T
 -0.0000123879517665  0.5000098943752587  0.4745273256264759   T   T   T
  0.0021418629759787  0.7482440660380959  0.4739813061502620   T   T   T
  0.2517596688244396  0.9978540061579508  0.4739903969508112   T   T   T
  0.2489587592981631  0.2489575046673418  0.4729765391407973   T   T   T
  0.2487670960559407  0.4996106458077876  0.4733142616108953   T   T   T
  0.2514393049014891  0.7485677103877438  0.4740227949908936   T   T   T
  0.5000033811157284 -0.0000028360264039  0.4745239754638598   T   T   T
  0.4996353264846004  0.2487810244198882  0.4733125864718470   T   T   T
  0.5000014841037990  0.5000062900865329  0.4726797288037553   T   T   T
  0.5003766792304055  0.7512196219761398  0.4733166389836426   T   T   T
  0.7482465655055689  0.0021616415033342  0.4739843881244953   T   T   T
  0.7485649000693867  0.2514375037305397  0.4740239723507043   T   T   T
  0.7512235102286619  0.5003817701126119  0.4733117423926969   T   T   T
  0.7510222855049365  0.7510147098843596  0.4729651299285141   T   T   T
  0.1239542786814255  0.1239521193183344  0.5484489490738629   T   T   T
  0.1239283067215307  0.3715227549179032  0.5491446485634600   T   T   T
  0.1262258550424481  0.6258787309832466  0.5523855374377601   T   T   T
  0.1239997266643556  0.8759828069305825  0.5489748258089898   T   T   T
  0.3715224582028608  0.1239385276614565  0.5491459086578663   T   T   T
  0.3696889540078734  0.3696850007351367  0.5481575854035813   T   T   T
  0.3783115196129180  0.6216964605756964  0.5519956862493216   T   T   T
  0.3741209661793067  0.8737987478334578  0.5523955955741695   T   T   T
  0.6258664617689991  0.1262086848368280  0.5523942741304791   T   T   T
  0.6216794096205313  0.3783392583676937  0.5520006181772522   T   T   T
  0.6303028800930435  0.6303498475858099  0.5481659242458933   T   T   T
  0.6284880159925870  0.8760674244099548  0.5491420943078379   T   T   T
  0.8759994320570152  0.1240063802780864  0.5489753600092671   T   T   T
  0.8737651586846605  0.3741357403160659  0.5523995405832414   T   T   T
  0.8760678137349447  0.6284897282193016  0.5491491732193026   T   T   T
  0.8760602980538984  0.8760654634097242  0.5484420132088570   T   T   T
  0.1249999997703384  0.1249999997703384  0.3964301349042145   F   F   F
  0.1250000006889778  0.3750000002296616  0.3964301349042145   F   F   F
  0.1250000006889778  0.6250000006889778  0.3964301349042145   F   F   F
  0.1250000006889778  0.8750000011483010  0.3964301349042145   F   F   F
  0.3750000011483010  0.1249999997703384  0.3964301349042145   F   F   F
  0.3750000011483010  0.3750000002296616  0.3964301349042145   F   F   F
  0.3750000011483010  0.6250000006889778  0.3964301349042145   F   F   F
  0.3750000011483010  0.8750000011483010  0.3964301349042145   F   F   F
  0.6250000006889778  0.1249999997703384  0.3964301349042145   F   F   F
  0.6250000006889778  0.3750000002296616  0.3964301349042145   F   F   F
  0.6250000016076172  0.6250000006889778  0.3964301349042145   F   F   F
  0.6250000016076172  0.8750000011483010  0.3964301349042145   F   F   F
  0.8750000011483010  0.1249999997703384  0.3964301349042145   F   F   F
  0.8750000011483010  0.3750000002296616  0.3964301349042145   F   F   F
  0.8750000011483010  0.6250000006889778  0.3964301349042145   F   F   F
  0.8750000020669404  0.8750000011483010  0.3964301349042145   F   F   F
  0.4698855118332551  0.6238784852131674  0.6291258511769402   T   T   T
  0.3761011431223306  0.5301054738362360  0.6291242623402459   T   T   T
  0.5300885987086784  0.3761360866241364  0.6291184982106598   T   T   T
  0.6238630193877528  0.4699322765619846  0.6291225579626109   T   T   T
  0.4068398331521210  0.4068136815228211  0.6309322890312319   T   T   T
  0.5931937592427052  0.5931569460616568  0.6309349561987978   T   T   T
  0.8059713384709619  0.4380004215296032  0.6512118457750814   T   T   T
  0.5619831572761622  0.1940285757375961  0.6512188901547100   T   T   T
  0.4379545258828168  0.8058578729622241  0.6512193817035284   T   T   T
  0.1941551908573589  0.5620676822653019  0.6512322453008930   T   T   T
 
  0.00000000E+00  0.00000000E+00  0.00000000E+00
  0.00000000E+00  0.00000000E+00  0.00000000E+00
  0.00000000E+00  0.00000000E+00  0.00000000E+00
  0.00000000E+00  0.00000000E+00  0.00000000E+00
  0.00000000E+00  0.00000000E+00  0.00000000E+00
  0.00000000E+00  0.00000000E+00  0.00000000E+00
  0.00000000E+00  0.00000000E+00  0.00000000E+00
  0.00000000E+00  0.00000000E+00  0.00000000E+00
  0.00000000E+00  0.00000000E+00  0.00000000E+00
  0.00000000E+00  0.00000000E+00  0.00000000E+00
  0.00000000E+00  0.00000000E+00  0.00000000E+00
  0.00000000E+00  0.00000000E+00  0.00000000E+00
  0.00000000E+00  0.00000000E+00  0.00000000E+00
  0.00000000E+00  0.00000000E+00  0.00000000E+00
  0.00000000E+00  0.00000000E+00  0.00000000E+00
  0.00000000E+00  0.00000000E+00  0.00000000E+00
  0.00000000E+00  0.00000000E+00  0.00000000E+00
  0.00000000E+00  0.00000000E+00  0.00000000E+00
  0.00000000E+00  0.00000000E+00  0.00000000E+00
  0.00000000E+00  0.00000000E+00  0.00000000E+00
  0.00000000E+00  0.00000000E+00  0.00000000E+00
  0.00000000E+00  0.00000000E+00  0.00000000E+00
  0.00000000E+00  0.00000000E+00  0.00000000E+00
  0.00000000E+00  0.00000000E+00  0.00000000E+00
  0.00000000E+00  0.00000000E+00  0.00000000E+00
  0.00000000E+00  0.00000000E+00  0.00000000E+00
  0.00000000E+00  0.00000000E+00  0.00000000E+00
  0.00000000E+00  0.00000000E+00  0.00000000E+00
  0.00000000E+00  0.00000000E+00  0.00000000E+00
  0.00000000E+00  0.00000000E+00  0.00000000E+00
  0.00000000E+00  0.00000000E+00  0.00000000E+00
  0.00000000E+00  0.00000000E+00  0.00000000E+00
  0.00000000E+00  0.00000000E+00  0.00000000E+00
  0.00000000E+00  0.00000000E+00  0.00000000E+00
  0.00000000E+00  0.00000000E+00  0.00000000E+00
  0.00000000E+00  0.00000000E+00  0.00000000E+00
  0.00000000E+00  0.00000000E+00  0.00000000E+00
  0.00000000E+00  0.00000000E+00  0.00000000E+00
  0.00000000E+00  0.00000000E+00  0.00000000E+00
  0.00000000E+00  0.00000000E+00  0.00000000E+00
  0.00000000E+00  0.00000000E+00  0.00000000E+00
  0.00000000E+00  0.00000000E+00  0.00000000E+00
  0.00000000E+00  0.00000000E+00  0.00000000E+00
  0.00000000E+00  0.00000000E+00  0.00000000E+00
  0.00000000E+00  0.00000000E+00  0.00000000E+00
  0.00000000E+00  0.00000000E+00  0.00000000E+00
  0.00000000E+00  0.00000000E+00  0.00000000E+00
  0.00000000E+00  0.00000000E+00  0.00000000E+00
  0.00000000E+00  0.00000000E+00  0.00000000E+00
  0.00000000E+00  0.00000000E+00  0.00000000E+00
  0.00000000E+00  0.00000000E+00  0.00000000E+00
  0.00000000E+00  0.00000000E+00  0.00000000E+00
  0.00000000E+00  0.00000000E+00  0.00000000E+00
  0.00000000E+00  0.00000000E+00  0.00000000E+00
  0.00000000E+00  0.00000000E+00  0.00000000E+00
  0.00000000E+00  0.00000000E+00  0.00000000E+00
  0.00000000E+00  0.00000000E+00  0.00000000E+00
  0.00000000E+00  0.00000000E+00  0.00000000E+00
  0.00000000E+00  0.00000000E+00  0.00000000E+00
  0.00000000E+00  0.00000000E+00  0.00000000E+00
  0.00000000E+00  0.00000000E+00  0.00000000E+00
  0.00000000E+00  0.00000000E+00  0.00000000E+00
  0.00000000E+00  0.00000000E+00  0.00000000E+00
  0.00000000E+00  0.00000000E+00  0.00000000E+00
  0.00000000E+00  0.00000000E+00  0.00000000E+00
  0.00000000E+00  0.00000000E+00  0.00000000E+00
  0.00000000E+00  0.00000000E+00  0.00000000E+00
  0.00000000E+00  0.00000000E+00  0.00000000E+00
  0.00000000E+00  0.00000000E+00  0.00000000E+00
  0.00000000E+00  0.00000000E+00  0.00000000E+00
  0.00000000E+00  0.00000000E+00  0.00000000E+00
  0.00000000E+00  0.00000000E+00  0.00000000E+00
  0.00000000E+00  0.00000000E+00  0.00000000E+00
  0.00000000E+00  0.00000000E+00  0.00000000E+00
