Pd  C  N Br                             
    1.000000000000000     
    11.1817229999999999    0.0000000000000000    0.0000000000000000
     0.0000000000000000   15.8133443000000007    0.0000000000000000
     0.0000000000000000    0.0000000000000000   22.1931461100000007
   Pd   C    N    Br
    64     4     2     4
Selective dynamics
Direct
  0.2499999991056825  0.0000000000000000  0.3379421720033022   F   F   F
  0.9999999964227371  0.4999999987352481  0.3379421720033022   F   F   F
  0.2499999991056825  0.2499999996838085  0.3379421720033022   F   F   F
  0.2499999991056825  0.4999999987352481  0.3379421720033022   F   F   F
  0.2499999991056825  0.7499999984190566  0.3379421720033022   F   F   F
  0.4999999982113650  0.0000000000000000  0.3379421720033022   F   F   F
  0.4999999982113650  0.2499999996838085  0.3379421720033022   F   F   F
  0.9999999964227371  0.7499999984190566  0.3379421720033022   F   F   F
  0.4999999982113650  0.4999999987352481  0.3379421720033022   F   F   F
  0.4999999982113650  0.7499999984190566  0.3379421720033022   F   F   F
  0.7499999973170475  0.0000000000000000  0.3379421720033022   F   F   F
  0.7499999973170475  0.2499999996838085  0.3379421720033022   F   F   F
  0.7499999973170475  0.4999999987352481  0.3379421720033022   F   F   F
  0.7499999973170475  0.7499999984190566  0.3379421720033022   F   F   F
  0.0000000000000000  0.0000000000000000  0.3379421720033022   F   F   F
  0.9999999964227371  0.2499999996838085  0.3379421720033022   F   F   F
  0.2498551470592657  0.0003823709898002  0.4652547140861453   T   T   T
  0.2461369092575895  0.2506284835403477  0.4648930767069492   T   T   T
  0.2480535102190782  0.4989912670307891  0.4625634685605118   T   T   T
  0.2534380293020545  0.7482373788064109  0.4656276529549215   T   T   T
  0.5000383509323278  0.0000052376904937  0.4654651787736016   T   T   T
  0.4990267711891775  0.2504765784223367  0.4646346928682004   T   T   T
  0.5000458630533761  0.5000261045654147  0.4585374012928908   T   T   T
  0.5009777446392798  0.7495347998255419  0.4646265749532140   T   T   T
  0.7501768880093175  0.9996364916511101  0.4652529093852271   T   T   T
  0.7465327686284815  0.2517754913984804  0.4656124449733361   T   T   T
  0.7520476223068550  0.5009778608285679  0.4625533523439492   T   T   T
  0.7538732563299023  0.7493543171031222  0.4648945118900533   T   T   T
 -0.0000036810621730 -0.0000021537858647  0.4652421284831508   T   T   T
  0.9949209972951852  0.2524897339754236  0.4661960421271297   T   T   T
  0.0000180727558911  0.5000260213543128  0.4647493491969597   T   T   T
  0.0050717315979632  0.7475075490670519  0.4661871184115713   T   T   T
  0.1209442123917651  0.1264819880204687  0.5231704740774713   T   T   T
  0.1171520222968263  0.3745854437956436  0.5250170748112630   T   T   T
  0.1370303888336537  0.6222587620343532  0.5280505929722805   T   T   T
  0.1290813928614283  0.8744166906383865  0.5235997599388827   T   T   T
  0.3725773052765181  0.1263239763694703  0.5235977617362955   T   T   T
  0.3629422494494074  0.3733034760113725  0.5245608858904560   T   T   T
  0.3897609471670216  0.6162790245118427  0.5272979038570668   T   T   T
  0.3778988785246399  0.8748338770407410  0.5241976895432964   T   T   T
  0.6221411524778246  0.1251751601929366  0.5242012047547204   T   T   T
  0.6101656523670475  0.3837084894510150  0.5272163073711992   T   T   T
  0.6370645411277209  0.6266825036202807  0.5245475889184866   T   T   T
  0.6274674245759655  0.8737200733790562  0.5235910016118100   T   T   T
  0.8709293359458100  0.1255821247858251  0.5235847888928692   T   T   T
  0.8630697946957828  0.3777366855228820  0.5280362890237484   T   T   T
  0.8828320208361117  0.6254211392616970  0.5250269247699217   T   T   T
  0.8790504198314838  0.8734995109759712  0.5231565547102019   T   T   T
  0.1249999995528412  0.1249999995257198  0.4009217677339905   F   F   F
  0.1249999995528412  0.3749999992095283  0.4009217677339905   F   F   F
  0.1249999995528412  0.6249999982609609  0.4009217677339905   F   F   F
  0.1249999995528412  0.8749999979447765  0.4009217677339905   F   F   F
  0.3749999986585237  0.1249999995257198  0.4009217677339905   F   F   F
  0.3749999986585237  0.3749999992095283  0.4009217677339905   F   F   F
  0.3749999986585237  0.6249999982609609  0.4009217677339905   F   F   F
  0.3749999986585237  0.8749999979447765  0.4009217677339905   F   F   F
  0.6249999977642062  0.1249999995257198  0.4009217677339905   F   F   F
  0.6249999977642062  0.3749999992095283  0.4009217677339905   F   F   F
  0.6249999977642062  0.6249999982609609  0.4009217677339905   F   F   F
  0.6249999977642062  0.8749999979447765  0.4009217677339905   F   F   F
  0.8749999968698887  0.1249999995257198  0.4009217677339905   F   F   F
  0.8749999968698887  0.3749999992095283  0.4009217677339905   F   F   F
  0.8749999968698887  0.6249999982609609  0.4009217677339905   F   F   F
  0.8749999968698887  0.8749999979447765  0.4009217677339905   F   F   F
  0.5224276048694680  0.4136923158888859  0.6091808290745359   T   T   T
  0.6175096355748806  0.4746856436972977  0.6023353425860646   T   T   T
  0.4775616436698173  0.5863894672978114  0.6092410046744792   T   T   T
  0.3824085792807946  0.5254097168831305  0.6023928570546953   T   T   T
  0.5943257497538007  0.5586278657662516  0.6004335507598726   T   T   T
  0.4056250055141746  0.4414047017159603  0.6004347633531019   T   T   T
  0.2115311597257528  0.5516668580141166  0.6248191575408406   T   T   T
  0.4630543985381661  0.6853483157735636  0.6607363989593317   T   T   T
  0.5372270013235210  0.3146971998309698  0.6607339910083460   T   T   T
  0.7883850805592372  0.4484946948889242  0.6246622406923628   T   T   T
 
  0.00000000E+00  0.00000000E+00  0.00000000E+00
  0.00000000E+00  0.00000000E+00  0.00000000E+00
  0.00000000E+00  0.00000000E+00  0.00000000E+00
  0.00000000E+00  0.00000000E+00  0.00000000E+00
  0.00000000E+00  0.00000000E+00  0.00000000E+00
  0.00000000E+00  0.00000000E+00  0.00000000E+00
  0.00000000E+00  0.00000000E+00  0.00000000E+00
  0.00000000E+00  0.00000000E+00  0.00000000E+00
  0.00000000E+00  0.00000000E+00  0.00000000E+00
  0.00000000E+00  0.00000000E+00  0.00000000E+00
  0.00000000E+00  0.00000000E+00  0.00000000E+00
  0.00000000E+00  0.00000000E+00  0.00000000E+00
  0.00000000E+00  0.00000000E+00  0.00000000E+00
  0.00000000E+00  0.00000000E+00  0.00000000E+00
  0.00000000E+00  0.00000000E+00  0.00000000E+00
  0.00000000E+00  0.00000000E+00  0.00000000E+00
  0.00000000E+00  0.00000000E+00  0.00000000E+00
  0.00000000E+00  0.00000000E+00  0.00000000E+00
  0.00000000E+00  0.00000000E+00  0.00000000E+00
  0.00000000E+00  0.00000000E+00  0.00000000E+00
  0.00000000E+00  0.00000000E+00  0.00000000E+00
  0.00000000E+00  0.00000000E+00  0.00000000E+00
  0.00000000E+00  0.00000000E+00  0.00000000E+00
  0.00000000E+00  0.00000000E+00  0.00000000E+00
  0.00000000E+00  0.00000000E+00  0.00000000E+00
  0.00000000E+00  0.00000000E+00  0.00000000E+00
  0.00000000E+00  0.00000000E+00  0.00000000E+00
  0.00000000E+00  0.00000000E+00  0.00000000E+00
  0.00000000E+00  0.00000000E+00  0.00000000E+00
  0.00000000E+00  0.00000000E+00  0.00000000E+00
  0.00000000E+00  0.00000000E+00  0.00000000E+00
  0.00000000E+00  0.00000000E+00  0.00000000E+00
  0.00000000E+00  0.00000000E+00  0.00000000E+00
  0.00000000E+00  0.00000000E+00  0.00000000E+00
  0.00000000E+00  0.00000000E+00  0.00000000E+00
  0.00000000E+00  0.00000000E+00  0.00000000E+00
  0.00000000E+00  0.00000000E+00  0.00000000E+00
  0.00000000E+00  0.00000000E+00  0.00000000E+00
  0.00000000E+00  0.00000000E+00  0.00000000E+00
  0.00000000E+00  0.00000000E+00  0.00000000E+00
  0.00000000E+00  0.00000000E+00  0.00000000E+00
  0.00000000E+00  0.00000000E+00  0.00000000E+00
  0.00000000E+00  0.00000000E+00  0.00000000E+00
  0.00000000E+00  0.00000000E+00  0.00000000E+00
  0.00000000E+00  0.00000000E+00  0.00000000E+00
  0.00000000E+00  0.00000000E+00  0.00000000E+00
  0.00000000E+00  0.00000000E+00  0.00000000E+00
  0.00000000E+00  0.00000000E+00  0.00000000E+00
  0.00000000E+00  0.00000000E+00  0.00000000E+00
  0.00000000E+00  0.00000000E+00  0.00000000E+00
  0.00000000E+00  0.00000000E+00  0.00000000E+00
  0.00000000E+00  0.00000000E+00  0.00000000E+00
  0.00000000E+00  0.00000000E+00  0.00000000E+00
  0.00000000E+00  0.00000000E+00  0.00000000E+00
  0.00000000E+00  0.00000000E+00  0.00000000E+00
  0.00000000E+00  0.00000000E+00  0.00000000E+00
  0.00000000E+00  0.00000000E+00  0.00000000E+00
  0.00000000E+00  0.00000000E+00  0.00000000E+00
  0.00000000E+00  0.00000000E+00  0.00000000E+00
  0.00000000E+00  0.00000000E+00  0.00000000E+00
  0.00000000E+00  0.00000000E+00  0.00000000E+00
  0.00000000E+00  0.00000000E+00  0.00000000E+00
  0.00000000E+00  0.00000000E+00  0.00000000E+00
  0.00000000E+00  0.00000000E+00  0.00000000E+00
  0.00000000E+00  0.00000000E+00  0.00000000E+00
  0.00000000E+00  0.00000000E+00  0.00000000E+00
  0.00000000E+00  0.00000000E+00  0.00000000E+00
  0.00000000E+00  0.00000000E+00  0.00000000E+00
  0.00000000E+00  0.00000000E+00  0.00000000E+00
  0.00000000E+00  0.00000000E+00  0.00000000E+00
  0.00000000E+00  0.00000000E+00  0.00000000E+00
  0.00000000E+00  0.00000000E+00  0.00000000E+00
  0.00000000E+00  0.00000000E+00  0.00000000E+00
  0.00000000E+00  0.00000000E+00  0.00000000E+00
