Ir48 C6 Br6                             
    1.000000000000000     
    10.9622135000000007    0.0000000000000000    0.0000000000000000
     0.0000000000000000   10.9622135000000007    0.0000000000000000
     0.0000000000000000    0.0000000000000000   16.7339102100000012
   Ir   C    Br
    48     6     6
Selective dynamics
Direct
  0.9993386225946495  0.2504657448220726  0.4104675127372772   T   T   T
  0.0000030693773567  0.4999987448550058  0.4106004029362467   T   T   T
  0.0006628363040235  0.7495335571427475  0.4104717591508518   T   T   T
  0.9999971074413736  0.9999979988059522  0.4097184208897175   T   T   T
  0.2496445482280549  0.2496482918285707  0.4100137749267958   T   T   T
  0.2490729997286536  0.5001438572006620  0.4096246716558980   T   T   T
  0.2497461558958847  0.7502495342960032  0.4103100248082967   T   T   T
  0.2504655621637752  0.9993356318766757  0.4104692186142529   T   T   T
  0.5001435024343763  0.2490750940163053  0.4096235323517874   T   T   T
  0.4999990324242205  0.5000013803019669  0.4087153000557251   T   T   T
  0.4998568870421920  0.7509238158882923  0.4096234071953759   T   T   T
  0.5000006973844151  0.9999971191836963  0.4105955400546790   T   T   T
  0.7502533175663118  0.2497458061098996  0.4103059453032927   T   T   T
  0.7509228182776013  0.4998572389867775  0.4096258692142456   T   T   T
  0.7503516058102733  0.7503550478110412  0.4100135482090224   T   T   T
  0.7495332873666882  0.0006589347268360  0.4104650870028621   T   T   T
  0.1247480661553411  0.1247506069645112  0.5214808139227571   T   T   T
  0.1253263082217515  0.3741567471244167  0.5220265737035561   T   T   T
  0.1251931123723793  0.6251934054089503  0.5231364817517132   T   T   T
  0.1244528123602748  0.8755449536750390  0.5219254471639516   T   T   T
  0.3741594988286039  0.1253281150085570  0.5220246329118723   T   T   T
  0.3752999609507484  0.3752993204294199  0.5203741911579556   T   T   T
  0.3760141663360272  0.6239852826576069  0.5196744692274891   T   T   T
  0.3748051782557908  0.8748042613740736  0.5231321559904387   T   T   T
  0.6251952622953425  0.1251913240928104  0.5231300175222202   T   T   T
  0.6239861560198818  0.3760129521931077  0.5196756431680356   T   T   T
  0.6246984111807592  0.6247012288520608  0.5203746106329845   T   T   T
  0.6258397019042121  0.8746726865441374  0.5220237224054145   T   T   T
  0.8755449039679348  0.1244529991197609  0.5219227510032454   T   T   T
  0.8748056252481149  0.3748029262441079  0.5231313080734949   T   T   T
  0.8746714936102862  0.6258387682513131  0.5220263586431244   T   T   T
  0.8752468716555128  0.8752504197954991  0.5214770121960370   T   T   T
  0.1250000002280558  0.1250000002280558  0.2987944800260749   F   F   F
  0.1250000002280558  0.3749999997719442  0.2987944800260749   F   F   F
  0.1250000002280558  0.6249999993158326  0.2987944800260749   F   F   F
  0.1250000002280558  0.8749999988597210  0.2987944800260749   F   F   F
  0.3749999997719442  0.1250000002280558  0.2987944800260749   F   F   F
  0.3749999997719442  0.3749999997719442  0.2987944800260749   F   F   F
  0.3749999997719442  0.6249999993158326  0.2987944800260749   F   F   F
  0.3749999997719442  0.8749999988597210  0.2987944800260749   F   F   F
  0.6249999993158326  0.1250000002280558  0.2987944800260749   F   F   F
  0.6249999993158326  0.3749999997719442  0.2987944800260749   F   F   F
  0.6249999993158326  0.6249999993158326  0.2987944800260749   F   F   F
  0.6249999993158326  0.8749999988597210  0.2987944800260749   F   F   F
  0.8749999988597210  0.1250000002280558  0.2987944800260749   F   F   F
  0.8749999988597210  0.3749999997719442  0.2987944800260749   F   F   F
  0.8749999988597210  0.6249999993158326  0.2987944800260749   F   F   F
  0.8749999988597210  0.8749999988597210  0.2987944800260749   F   F   F
  0.3756662320974655  0.5334728053038802  0.7025873021262470   T   T   T
  0.4666060861453332  0.6243570066075463  0.7025944929084389   T   T   T
  0.5911073490497216  0.5911219771282319  0.7031071077093785   T   T   T
  0.6243552149183174  0.4665737822653995  0.7026043042074193   T   T   T
  0.5334089572682217  0.3756649432097490  0.7025973260157841   T   T   T
  0.4088585564378633  0.4088796667331991  0.7030969085699894   T   T   T
  0.2084762192934804  0.5783307135221563  0.7044372900565392   T   T   T
  0.4217516574015221  0.7915452734045658  0.7044518331044145   T   T   T
  0.7129137919571633  0.7128541548124900  0.7119523613228793   T   T   T
  0.7915124086692131  0.4216863455245630  0.7044781626395675   T   T   T
  0.5782544840823860  0.2084630997108476  0.7044596915920280   T   T   T
  0.2870885598948973  0.2871614591344169  0.7119322483673827   T   T   T
 
  0.00000000E+00  0.00000000E+00  0.00000000E+00
  0.00000000E+00  0.00000000E+00  0.00000000E+00
  0.00000000E+00  0.00000000E+00  0.00000000E+00
  0.00000000E+00  0.00000000E+00  0.00000000E+00
  0.00000000E+00  0.00000000E+00  0.00000000E+00
  0.00000000E+00  0.00000000E+00  0.00000000E+00
  0.00000000E+00  0.00000000E+00  0.00000000E+00
  0.00000000E+00  0.00000000E+00  0.00000000E+00
  0.00000000E+00  0.00000000E+00  0.00000000E+00
  0.00000000E+00  0.00000000E+00  0.00000000E+00
  0.00000000E+00  0.00000000E+00  0.00000000E+00
  0.00000000E+00  0.00000000E+00  0.00000000E+00
  0.00000000E+00  0.00000000E+00  0.00000000E+00
  0.00000000E+00  0.00000000E+00  0.00000000E+00
  0.00000000E+00  0.00000000E+00  0.00000000E+00
  0.00000000E+00  0.00000000E+00  0.00000000E+00
  0.00000000E+00  0.00000000E+00  0.00000000E+00
  0.00000000E+00  0.00000000E+00  0.00000000E+00
  0.00000000E+00  0.00000000E+00  0.00000000E+00
  0.00000000E+00  0.00000000E+00  0.00000000E+00
  0.00000000E+00  0.00000000E+00  0.00000000E+00
  0.00000000E+00  0.00000000E+00  0.00000000E+00
  0.00000000E+00  0.00000000E+00  0.00000000E+00
  0.00000000E+00  0.00000000E+00  0.00000000E+00
  0.00000000E+00  0.00000000E+00  0.00000000E+00
  0.00000000E+00  0.00000000E+00  0.00000000E+00
  0.00000000E+00  0.00000000E+00  0.00000000E+00
  0.00000000E+00  0.00000000E+00  0.00000000E+00
  0.00000000E+00  0.00000000E+00  0.00000000E+00
  0.00000000E+00  0.00000000E+00  0.00000000E+00
  0.00000000E+00  0.00000000E+00  0.00000000E+00
  0.00000000E+00  0.00000000E+00  0.00000000E+00
  0.00000000E+00  0.00000000E+00  0.00000000E+00
  0.00000000E+00  0.00000000E+00  0.00000000E+00
  0.00000000E+00  0.00000000E+00  0.00000000E+00
  0.00000000E+00  0.00000000E+00  0.00000000E+00
  0.00000000E+00  0.00000000E+00  0.00000000E+00
  0.00000000E+00  0.00000000E+00  0.00000000E+00
  0.00000000E+00  0.00000000E+00  0.00000000E+00
  0.00000000E+00  0.00000000E+00  0.00000000E+00
  0.00000000E+00  0.00000000E+00  0.00000000E+00
  0.00000000E+00  0.00000000E+00  0.00000000E+00
  0.00000000E+00  0.00000000E+00  0.00000000E+00
  0.00000000E+00  0.00000000E+00  0.00000000E+00
  0.00000000E+00  0.00000000E+00  0.00000000E+00
  0.00000000E+00  0.00000000E+00  0.00000000E+00
  0.00000000E+00  0.00000000E+00  0.00000000E+00
  0.00000000E+00  0.00000000E+00  0.00000000E+00
  0.00000000E+00  0.00000000E+00  0.00000000E+00
  0.00000000E+00  0.00000000E+00  0.00000000E+00
  0.00000000E+00  0.00000000E+00  0.00000000E+00
  0.00000000E+00  0.00000000E+00  0.00000000E+00
  0.00000000E+00  0.00000000E+00  0.00000000E+00
  0.00000000E+00  0.00000000E+00  0.00000000E+00
  0.00000000E+00  0.00000000E+00  0.00000000E+00
  0.00000000E+00  0.00000000E+00  0.00000000E+00
  0.00000000E+00  0.00000000E+00  0.00000000E+00
  0.00000000E+00  0.00000000E+00  0.00000000E+00
  0.00000000E+00  0.00000000E+00  0.00000000E+00
  0.00000000E+00  0.00000000E+00  0.00000000E+00
