Ir  C  N  F                             
    1.000000000000000     
    10.9622135000000007    0.0000000000000000    0.0000000000000000
     0.0000000000000000   10.9622135000000007    0.0000000000000000
     0.0000000000000000    0.0000000000000000   23.8135916099999996
   Ir   C    N    F 
    64     4     2     4
Selective dynamics
Direct
  0.0000000000000000  0.2499999995438884  0.3149461921926360   F   F   F
  0.7499999986316652  0.7499999986316652  0.3149461921926360   F   F   F
  0.0000000000000000  0.4999999990877768  0.3149461921926360   F   F   F
  0.0000000000000000  0.7499999986316652  0.3149461921926360   F   F   F
  0.0000000000000000  0.0000000000000000  0.3149461921926360   F   F   F
  0.2499999995438884  0.2499999995438884  0.3149461921926360   F   F   F
  0.2499999995438884  0.4999999990877768  0.3149461921926360   F   F   F
  0.7499999986316652  0.0000000000000000  0.3149461921926360   F   F   F
  0.2499999995438884  0.7499999986316652  0.3149461921926360   F   F   F
  0.2499999995438884  0.0000000000000000  0.3149461921926360   F   F   F
  0.4999999990877768  0.2499999995438884  0.3149461921926360   F   F   F
  0.4999999990877768  0.4999999990877768  0.3149461921926360   F   F   F
  0.4999999990877768  0.7499999986316652  0.3149461921926360   F   F   F
  0.4999999990877768  0.0000000000000000  0.3149461921926360   F   F   F
  0.7499999986316652  0.2499999995438884  0.3149461921926360   F   F   F
  0.7499999986316652  0.4999999990877768  0.3149461921926360   F   F   F
 -0.0000158567060896  0.2499742515897816  0.4784081295114615   T   T   T
  0.0000354445242994  0.4999805189044186  0.4786558064668848   T   T   T
  0.0000859524300447  0.7500145846910968  0.4783944560271551   T   T   T
  0.0000294863204090  0.0000028546805492  0.4785304866377057   T   T   T
  0.2500278266112481  0.2499416524695064  0.4783915396848137   T   T   T
  0.2499703167818868  0.4998269225124661  0.4783007113096918   T   T   T
  0.2499382762959381  0.7500732380383781  0.4784408224601346   T   T   T
  0.2500093837425815 -0.0000104630298031  0.4784030505165565   T   T   T
  0.4999330317854275  0.2499060136567843  0.4783052396767405   T   T   T
  0.5000420510044216  0.5000027834469144  0.4785536295297069   T   T   T
  0.5001762362276837  0.7500955100301396  0.4783088195883101   T   T   T
  0.5000353948092155 -0.0000101958981071  0.4786331455249517   T   T   T
  0.7501259144665756  0.2499246631438584  0.4784530355259214   T   T   T
  0.7501254641668065  0.5001768304759905  0.4783460054381957   T   T   T
  0.7500609323239815  0.7500122123455158  0.4784768295814616   T   T   T
  0.7500531749482843  0.0000293448151883  0.4784037785942619   T   T   T
  0.1250947781707568  0.1250616205551375  0.5567015335090553   T   T   T
  0.1250394309156408  0.3748565449440486  0.5566975508555876   T   T   T
  0.1251901372872727  0.6250714423532108  0.5566922916886530   T   T   T
  0.1250464515388637  0.8750130138292124  0.5566980310087265   T   T   T
  0.3749660158313686  0.1249701028000757  0.5566970380816270   T   T   T
  0.3747080011399283  0.3746259558133792  0.5567645406244831   T   T   T
  0.3749389168503099  0.6250631516537396  0.5564054520247959   T   T   T
  0.3749403851564765  0.8749077298654909  0.5567016243417732   T   T   T
  0.6251177371820340  0.1250795002610187  0.5567001865711130   T   T   T
  0.6250574961344298  0.3749365344420256  0.5564575465672310   T   T   T
  0.6253311019291835  0.6253893456302232  0.5567795571463292   T   T   T
  0.6251355796065257  0.8749858688317390  0.5567020416307584   T   T   T
  0.8750281263035603  0.1249602232197945  0.5566965915291017   T   T   T
  0.8749721805564313  0.3749142028796293  0.5567364336504708   T   T   T
  0.8750891961594022  0.6251507629396550  0.5567440173059691   T   T   T
  0.8749467330667876  0.8749826653300325  0.5566925097856372   T   T   T
  0.1250000002280558  0.1250000002280558  0.3963225717718615   F   F   F
  0.1250000002280558  0.3749999997719442  0.3963225717718615   F   F   F
  0.1250000002280558  0.6249999993158326  0.3963225717718615   F   F   F
  0.1250000002280558  0.8749999988597210  0.3963225717718615   F   F   F
  0.3749999997719442  0.1250000002280558  0.3963225717718615   F   F   F
  0.3749999997719442  0.3749999997719442  0.3963225717718615   F   F   F
  0.3749999997719442  0.6249999993158326  0.3963225717718615   F   F   F
  0.3749999997719442  0.8749999988597210  0.3963225717718615   F   F   F
  0.6249999993158326  0.1250000002280558  0.3963225717718615   F   F   F
  0.6249999993158326  0.3749999997719442  0.3963225717718615   F   F   F
  0.6249999993158326  0.6249999993158326  0.3963225717718615   F   F   F
  0.6249999993158326  0.8749999988597210  0.3963225717718615   F   F   F
  0.8749999988597210  0.1250000002280558  0.3963225717718615   F   F   F
  0.8749999988597210  0.3749999997719442  0.3963225717718615   F   F   F
  0.8749999988597210  0.6249999993158326  0.3963225717718615   F   F   F
  0.8749999988597210  0.8749999988597210  0.3963225717718615   F   F   F
  0.5273794770312656  0.3819051470331413  0.6893682261925851   T   T   T
  0.6179936844987289  0.4725625805067699  0.6893847881085098   T   T   T
  0.4724017685490096  0.6181331485831745  0.6893297575571316   T   T   T
  0.3818227218349915  0.5275595679139322  0.6893140594944878   T   T   T
  0.5893464791080201  0.5894820726319669  0.6895935876547694   T   T   T
  0.4105110541184913  0.4106210071397065  0.6895751381445776   T   T   T
  0.2632894470175237  0.5576207011318620  0.6918291587392748   T   T   T
  0.4423701664340600  0.7366493170993399  0.6918413503283509   T   T   T
  0.5574667301150205  0.2634215368109054  0.6919050844401440   T   T   T
  0.7365422769034103  0.4424603280273963  0.6919438541402835   T   T   T
 
  0.00000000E+00  0.00000000E+00  0.00000000E+00
  0.00000000E+00  0.00000000E+00  0.00000000E+00
  0.00000000E+00  0.00000000E+00  0.00000000E+00
  0.00000000E+00  0.00000000E+00  0.00000000E+00
  0.00000000E+00  0.00000000E+00  0.00000000E+00
  0.00000000E+00  0.00000000E+00  0.00000000E+00
  0.00000000E+00  0.00000000E+00  0.00000000E+00
  0.00000000E+00  0.00000000E+00  0.00000000E+00
  0.00000000E+00  0.00000000E+00  0.00000000E+00
  0.00000000E+00  0.00000000E+00  0.00000000E+00
  0.00000000E+00  0.00000000E+00  0.00000000E+00
  0.00000000E+00  0.00000000E+00  0.00000000E+00
  0.00000000E+00  0.00000000E+00  0.00000000E+00
  0.00000000E+00  0.00000000E+00  0.00000000E+00
  0.00000000E+00  0.00000000E+00  0.00000000E+00
  0.00000000E+00  0.00000000E+00  0.00000000E+00
  0.00000000E+00  0.00000000E+00  0.00000000E+00
  0.00000000E+00  0.00000000E+00  0.00000000E+00
  0.00000000E+00  0.00000000E+00  0.00000000E+00
  0.00000000E+00  0.00000000E+00  0.00000000E+00
  0.00000000E+00  0.00000000E+00  0.00000000E+00
  0.00000000E+00  0.00000000E+00  0.00000000E+00
  0.00000000E+00  0.00000000E+00  0.00000000E+00
  0.00000000E+00  0.00000000E+00  0.00000000E+00
  0.00000000E+00  0.00000000E+00  0.00000000E+00
  0.00000000E+00  0.00000000E+00  0.00000000E+00
  0.00000000E+00  0.00000000E+00  0.00000000E+00
  0.00000000E+00  0.00000000E+00  0.00000000E+00
  0.00000000E+00  0.00000000E+00  0.00000000E+00
  0.00000000E+00  0.00000000E+00  0.00000000E+00
  0.00000000E+00  0.00000000E+00  0.00000000E+00
  0.00000000E+00  0.00000000E+00  0.00000000E+00
  0.00000000E+00  0.00000000E+00  0.00000000E+00
  0.00000000E+00  0.00000000E+00  0.00000000E+00
  0.00000000E+00  0.00000000E+00  0.00000000E+00
  0.00000000E+00  0.00000000E+00  0.00000000E+00
  0.00000000E+00  0.00000000E+00  0.00000000E+00
  0.00000000E+00  0.00000000E+00  0.00000000E+00
  0.00000000E+00  0.00000000E+00  0.00000000E+00
  0.00000000E+00  0.00000000E+00  0.00000000E+00
  0.00000000E+00  0.00000000E+00  0.00000000E+00
  0.00000000E+00  0.00000000E+00  0.00000000E+00
  0.00000000E+00  0.00000000E+00  0.00000000E+00
  0.00000000E+00  0.00000000E+00  0.00000000E+00
  0.00000000E+00  0.00000000E+00  0.00000000E+00
  0.00000000E+00  0.00000000E+00  0.00000000E+00
  0.00000000E+00  0.00000000E+00  0.00000000E+00
  0.00000000E+00  0.00000000E+00  0.00000000E+00
  0.00000000E+00  0.00000000E+00  0.00000000E+00
  0.00000000E+00  0.00000000E+00  0.00000000E+00
  0.00000000E+00  0.00000000E+00  0.00000000E+00
  0.00000000E+00  0.00000000E+00  0.00000000E+00
  0.00000000E+00  0.00000000E+00  0.00000000E+00
  0.00000000E+00  0.00000000E+00  0.00000000E+00
  0.00000000E+00  0.00000000E+00  0.00000000E+00
  0.00000000E+00  0.00000000E+00  0.00000000E+00
  0.00000000E+00  0.00000000E+00  0.00000000E+00
  0.00000000E+00  0.00000000E+00  0.00000000E+00
  0.00000000E+00  0.00000000E+00  0.00000000E+00
  0.00000000E+00  0.00000000E+00  0.00000000E+00
  0.00000000E+00  0.00000000E+00  0.00000000E+00
  0.00000000E+00  0.00000000E+00  0.00000000E+00
  0.00000000E+00  0.00000000E+00  0.00000000E+00
  0.00000000E+00  0.00000000E+00  0.00000000E+00
  0.00000000E+00  0.00000000E+00  0.00000000E+00
  0.00000000E+00  0.00000000E+00  0.00000000E+00
  0.00000000E+00  0.00000000E+00  0.00000000E+00
  0.00000000E+00  0.00000000E+00  0.00000000E+00
  0.00000000E+00  0.00000000E+00  0.00000000E+00
  0.00000000E+00  0.00000000E+00  0.00000000E+00
  0.00000000E+00  0.00000000E+00  0.00000000E+00
  0.00000000E+00  0.00000000E+00  0.00000000E+00
  0.00000000E+00  0.00000000E+00  0.00000000E+00
  0.00000000E+00  0.00000000E+00  0.00000000E+00
