Cu48 C4 N2 Br4                          
    1.000000000000000     
    10.2424774999999997    0.0000000000000000    0.0000000000000000
     0.0000000000000000   14.4850505999999992    0.0000000000000000
     0.0000000000000000    0.0000000000000000   15.4644450100000004
   Cu   C    N    Br
    48     4     2     4
Selective dynamics
Direct
  0.2499232555614839  0.2503097489105386  0.4028466536763347   T   T   T
  0.2502365009075973  0.4998994686521883  0.4025238685331729   T   T   T
  0.2497810472479358  0.7499032120699525  0.4024021597049696   T   T   T
  0.2500044944255961  0.0000270299746674  0.4029086434883311   T   T   T
  0.4998151725720845  0.2499592399091810  0.4022091674490866   T   T   T
  0.4999997853889653  0.5000044130708261  0.4031597774276108   T   T   T
  0.5001837737191721  0.7500337386256675  0.4022149498799905   T   T   T
  0.4999980985798231  0.0000030859681388  0.4029237417839866   T   T   T
  0.7502258988874715  0.2500944761820847  0.4023985043437222   T   T   T
  0.7497660380057880  0.5001082714972185  0.4025286437960389   T   T   T
  0.7500729207326771  0.7496859953483934  0.4028567286913116   T   T   T
  0.7499959472545825  0.9999736729268420  0.4029112989453481   T   T   T
  0.9999856496917445  0.2503909897267675  0.4029359872558729   T   T   T
  0.9999976635116425  0.5000037532937611  0.4026417921124832   T   T   T
  0.0000128424474966  0.7496092574262008  0.4029453417029032   T   T   T
  0.0000016260309721  0.9999974742740960  0.4028623121472705   T   T   T
  0.1249737555124497  0.1252812694719267  0.4821799096385107   T   T   T
  0.1250178061032869  0.3753994631464366  0.4829593544470043   T   T   T
  0.1250246626606710  0.6246428007891609  0.4829146928259291   T   T   T
  0.1250997756029903  0.8747516809936116  0.4822060443578380   T   T   T
  0.3750333451721986  0.1254503042621380  0.4822367002623693   T   T   T
  0.3750209345638140  0.3747736258786389  0.4829096349229474   T   T   T
  0.3750473498456657  0.6251704652706707  0.4819021150828107   T   T   T
  0.3749954797912451  0.8746511573438625  0.4822094643553640   T   T   T
  0.6250032131381715  0.1253520834398500  0.4822076016733803   T   T   T
  0.6249517620713192  0.3748265445178447  0.4819057814397638   T   T   T
  0.6249757279557713  0.6252244070368818  0.4829156259846812   T   T   T
  0.6249612632086894  0.8745531799460622  0.4822454250046917   T   T   T
  0.8749063726734150  0.1252487712468664  0.4822012538114464   T   T   T
  0.8749797997068498  0.3753574701555493  0.4829053083379335   T   T   T
  0.8749822109329486  0.6246020849604363  0.4829710793727742   T   T   T
  0.8750271912218395  0.8747196773797370  0.4821899631122406   T   T   T
  0.1250000002440785  0.1249999996548183  0.3233223046004383   F   F   F
  0.1250000002440785  0.3749999989644479  0.3233223046004383   F   F   F
  0.1250000002440785  0.6249999982740846  0.3233223046004383   F   F   F
  0.1250000002440785  0.8749999975837142  0.3233223046004383   F   F   F
  0.3749999997559215  0.1249999996548183  0.3233223046004383   F   F   F
  0.3749999997559215  0.3749999989644479  0.3233223046004383   F   F   F
  0.3749999997559215  0.6249999982740846  0.3233223046004383   F   F   F
  0.3749999997559215  0.8749999975837142  0.3233223046004383   F   F   F
  0.6249999982914289  0.1249999996548183  0.3233223046004383   F   F   F
  0.6249999992677573  0.3749999989644479  0.3233223046004383   F   F   F
  0.6249999992677573  0.6249999982740846  0.3233223046004383   F   F   F
  0.6249999992677573  0.8749999975837142  0.3233223046004383   F   F   F
  0.8749999987795931  0.1249999996548183  0.3233223046004383   F   F   F
  0.8749999978032648  0.3749999989644479  0.3233223046004383   F   F   F
  0.8749999987795931  0.6249999982740846  0.3233223046004383   F   F   F
  0.8749999987795931  0.8749999975837142  0.3233223046004383   F   F   F
  0.5513360949056505  0.4144195214733841  0.6692796528532554   T   T   T
  0.6309047672146377  0.4939787258109689  0.6686042238402479   T   T   T
  0.4486576532539317  0.5855600839790256  0.6692812837636168   T   T   T
  0.3690451465199871  0.5060174652141853  0.6686020049102979   T   T   T
  0.5777898031022772  0.5773549530886442  0.6683490478301266   T   T   T
  0.4222583376050366  0.4226661212596525  0.6683477167876788   T   T   T
  0.1845450072174302  0.5124640704917240  0.6657521463414113   T   T   T
  0.3791570766005066  0.7068376352785819  0.6731002882613382   T   T   T
  0.6208359357575048  0.2931759556510087  0.6731011935881739   T   T   T
  0.8154705652607532  0.4875384956272910  0.6657560846715356   T   T   T
 
  0.00000000E+00  0.00000000E+00  0.00000000E+00
  0.00000000E+00  0.00000000E+00  0.00000000E+00
  0.00000000E+00  0.00000000E+00  0.00000000E+00
  0.00000000E+00  0.00000000E+00  0.00000000E+00
  0.00000000E+00  0.00000000E+00  0.00000000E+00
  0.00000000E+00  0.00000000E+00  0.00000000E+00
  0.00000000E+00  0.00000000E+00  0.00000000E+00
  0.00000000E+00  0.00000000E+00  0.00000000E+00
  0.00000000E+00  0.00000000E+00  0.00000000E+00
  0.00000000E+00  0.00000000E+00  0.00000000E+00
  0.00000000E+00  0.00000000E+00  0.00000000E+00
  0.00000000E+00  0.00000000E+00  0.00000000E+00
  0.00000000E+00  0.00000000E+00  0.00000000E+00
  0.00000000E+00  0.00000000E+00  0.00000000E+00
  0.00000000E+00  0.00000000E+00  0.00000000E+00
  0.00000000E+00  0.00000000E+00  0.00000000E+00
  0.00000000E+00  0.00000000E+00  0.00000000E+00
  0.00000000E+00  0.00000000E+00  0.00000000E+00
  0.00000000E+00  0.00000000E+00  0.00000000E+00
  0.00000000E+00  0.00000000E+00  0.00000000E+00
  0.00000000E+00  0.00000000E+00  0.00000000E+00
  0.00000000E+00  0.00000000E+00  0.00000000E+00
  0.00000000E+00  0.00000000E+00  0.00000000E+00
  0.00000000E+00  0.00000000E+00  0.00000000E+00
  0.00000000E+00  0.00000000E+00  0.00000000E+00
  0.00000000E+00  0.00000000E+00  0.00000000E+00
  0.00000000E+00  0.00000000E+00  0.00000000E+00
  0.00000000E+00  0.00000000E+00  0.00000000E+00
  0.00000000E+00  0.00000000E+00  0.00000000E+00
  0.00000000E+00  0.00000000E+00  0.00000000E+00
  0.00000000E+00  0.00000000E+00  0.00000000E+00
  0.00000000E+00  0.00000000E+00  0.00000000E+00
  0.00000000E+00  0.00000000E+00  0.00000000E+00
  0.00000000E+00  0.00000000E+00  0.00000000E+00
  0.00000000E+00  0.00000000E+00  0.00000000E+00
  0.00000000E+00  0.00000000E+00  0.00000000E+00
  0.00000000E+00  0.00000000E+00  0.00000000E+00
  0.00000000E+00  0.00000000E+00  0.00000000E+00
  0.00000000E+00  0.00000000E+00  0.00000000E+00
  0.00000000E+00  0.00000000E+00  0.00000000E+00
  0.00000000E+00  0.00000000E+00  0.00000000E+00
  0.00000000E+00  0.00000000E+00  0.00000000E+00
  0.00000000E+00  0.00000000E+00  0.00000000E+00
  0.00000000E+00  0.00000000E+00  0.00000000E+00
  0.00000000E+00  0.00000000E+00  0.00000000E+00
  0.00000000E+00  0.00000000E+00  0.00000000E+00
  0.00000000E+00  0.00000000E+00  0.00000000E+00
  0.00000000E+00  0.00000000E+00  0.00000000E+00
  0.00000000E+00  0.00000000E+00  0.00000000E+00
  0.00000000E+00  0.00000000E+00  0.00000000E+00
  0.00000000E+00  0.00000000E+00  0.00000000E+00
  0.00000000E+00  0.00000000E+00  0.00000000E+00
  0.00000000E+00  0.00000000E+00  0.00000000E+00
  0.00000000E+00  0.00000000E+00  0.00000000E+00
  0.00000000E+00  0.00000000E+00  0.00000000E+00
  0.00000000E+00  0.00000000E+00  0.00000000E+00
  0.00000000E+00  0.00000000E+00  0.00000000E+00
  0.00000000E+00  0.00000000E+00  0.00000000E+00
