Pt  C  H Br                             
    1.000000000000000     
    11.2480068000000006    0.0000000000000000    0.0000000000000000
     0.0000000000000000   11.2480068000000006    0.0000000000000000
     0.0000000000000000    0.0000000000000000   23.9651564400000012
   Pt   C    H    Br
    64     6     2     4
Selective dynamics
Direct
  0.2500000008890453  0.0000000000000000  0.3129543518222917   F   F   F
  0.0000000000000000  0.5000000017780906  0.3129543518222917   F   F   F
  0.2500000008890453  0.2500000008890453  0.3129543518222917   F   F   F
  0.2500000008890453  0.5000000017780906  0.3129543518222917   F   F   F
  0.2500000008890453  0.7500000026671358  0.3129543518222917   F   F   F
  0.5000000017780906  0.0000000000000000  0.3129543518222917   F   F   F
  0.5000000017780906  0.2500000008890453  0.3129543518222917   F   F   F
  0.0000000000000000  0.7500000026671358  0.3129543518222917   F   F   F
  0.5000000017780906  0.5000000017780906  0.3129543518222917   F   F   F
  0.5000000017780906  0.7500000026671358  0.3129543518222917   F   F   F
  0.7500000026671358  0.0000000000000000  0.3129543518222917   F   F   F
  0.7500000026671358  0.2500000008890453  0.3129543518222917   F   F   F
  0.7500000026671358  0.5000000017780906  0.3129543518222917   F   F   F
  0.7500000026671358  0.7500000026671358  0.3129543518222917   F   F   F
  0.0000000000000000  0.0000000000000000  0.3129543518222917   F   F   F
  0.0000000000000000  0.2500000008890453  0.3129543518222917   F   F   F
  0.2515330798898030  0.9952732027613297  0.4784379032247822   T   T   T
  0.2489342096931563  0.2489252287593720  0.4770448882984191   T   T   T
  0.2501911300912237  0.5006622239876699  0.4789934831025781   T   T   T
  0.2537185422255842  0.7462872075921481  0.4806204632058091   T   T   T
  0.4999976693916718  0.0000030188042373  0.4791484169776102   T   T   T
  0.5006536729352262  0.2501901960348671  0.4789908980361197   T   T   T
  0.4999991283443235  0.5000023895227975  0.4777747252177474   T   T   T
  0.4993434591568484  0.7498086167629398  0.4789991907925527   T   T   T
  0.7484514537104038  0.0047318285381081  0.4784376435512785   T   T   T
  0.7462757314817159  0.2537192451026318  0.4806209164475525   T   T   T
  0.7498096172604244  0.4993448990157763  0.4789903133565650   T   T   T
  0.7510610701799204  0.7510754860097500  0.4770419419393582   T   T   T
  0.9999938795993817  0.0000045323728297  0.4773483462039910   T   T   T
  0.9952824216501082  0.2515349002165774  0.4784253492468466   T   T   T
  0.9999968422074877  0.5000047377570274  0.4791334813630209   T   T   T
  0.0047168410263142  0.7484789712359521  0.4784245964584753   T   T   T
  0.1227626894662220  0.1227741371801014  0.5595190788382933   T   T   T
  0.1214466194852055  0.3702625983777985  0.5592267038047446   T   T   T
  0.1241029867189810  0.6241639013833186  0.5660272352034239   T   T   T
  0.1245755788800838  0.8753985897703300  0.5601417419098094   T   T   T
  0.3702307079315929  0.1214590992320187  0.5592356384395337   T   T   T
  0.3630980461618618  0.3631191336407431  0.5618818688818371   T   T   T
  0.3808523771085612  0.6191249584640919  0.5641146160908492   T   T   T
  0.3758325904582295  0.8758747045369489  0.5660584195283663   T   T   T
  0.6241698988881643  0.1241236708316538  0.5660603710335068   T   T   T
  0.6191515775843236  0.3809251601026727  0.5641025919204876   T   T   T
  0.6368865893170584  0.6368870924486337  0.5618894357927023   T   T   T
  0.6297631554673323  0.8785329034766205  0.5592339500135046   T   T   T
  0.8754251910943470  0.1245986939592954  0.5601429541609015   T   T   T
  0.8758980714335516  0.3758533490106922  0.5660370268902135   T   T   T
  0.8785435225999426  0.6297509147831295  0.5592274817892698   T   T   T
  0.8772307322390963  0.8772310734244469  0.5595188276999314   T   T   T
  0.1250000008890453  0.1250000000000000  0.3959242036977884   F   F   F
  0.1250000008890453  0.3750000008890453  0.3959242036977884   F   F   F
  0.1250000008890453  0.6250000026671358  0.3959242036977884   F   F   F
  0.1250000008890453  0.8750000026671358  0.3959242036977884   F   F   F
  0.3750000017780906  0.1250000000000000  0.3959242036977884   F   F   F
  0.3750000017780906  0.3750000008890453  0.3959242036977884   F   F   F
  0.3750000017780906  0.6250000026671358  0.3959242036977884   F   F   F
  0.3750000017780906  0.8750000026671358  0.3959242036977884   F   F   F
  0.6250000026671358  0.1250000000000000  0.3959242036977884   F   F   F
  0.6250000026671358  0.3750000008890453  0.3959242036977884   F   F   F
  0.6250000026671358  0.6250000026671358  0.3959242036977884   F   F   F
  0.6250000026671358  0.8750000026671358  0.3959242036977884   F   F   F
  0.8750000035561882  0.1250000000000000  0.3959242036977884   F   F   F
  0.8750000026671358  0.3750000008890453  0.3959242036977884   F   F   F
  0.8750000035561882  0.6250000026671358  0.3959242036977884   F   F   F
  0.8750000035561882  0.8750000026671358  0.3959242036977884   F   F   F
  0.4056073057981570  0.4056235279423486  0.6438131907228706   T   T   T
  0.3740744799445089  0.5347292940934545  0.6430998331986197   T   T   T
  0.4653347640380504  0.6259596161001588  0.6430805539357256   T   T   T
  0.5943776503204631  0.5944200239971348  0.6438283735585865   T   T   T
  0.6259089590638944  0.4652938776210706  0.6431010566315106   T   T   T
  0.5346140729866135  0.3740882363387317  0.6430673332299413   T   T   T
  0.3509384237034224  0.3509703624170660  0.6716094377037544   T   T   T
  0.6490491747780656  0.6490441037550789  0.6716099766632375   T   T   T
  0.2108543249898810  0.5690826701159720  0.6693201203831811   T   T   T
  0.4310621268063305  0.7894352884769158  0.6692250719937634   T   T   T
  0.7891365571050067  0.4308730900084691  0.6693124008438025   T   T   T
  0.5688362501596910  0.2105791220716884  0.6691724202385011   T   T   T
 
  0.00000000E+00  0.00000000E+00  0.00000000E+00
  0.00000000E+00  0.00000000E+00  0.00000000E+00
  0.00000000E+00  0.00000000E+00  0.00000000E+00
  0.00000000E+00  0.00000000E+00  0.00000000E+00
  0.00000000E+00  0.00000000E+00  0.00000000E+00
  0.00000000E+00  0.00000000E+00  0.00000000E+00
  0.00000000E+00  0.00000000E+00  0.00000000E+00
  0.00000000E+00  0.00000000E+00  0.00000000E+00
  0.00000000E+00  0.00000000E+00  0.00000000E+00
  0.00000000E+00  0.00000000E+00  0.00000000E+00
  0.00000000E+00  0.00000000E+00  0.00000000E+00
  0.00000000E+00  0.00000000E+00  0.00000000E+00
  0.00000000E+00  0.00000000E+00  0.00000000E+00
  0.00000000E+00  0.00000000E+00  0.00000000E+00
  0.00000000E+00  0.00000000E+00  0.00000000E+00
  0.00000000E+00  0.00000000E+00  0.00000000E+00
  0.00000000E+00  0.00000000E+00  0.00000000E+00
  0.00000000E+00  0.00000000E+00  0.00000000E+00
  0.00000000E+00  0.00000000E+00  0.00000000E+00
  0.00000000E+00  0.00000000E+00  0.00000000E+00
  0.00000000E+00  0.00000000E+00  0.00000000E+00
  0.00000000E+00  0.00000000E+00  0.00000000E+00
  0.00000000E+00  0.00000000E+00  0.00000000E+00
  0.00000000E+00  0.00000000E+00  0.00000000E+00
  0.00000000E+00  0.00000000E+00  0.00000000E+00
  0.00000000E+00  0.00000000E+00  0.00000000E+00
  0.00000000E+00  0.00000000E+00  0.00000000E+00
  0.00000000E+00  0.00000000E+00  0.00000000E+00
  0.00000000E+00  0.00000000E+00  0.00000000E+00
  0.00000000E+00  0.00000000E+00  0.00000000E+00
  0.00000000E+00  0.00000000E+00  0.00000000E+00
  0.00000000E+00  0.00000000E+00  0.00000000E+00
  0.00000000E+00  0.00000000E+00  0.00000000E+00
  0.00000000E+00  0.00000000E+00  0.00000000E+00
  0.00000000E+00  0.00000000E+00  0.00000000E+00
  0.00000000E+00  0.00000000E+00  0.00000000E+00
  0.00000000E+00  0.00000000E+00  0.00000000E+00
  0.00000000E+00  0.00000000E+00  0.00000000E+00
  0.00000000E+00  0.00000000E+00  0.00000000E+00
  0.00000000E+00  0.00000000E+00  0.00000000E+00
  0.00000000E+00  0.00000000E+00  0.00000000E+00
  0.00000000E+00  0.00000000E+00  0.00000000E+00
  0.00000000E+00  0.00000000E+00  0.00000000E+00
  0.00000000E+00  0.00000000E+00  0.00000000E+00
  0.00000000E+00  0.00000000E+00  0.00000000E+00
  0.00000000E+00  0.00000000E+00  0.00000000E+00
  0.00000000E+00  0.00000000E+00  0.00000000E+00
  0.00000000E+00  0.00000000E+00  0.00000000E+00
  0.00000000E+00  0.00000000E+00  0.00000000E+00
  0.00000000E+00  0.00000000E+00  0.00000000E+00
  0.00000000E+00  0.00000000E+00  0.00000000E+00
  0.00000000E+00  0.00000000E+00  0.00000000E+00
  0.00000000E+00  0.00000000E+00  0.00000000E+00
  0.00000000E+00  0.00000000E+00  0.00000000E+00
  0.00000000E+00  0.00000000E+00  0.00000000E+00
  0.00000000E+00  0.00000000E+00  0.00000000E+00
  0.00000000E+00  0.00000000E+00  0.00000000E+00
  0.00000000E+00  0.00000000E+00  0.00000000E+00
  0.00000000E+00  0.00000000E+00  0.00000000E+00
  0.00000000E+00  0.00000000E+00  0.00000000E+00
  0.00000000E+00  0.00000000E+00  0.00000000E+00
  0.00000000E+00  0.00000000E+00  0.00000000E+00
  0.00000000E+00  0.00000000E+00  0.00000000E+00
  0.00000000E+00  0.00000000E+00  0.00000000E+00
  0.00000000E+00  0.00000000E+00  0.00000000E+00
  0.00000000E+00  0.00000000E+00  0.00000000E+00
  0.00000000E+00  0.00000000E+00  0.00000000E+00
  0.00000000E+00  0.00000000E+00  0.00000000E+00
  0.00000000E+00  0.00000000E+00  0.00000000E+00
  0.00000000E+00  0.00000000E+00  0.00000000E+00
  0.00000000E+00  0.00000000E+00  0.00000000E+00
  0.00000000E+00  0.00000000E+00  0.00000000E+00
  0.00000000E+00  0.00000000E+00  0.00000000E+00
  0.00000000E+00  0.00000000E+00  0.00000000E+00
  0.00000000E+00  0.00000000E+00  0.00000000E+00
  0.00000000E+00  0.00000000E+00  0.00000000E+00
