Ir48 C4 N2 Br4                          
    1.000000000000000     
    10.9622135000000007    0.0000000000000000    0.0000000000000000
     0.0000000000000000   15.5029109999999992    0.0000000000000000
     0.0000000000000000    0.0000000000000000   15.5412342500000005
   Ir   C    N    Br
    48     4     2     4
Selective dynamics
Direct
  0.2498802971932435  0.9996235545429002  0.3946123821700454   T   T   T
  0.2507025630637685  0.2510541424931958  0.3991275967671513   T   T   T
  0.2506012282680388  0.4998308950084720  0.3965780301851538   T   T   T
  0.2488740995589751  0.7503112075577931  0.3970479980862294   T   T   T
  0.4999976786017868  0.9999991138512954  0.4112785990406138   T   T   T
  0.5016807232290574  0.2487525217591795  0.4075713513573831   T   T   T
  0.4999878701613341  0.5000000801139066  0.4023192019532829   T   T   T
  0.4982915161926371  0.7512585562728233  0.4075689315343141   T   T   T
  0.7501205009628720  0.0003772534259099  0.3946177071564065   T   T   T
  0.7511328589586199  0.2496896301891880  0.3970425237705868   T   T   T
  0.7494245207222789  0.5001711219914711  0.3965678000747772   T   T   T
  0.7493219008609344  0.7489453718697874  0.3991435966420056   T   T   T
  0.9999986499564955  0.0000055390930243  0.4106454493881557   T   T   T
  0.0009395158519609  0.2500222549116060  0.4113336706509827   T   T   T
  0.9999866481620145  0.5000011230078627  0.4115604227377290   T   T   T
  0.9990497591835918  0.7499699145766314  0.4113523826907297   T   T   T
  0.1290418476956887  0.1248397378898929  0.4845955602012708   T   T   T
  0.1274329186666137  0.3769147271167412  0.4866677947361353   T   T   T
  0.1241084929538445  0.6248612824275597  0.4847912097269003   T   T   T
  0.1228976914959432  0.8749888130818633  0.4879819087762201   T   T   T
  0.3713165050187968  0.1248488773906047  0.4846561834611833   T   T   T
  0.3786352753882269  0.3740324246577131  0.4863114376406159   T   T   T
  0.3695934746193359  0.6248227717325889  0.4887858114447994   T   T   T
  0.3764947650317367  0.8752899064931725  0.4877276933945538   T   T   T
  0.6235139398950551  0.1247087733983392  0.4877367804178263   T   T   T
  0.6304001624077245  0.3751992036631719  0.4888010613025173   T   T   T
  0.6213572314698865  0.6259764757251745  0.4863271559824867   T   T   T
  0.6286730707210779  0.8751522463996011  0.4846532942655557   T   T   T
  0.8771282943261340  0.1250243765693071  0.4879707505953945   T   T   T
  0.8758959087039386  0.3751434229246158  0.4847885128110079   T   T   T
  0.8725720334801110  0.6230725216321957  0.4866675263850482   T   T   T
  0.8709472187998770  0.8751632238586851  0.4845928930991334   T   T   T
  0.1249999993158326  0.1249999996774775  0.3217247690607294   F   F   F
  0.1249999993158326  0.3749999996774775  0.3217247690607294   F   F   F
  0.1250000002280558  0.6249999990324397  0.3217247690607294   F   F   F
  0.1250000002280558  0.8749999983874019  0.3217247690607294   F   F   F
  0.3749999988597210  0.1249999996774775  0.3217247690607294   F   F   F
  0.3749999997719442  0.3749999996774775  0.3217247690607294   F   F   F
  0.3749999997719442  0.6249999990324397  0.3217247690607294   F   F   F
  0.3749999997719442  0.8749999983874019  0.3217247690607294   F   F   F
  0.6249999993158326  0.1249999996774775  0.3217247690607294   F   F   F
  0.6249999984036094  0.3749999996774775  0.3217247690607294   F   F   F
  0.6249999993158326  0.6249999990324397  0.3217247690607294   F   F   F
  0.6249999993158326  0.8749999983874019  0.3217247690607294   F   F   F
  0.8749999979474978  0.1249999996774775  0.3217247690607294   F   F   F
  0.8749999988597210  0.3749999996774775  0.3217247690607294   F   F   F
  0.8749999988597210  0.6249999990324397  0.3217247690607294   F   F   F
  0.8749999988597210  0.8749999983874019  0.3217247690607294   F   F   F
  0.5679131489963964  0.4252516738431567  0.5982927714534867   T   T   T
  0.6208685628049437  0.5053092156979986  0.6232973019981358   T   T   T
  0.4321823984435511  0.5748198468424519  0.5983143139650267   T   T   T
  0.3791334074587809  0.4947455192372061  0.6233002819629974   T   T   T
  0.5581130459981125  0.5791389716264490  0.6047015043991948   T   T   T
  0.4419064070435539  0.4209264683420741  0.6046880646109472   T   T   T
  0.2082982898453523  0.4820342778572666  0.6453078805288470   T   T   T
  0.2501924332564158  0.8806919950217633  0.6213479907388688   T   T   T
  0.7498345019311898  0.1193060250236471  0.6213596027408101   T   T   T
  0.7917258915646173  0.5180336160411301  0.6452435735481359   T   T   T
 
  0.00000000E+00  0.00000000E+00  0.00000000E+00
  0.00000000E+00  0.00000000E+00  0.00000000E+00
  0.00000000E+00  0.00000000E+00  0.00000000E+00
  0.00000000E+00  0.00000000E+00  0.00000000E+00
  0.00000000E+00  0.00000000E+00  0.00000000E+00
  0.00000000E+00  0.00000000E+00  0.00000000E+00
  0.00000000E+00  0.00000000E+00  0.00000000E+00
  0.00000000E+00  0.00000000E+00  0.00000000E+00
  0.00000000E+00  0.00000000E+00  0.00000000E+00
  0.00000000E+00  0.00000000E+00  0.00000000E+00
  0.00000000E+00  0.00000000E+00  0.00000000E+00
  0.00000000E+00  0.00000000E+00  0.00000000E+00
  0.00000000E+00  0.00000000E+00  0.00000000E+00
  0.00000000E+00  0.00000000E+00  0.00000000E+00
  0.00000000E+00  0.00000000E+00  0.00000000E+00
  0.00000000E+00  0.00000000E+00  0.00000000E+00
  0.00000000E+00  0.00000000E+00  0.00000000E+00
  0.00000000E+00  0.00000000E+00  0.00000000E+00
  0.00000000E+00  0.00000000E+00  0.00000000E+00
  0.00000000E+00  0.00000000E+00  0.00000000E+00
  0.00000000E+00  0.00000000E+00  0.00000000E+00
  0.00000000E+00  0.00000000E+00  0.00000000E+00
  0.00000000E+00  0.00000000E+00  0.00000000E+00
  0.00000000E+00  0.00000000E+00  0.00000000E+00
  0.00000000E+00  0.00000000E+00  0.00000000E+00
  0.00000000E+00  0.00000000E+00  0.00000000E+00
  0.00000000E+00  0.00000000E+00  0.00000000E+00
  0.00000000E+00  0.00000000E+00  0.00000000E+00
  0.00000000E+00  0.00000000E+00  0.00000000E+00
  0.00000000E+00  0.00000000E+00  0.00000000E+00
  0.00000000E+00  0.00000000E+00  0.00000000E+00
  0.00000000E+00  0.00000000E+00  0.00000000E+00
  0.00000000E+00  0.00000000E+00  0.00000000E+00
  0.00000000E+00  0.00000000E+00  0.00000000E+00
  0.00000000E+00  0.00000000E+00  0.00000000E+00
  0.00000000E+00  0.00000000E+00  0.00000000E+00
  0.00000000E+00  0.00000000E+00  0.00000000E+00
  0.00000000E+00  0.00000000E+00  0.00000000E+00
  0.00000000E+00  0.00000000E+00  0.00000000E+00
  0.00000000E+00  0.00000000E+00  0.00000000E+00
  0.00000000E+00  0.00000000E+00  0.00000000E+00
  0.00000000E+00  0.00000000E+00  0.00000000E+00
  0.00000000E+00  0.00000000E+00  0.00000000E+00
  0.00000000E+00  0.00000000E+00  0.00000000E+00
  0.00000000E+00  0.00000000E+00  0.00000000E+00
  0.00000000E+00  0.00000000E+00  0.00000000E+00
  0.00000000E+00  0.00000000E+00  0.00000000E+00
  0.00000000E+00  0.00000000E+00  0.00000000E+00
  0.00000000E+00  0.00000000E+00  0.00000000E+00
  0.00000000E+00  0.00000000E+00  0.00000000E+00
  0.00000000E+00  0.00000000E+00  0.00000000E+00
  0.00000000E+00  0.00000000E+00  0.00000000E+00
  0.00000000E+00  0.00000000E+00  0.00000000E+00
  0.00000000E+00  0.00000000E+00  0.00000000E+00
  0.00000000E+00  0.00000000E+00  0.00000000E+00
  0.00000000E+00  0.00000000E+00  0.00000000E+00
  0.00000000E+00  0.00000000E+00  0.00000000E+00
  0.00000000E+00  0.00000000E+00  0.00000000E+00
