Pt48 C6 H2 F4                           
    1.000000000000000     
    11.2480068000000006    0.0000000000000000    0.0000000000000000
     0.0000000000000000   15.9070838000000006    0.0000000000000000
     0.0000000000000000    0.0000000000000000   15.6750384100000009
   Pt   C    H    F 
    48     6     2     4
Selective dynamics
Direct
  0.2497546833023989  0.2512198269661994  0.4021598764861665   T   T   T
  0.2454533168863833  0.5001538143119149  0.3994983665893486   T   T   T
  0.2537723111728738  0.7461420068582001  0.4071356836433395   T   T   T
  0.2505799430686437  0.0000364016005179  0.4035787935648401   T   T   T
  0.5003785333267317  0.2530433986356400  0.4059806273563282   T   T   T
  0.5000003501579968  0.5000019488836145  0.3883741629890807   T   T   T
  0.4996517556492606  0.7469307206567493  0.4059612591529032   T   T   T
  0.5000190865387566  0.0000305686836555  0.4046072254711746   T   T   T
  0.7462284598885844  0.2538231817624848  0.4071345489668801   T   T   T
  0.7545576503003772  0.4998511637102112  0.3994984329455207   T   T   T
  0.7502772030701266  0.7487759205227462  0.4021572672437372   T   T   T
  0.7494290742949659  0.0000031106531964  0.4035781037364572   T   T   T
  0.9980282099562956  0.2511303665659312  0.4031526413180018   T   T   T
  0.0000027536152203  0.5000123106017753  0.4040935504995957   T   T   T
  0.0019550023163575  0.7488519763065966  0.4031515514897634   T   T   T
  0.9999816864095408  0.0000044369004968  0.4029050301281032   T   T   T
  0.1240007560206990  0.1262639400380863  0.4885066745673186   T   T   T
  0.1212876292728637  0.3744796003025428  0.4903955969457456   T   T   T
  0.1276712581919597  0.6242520155832949  0.4908054519514167   T   T   T
  0.1269761838102781  0.8737955472262726  0.4878649152643959   T   T   T
  0.3744089448281542  0.1269357889486784  0.4884294415482913   T   T   T
  0.3697029303919663  0.3820021263382642  0.4883804862330905   T   T   T
  0.3825971827734449  0.6088610523690150  0.4979444705176874   T   T   T
  0.3762881023381865  0.8736140287316587  0.4890009272770683   T   T   T
  0.6237149947619685  0.1263951802822376  0.4891129372340757   T   T   T
  0.6174401967175243  0.3911478305074709  0.4979459912092281   T   T   T
  0.6303267691336600  0.6179877407244874  0.4883784024390252   T   T   T
  0.6256197063446720  0.8730779650064235  0.4884069864725404   T   T   T
  0.8730235759678706  0.1262096465014437  0.4879014125436072   T   T   T
  0.8723613986725809  0.3757409197495249  0.4907817972168971   T   T   T
  0.8787157851787697  0.6255082165600712  0.4904215507826208   T   T   T
  0.8760140720416487  0.8737488859144307  0.4885205063922768   T   T   T
  0.1250000000000000  0.1250000003143228  0.3189784847232175   F   F   F
  0.1250000000000000  0.3750000003143228  0.3189784847232175   F   F   F
  0.1250000008890453  0.6250000009429755  0.3189784847232175   F   F   F
  0.1250000008890453  0.8750000009429755  0.3189784847232175   F   F   F
  0.3750000008890453  0.1250000003143228  0.3189784847232175   F   F   F
  0.3750000008890453  0.3750000003143228  0.3189784847232175   F   F   F
  0.3750000008890453  0.6250000009429755  0.3189784847232175   F   F   F
  0.3750000008890453  0.8750000009429755  0.3189784847232175   F   F   F
  0.6250000017780906  0.1250000003143228  0.3189784847232175   F   F   F
  0.6250000017780906  0.3750000003143228  0.3189784847232175   F   F   F
  0.6250000017780906  0.6250000009429755  0.3189784847232175   F   F   F
  0.6250000026671358  0.8750000009429755  0.3189784847232175   F   F   F
  0.8750000026671358  0.1250000003143228  0.3189784847232175   F   F   F
  0.8750000026671358  0.3750000003143228  0.3189784847232175   F   F   F
  0.8750000035561882  0.6250000009429755  0.3189784847232175   F   F   F
  0.8750000026671358  0.8750000009429755  0.3189784847232175   F   F   F
  0.4019568311143331  0.4351770078041426  0.6059735587770589   T   T   T
  0.3759026632826874  0.5280887845163491  0.6090095511127132   T   T   T
  0.4708252486985884  0.5890650896442864  0.6172531215741159   T   T   T
  0.5980609261925451  0.5648439524054325  0.6059792780372888   T   T   T
  0.6241368083934873  0.4719249540485961  0.6090066838641235   T   T   T
  0.5291860782227999  0.4109446935515990  0.6172491721817792   T   T   T
  0.3460090175021904  0.4032689313250799  0.6535667038807063   T   T   T
  0.6540124252829855  0.5967528616479640  0.6535714414329306   T   T   T
  0.2741471705714247  0.5439011054863983  0.6550703509329097   T   T   T
  0.4536548996437162  0.6541263282159306  0.6731277712299146   T   T   T
  0.7258993969245964  0.4560985350711277  0.6550715949375956   T   T   T
  0.5463701638767162  0.3458886759746989  0.6731561288016437   T   T   T
 
  0.00000000E+00  0.00000000E+00  0.00000000E+00
  0.00000000E+00  0.00000000E+00  0.00000000E+00
  0.00000000E+00  0.00000000E+00  0.00000000E+00
  0.00000000E+00  0.00000000E+00  0.00000000E+00
  0.00000000E+00  0.00000000E+00  0.00000000E+00
  0.00000000E+00  0.00000000E+00  0.00000000E+00
  0.00000000E+00  0.00000000E+00  0.00000000E+00
  0.00000000E+00  0.00000000E+00  0.00000000E+00
  0.00000000E+00  0.00000000E+00  0.00000000E+00
  0.00000000E+00  0.00000000E+00  0.00000000E+00
  0.00000000E+00  0.00000000E+00  0.00000000E+00
  0.00000000E+00  0.00000000E+00  0.00000000E+00
  0.00000000E+00  0.00000000E+00  0.00000000E+00
  0.00000000E+00  0.00000000E+00  0.00000000E+00
  0.00000000E+00  0.00000000E+00  0.00000000E+00
  0.00000000E+00  0.00000000E+00  0.00000000E+00
  0.00000000E+00  0.00000000E+00  0.00000000E+00
  0.00000000E+00  0.00000000E+00  0.00000000E+00
  0.00000000E+00  0.00000000E+00  0.00000000E+00
  0.00000000E+00  0.00000000E+00  0.00000000E+00
  0.00000000E+00  0.00000000E+00  0.00000000E+00
  0.00000000E+00  0.00000000E+00  0.00000000E+00
  0.00000000E+00  0.00000000E+00  0.00000000E+00
  0.00000000E+00  0.00000000E+00  0.00000000E+00
  0.00000000E+00  0.00000000E+00  0.00000000E+00
  0.00000000E+00  0.00000000E+00  0.00000000E+00
  0.00000000E+00  0.00000000E+00  0.00000000E+00
  0.00000000E+00  0.00000000E+00  0.00000000E+00
  0.00000000E+00  0.00000000E+00  0.00000000E+00
  0.00000000E+00  0.00000000E+00  0.00000000E+00
  0.00000000E+00  0.00000000E+00  0.00000000E+00
  0.00000000E+00  0.00000000E+00  0.00000000E+00
  0.00000000E+00  0.00000000E+00  0.00000000E+00
  0.00000000E+00  0.00000000E+00  0.00000000E+00
  0.00000000E+00  0.00000000E+00  0.00000000E+00
  0.00000000E+00  0.00000000E+00  0.00000000E+00
  0.00000000E+00  0.00000000E+00  0.00000000E+00
  0.00000000E+00  0.00000000E+00  0.00000000E+00
  0.00000000E+00  0.00000000E+00  0.00000000E+00
  0.00000000E+00  0.00000000E+00  0.00000000E+00
  0.00000000E+00  0.00000000E+00  0.00000000E+00
  0.00000000E+00  0.00000000E+00  0.00000000E+00
  0.00000000E+00  0.00000000E+00  0.00000000E+00
  0.00000000E+00  0.00000000E+00  0.00000000E+00
  0.00000000E+00  0.00000000E+00  0.00000000E+00
  0.00000000E+00  0.00000000E+00  0.00000000E+00
  0.00000000E+00  0.00000000E+00  0.00000000E+00
  0.00000000E+00  0.00000000E+00  0.00000000E+00
  0.00000000E+00  0.00000000E+00  0.00000000E+00
  0.00000000E+00  0.00000000E+00  0.00000000E+00
  0.00000000E+00  0.00000000E+00  0.00000000E+00
  0.00000000E+00  0.00000000E+00  0.00000000E+00
  0.00000000E+00  0.00000000E+00  0.00000000E+00
  0.00000000E+00  0.00000000E+00  0.00000000E+00
  0.00000000E+00  0.00000000E+00  0.00000000E+00
  0.00000000E+00  0.00000000E+00  0.00000000E+00
  0.00000000E+00  0.00000000E+00  0.00000000E+00
  0.00000000E+00  0.00000000E+00  0.00000000E+00
  0.00000000E+00  0.00000000E+00  0.00000000E+00
  0.00000000E+00  0.00000000E+00  0.00000000E+00
