Ag48 H2 C6 F4                           
    1.000000000000000     
    11.7678089999999997    0.0000000000000000    0.0000000000000000
    -5.8839040000000002   10.1912210000000005    0.0000000000000000
     0.0000000000000000    0.0000000000000000   18.0284939999999985
   Ag   H    C    F 
    48     2     6     4
Selective dynamics
Direct
  0.0833330000000032  0.1666669999999968  0.3328059999999979   F   F   F
  0.0833330000000032  0.4166669999999968  0.3328059999999979   F   F   F
  0.0833330000000032  0.6666669999999968  0.3328059999999979   F   F   F
  0.0833330000000032  0.9166669999999968  0.3328059999999979   F   F   F
  0.3333330000000032  0.1666669999999968  0.3328059999999979   F   F   F
  0.3333330000000032  0.4166669999999968  0.3328059999999979   F   F   F
  0.3333330000000032  0.6666669999999968  0.3328059999999979   F   F   F
  0.3333330000000032  0.9166669999999968  0.3328059999999979   F   F   F
  0.5833330000000032  0.1666669999999968  0.3328059999999979   F   F   F
  0.5833330000000032  0.4166669999999968  0.3328059999999979   F   F   F
  0.5833330000000032  0.6666669999999968  0.3328059999999979   F   F   F
  0.5833330000000032  0.9166669999999968  0.3328059999999979   F   F   F
  0.8333330000000032  0.1666669999999968  0.3328059999999979   F   F   F
  0.8333330000000032  0.4166669999999968  0.3328059999999979   F   F   F
  0.8333330000000032  0.6666669999999968  0.3328059999999979   F   F   F
  0.8333330000000032  0.9166669999999968  0.3328059999999979   F   F   F
  0.2496310051332031  0.2496026248307146  0.5814350135785915   T   T   T
  0.2499391397183146  0.4998081971531931  0.5816418602242877   T   T   T
  0.2499802093071750  0.7497285963727194  0.5825880675569621   T   T   T
  0.2499224902518407  0.9997887751113836  0.5824697697239358   T   T   T
  0.4997932600233312  0.2499804197766835  0.5823018750866353   T   T   T
  0.5000644110820929  0.4999527286826861  0.5811144562377422   T   T   T
  0.4998779158765672  0.7500326888489397  0.5822335946720330   T   T   T
  0.4999312560516742  0.0001993095194663  0.5824578348581326   T   T   T
  0.7497765150739113  0.2500396521709334  0.5824518390891527   T   T   T
  0.7501242049699073  0.4999598683827386  0.5823381172794129   T   T   T
  0.7499793484572308  0.7499224392730284  0.5822371141454994   T   T   T
  0.7498862644545383  0.0000479828763105  0.5823472686319775   T   T   T
  0.9998629216476544  0.2500242407666704  0.5823327663179327   T   T   T
  0.0002012602272572  0.4999243004999485  0.5824014670990962   T   T   T
  0.0000401380841168  0.7499025511691571  0.5823826356708963   T   T   T
  0.9999299052481732  0.9998829737675834  0.5823167001830001   T   T   T
  0.1663404675373599  0.0825877168627116  0.4574947962735436   T   T   T
  0.1662985832914927  0.3332008099200294  0.4573815669343873   T   T   T
  0.1664648380002873  0.5834593075540582  0.4574319235589641   T   T   T
  0.1666044193400111  0.8332411207450718  0.4575163619337772   T   T   T
  0.4165158838036902  0.0832080873097993  0.4576109165722144   T   T   T
  0.4166100736666749  0.3329146595788828  0.4573084038637916   T   T   T
  0.4165878346310947  0.5836482661323217  0.4573294394874736   T   T   T
  0.4166761807194348  0.8335571420007852  0.4575246585025852   T   T   T
  0.6666942684386541  0.0833718962756222  0.4576255485977399   T   T   T
  0.6666695805152685  0.3333381992332960  0.4576335462996113   T   T   T
  0.6673680743052515  0.5836114930968108  0.4574479406155163   T   T   T
  0.6667368523901089  0.8334271604139332  0.4576073656557114   T   T   T
  0.9165604764192992  0.0832822657844261  0.4576577112818185   T   T   T
  0.9164014741072037  0.3332150086193479  0.4576230356666997   T   T   T
  0.9167740730355334  0.5833494006627404  0.4575967092611393   T   T   T
  0.9167103721681187  0.8332709542476380  0.4576105365225942   T   T   T
  0.2527078467143795  0.4976338737841459  0.7630931100205345   T   T   T
  0.4975849881469756  0.2525305259926256  0.7743017765961184   T   T   T
  0.3061705369742924  0.4442045331753803  0.7667186532910790   T   T   T
  0.4428348806125584  0.5111530107077087  0.7666733384944493   T   T   T
  0.5112792991902424  0.4426344308230199  0.7701059507522032   T   T   T
  0.4441354984115193  0.3061319961807740  0.7730014588075917   T   T   T
  0.3075603880032318  0.2393235319481235  0.7736801409397529   T   T   T
  0.2392026695224274  0.3078899714429113  0.7710046086357281   T   T   T
  0.5101907993343460  0.6439095118238143  0.7629195438946326   T   T   T
  0.6442520503896887  0.5098432222888007  0.7703042109032552   T   T   T
  0.2401220575192085  0.1065487310206805  0.7765989689437589   T   T   T
  0.1063189241119886  0.2406476914732565  0.7720994838928306   T   T   T
 
  0.00000000E+00  0.00000000E+00  0.00000000E+00
  0.00000000E+00  0.00000000E+00  0.00000000E+00
  0.00000000E+00  0.00000000E+00  0.00000000E+00
  0.00000000E+00  0.00000000E+00  0.00000000E+00
  0.00000000E+00  0.00000000E+00  0.00000000E+00
  0.00000000E+00  0.00000000E+00  0.00000000E+00
  0.00000000E+00  0.00000000E+00  0.00000000E+00
  0.00000000E+00  0.00000000E+00  0.00000000E+00
  0.00000000E+00  0.00000000E+00  0.00000000E+00
  0.00000000E+00  0.00000000E+00  0.00000000E+00
  0.00000000E+00  0.00000000E+00  0.00000000E+00
  0.00000000E+00  0.00000000E+00  0.00000000E+00
  0.00000000E+00  0.00000000E+00  0.00000000E+00
  0.00000000E+00  0.00000000E+00  0.00000000E+00
  0.00000000E+00  0.00000000E+00  0.00000000E+00
  0.00000000E+00  0.00000000E+00  0.00000000E+00
  0.00000000E+00  0.00000000E+00  0.00000000E+00
  0.00000000E+00  0.00000000E+00  0.00000000E+00
  0.00000000E+00  0.00000000E+00  0.00000000E+00
  0.00000000E+00  0.00000000E+00  0.00000000E+00
  0.00000000E+00  0.00000000E+00  0.00000000E+00
  0.00000000E+00  0.00000000E+00  0.00000000E+00
  0.00000000E+00  0.00000000E+00  0.00000000E+00
  0.00000000E+00  0.00000000E+00  0.00000000E+00
  0.00000000E+00  0.00000000E+00  0.00000000E+00
  0.00000000E+00  0.00000000E+00  0.00000000E+00
  0.00000000E+00  0.00000000E+00  0.00000000E+00
  0.00000000E+00  0.00000000E+00  0.00000000E+00
  0.00000000E+00  0.00000000E+00  0.00000000E+00
  0.00000000E+00  0.00000000E+00  0.00000000E+00
  0.00000000E+00  0.00000000E+00  0.00000000E+00
  0.00000000E+00  0.00000000E+00  0.00000000E+00
  0.00000000E+00  0.00000000E+00  0.00000000E+00
  0.00000000E+00  0.00000000E+00  0.00000000E+00
  0.00000000E+00  0.00000000E+00  0.00000000E+00
  0.00000000E+00  0.00000000E+00  0.00000000E+00
  0.00000000E+00  0.00000000E+00  0.00000000E+00
  0.00000000E+00  0.00000000E+00  0.00000000E+00
  0.00000000E+00  0.00000000E+00  0.00000000E+00
  0.00000000E+00  0.00000000E+00  0.00000000E+00
  0.00000000E+00  0.00000000E+00  0.00000000E+00
  0.00000000E+00  0.00000000E+00  0.00000000E+00
  0.00000000E+00  0.00000000E+00  0.00000000E+00
  0.00000000E+00  0.00000000E+00  0.00000000E+00
  0.00000000E+00  0.00000000E+00  0.00000000E+00
  0.00000000E+00  0.00000000E+00  0.00000000E+00
  0.00000000E+00  0.00000000E+00  0.00000000E+00
  0.00000000E+00  0.00000000E+00  0.00000000E+00
  0.00000000E+00  0.00000000E+00  0.00000000E+00
  0.00000000E+00  0.00000000E+00  0.00000000E+00
  0.00000000E+00  0.00000000E+00  0.00000000E+00
  0.00000000E+00  0.00000000E+00  0.00000000E+00
  0.00000000E+00  0.00000000E+00  0.00000000E+00
  0.00000000E+00  0.00000000E+00  0.00000000E+00
  0.00000000E+00  0.00000000E+00  0.00000000E+00
  0.00000000E+00  0.00000000E+00  0.00000000E+00
  0.00000000E+00  0.00000000E+00  0.00000000E+00
  0.00000000E+00  0.00000000E+00  0.00000000E+00
  0.00000000E+00  0.00000000E+00  0.00000000E+00
  0.00000000E+00  0.00000000E+00  0.00000000E+00
