Cu  C  H Br                             
    1.000000000000000     
    10.2424774999999997    0.0000000000000000    0.0000000000000000
     0.0000000000000000   10.2424774999999997    0.0000000000000000
     0.0000000000000000    0.0000000000000000   23.4318939600000000
   Cu   C    H    Br
    64     6     4     2
Selective dynamics
Direct
  0.2499999995118358  0.0000000000000000  0.3200765594451340   F   F   F
  0.0000000000000000  0.4999999990236716  0.3200765594451340   F   F   F
  0.2499999995118358  0.2499999995118358  0.3200765594451340   F   F   F
  0.2499999995118358  0.4999999990236716  0.3200765594451340   F   F   F
  0.2499999995118358  0.7499999985355075  0.3200765594451340   F   F   F
  0.4999999990236716  0.0000000000000000  0.3200765594451340   F   F   F
  0.4999999990236716  0.2499999995118358  0.3200765594451340   F   F   F
  0.0000000000000000  0.7499999985355075  0.3200765594451340   F   F   F
  0.4999999990236716  0.4999999990236716  0.3200765594451340   F   F   F
  0.4999999990236716  0.7499999985355075  0.3200765594451340   F   F   F
  0.7499999985355075  0.0000000000000000  0.3200765594451340   F   F   F
  0.7499999985355075  0.2499999995118358  0.3200765594451340   F   F   F
  0.7499999985355075  0.4999999990236716  0.3200765594451340   F   F   F
  0.7499999985355075  0.7499999985355075  0.3200765594451340   F   F   F
  0.0000000000000000  0.0000000000000000  0.3200765594451340   F   F   F
  0.0000000000000000  0.2499999995118358  0.3200765594451340   F   F   F
  0.2499213126319308  0.0001230829058704  0.4741420369115126   T   T   T
  0.2498419735214364  0.2498391030229694  0.4741153310022860   T   T   T
  0.2498261133566327  0.4999566235184482  0.4741862133950226   T   T   T
  0.2499816028778045  0.7500168838293296  0.4740545273711913   T   T   T
  0.5000028681674030 -0.0000047664429097  0.4740724327378086   T   T   T
  0.4999634847345507  0.2498242817367546  0.4741861655808046   T   T   T
  0.5000114785943381  0.5000053213149845  0.4739843656826006   T   T   T
  0.5000450195354458  0.7501731843901276  0.4741871441947490   T   T   T
  0.7500770857757225 -0.0001263583723490  0.4741435372108536   T   T   T
  0.7500158227071023  0.2499868149996917  0.4740556620405361   T   T   T
  0.7501747986276565  0.5000428455793412  0.4741829879144527   T   T   T
  0.7501622405941104  0.7501529868327830  0.4741052341440461   T   T   T
 -0.0000008772529792 -0.0000038166367006  0.4740782423339934   T   T   T
  0.0001248799186851  0.2499192091984358  0.4741421995106749   T   T   T
 -0.0000041699552318  0.5000019783702615  0.4740665256052994   T   T   T
 -0.0001261066063742  0.7500760753810692  0.4741393436245265   T   T   T
  0.1245468202849923  0.1245427131383749  0.5496207441822710   T   T   T
  0.1245580716342248  0.3752231454566537  0.5497590591520702   T   T   T
  0.1249342315338559  0.6250804207144078  0.5495456457489208   T   T   T
  0.1253228740514876  0.8746761685053741  0.5497468303363837   T   T   T
  0.3752154798911668  0.1245582359050075  0.5497588368729265   T   T   T
  0.3754097284305133  0.3754150294062562  0.5487613846743066   T   T   T
  0.3744417480111768  0.6255627775916947  0.5495949288425566   T   T   T
  0.3749195167102791  0.8750558313192146  0.5495431532306010   T   T   T
  0.6250820363939014  0.1249380958978694  0.5495445108216288   T   T   T
  0.6255691448293893  0.3744471932852941  0.5495942551944702   T   T   T
  0.6246169988432657  0.6246069415670527  0.5487569610209381   T   T   T
  0.6247908562839390  0.8754343437965862  0.5497559497431196   T   T   T
  0.8746760486592496  0.1253246750724846  0.5497473412268344   T   T   T
  0.8750620717080162  0.3749283202775840  0.5495418081521366   T   T   T
  0.8754448556455018  0.6247908422362524  0.5497560043018966   T   T   T
  0.8754554439956673  0.8754495947108872  0.5496132046877967   T   T   T
  0.1250000002440785  0.1249999992677573  0.3973486452223582   F   F   F
  0.1250000002440785  0.3749999997559215  0.3973486452223582   F   F   F
  0.1250000002440785  0.6249999982914289  0.3973486452223582   F   F   F
  0.1250000002440785  0.8749999987795931  0.3973486452223582   F   F   F
  0.3749999997559215  0.1249999992677573  0.3973486452223582   F   F   F
  0.3749999997559215  0.3749999997559215  0.3973486452223582   F   F   F
  0.3749999997559215  0.6249999982914289  0.3973486452223582   F   F   F
  0.3749999997559215  0.8749999987795931  0.3973486452223582   F   F   F
  0.6249999982914289  0.1249999992677573  0.3973486452223582   F   F   F
  0.6249999982914289  0.3749999997559215  0.3973486452223582   F   F   F
  0.6249999992677573  0.6249999982914289  0.3973486452223582   F   F   F
  0.6249999992677573  0.8749999987795931  0.3973486452223582   F   F   F
  0.8749999987795931  0.1249999992677573  0.3973486452223582   F   F   F
  0.8749999978032648  0.3749999997559215  0.3973486452223582   F   F   F
  0.8749999987795931  0.6249999982914289  0.3973486452223582   F   F   F
  0.8749999987795931  0.8749999987795931  0.3973486452223582   F   F   F
  0.5955525270134890  0.5955350406173366  0.6680991002195908   T   T   T
  0.6326732983164297  0.4641236916558030  0.6668474351280873   T   T   T
  0.5359036277075965  0.3673097803722358  0.6668440647481745   T   T   T
  0.4044282226488637  0.4044626993530741  0.6680946848865219   T   T   T
  0.3672779869113948  0.5359195764647998  0.6668449776464662   T   T   T
  0.4641088576185693  0.6326779973603657  0.6668578451877120   T   T   T
  0.7354999305819739  0.4366523009650541  0.6666174990010837   T   T   T
  0.5633193895643885  0.2644731873664458  0.6666126522633604   T   T   T
  0.2644825012555734  0.5633496640686304  0.6666088698161662   T   T   T
  0.4366713192023364  0.7355335213335347  0.6666150691511883   T   T   T
  0.7271792336539499  0.7271817371462750  0.6722561689477371   T   T   T
  0.2728092478816285  0.2729073636064199  0.6723038825874098   T   T   T
 
  0.00000000E+00  0.00000000E+00  0.00000000E+00
  0.00000000E+00  0.00000000E+00  0.00000000E+00
  0.00000000E+00  0.00000000E+00  0.00000000E+00
  0.00000000E+00  0.00000000E+00  0.00000000E+00
  0.00000000E+00  0.00000000E+00  0.00000000E+00
  0.00000000E+00  0.00000000E+00  0.00000000E+00
  0.00000000E+00  0.00000000E+00  0.00000000E+00
  0.00000000E+00  0.00000000E+00  0.00000000E+00
  0.00000000E+00  0.00000000E+00  0.00000000E+00
  0.00000000E+00  0.00000000E+00  0.00000000E+00
  0.00000000E+00  0.00000000E+00  0.00000000E+00
  0.00000000E+00  0.00000000E+00  0.00000000E+00
  0.00000000E+00  0.00000000E+00  0.00000000E+00
  0.00000000E+00  0.00000000E+00  0.00000000E+00
  0.00000000E+00  0.00000000E+00  0.00000000E+00
  0.00000000E+00  0.00000000E+00  0.00000000E+00
  0.00000000E+00  0.00000000E+00  0.00000000E+00
  0.00000000E+00  0.00000000E+00  0.00000000E+00
  0.00000000E+00  0.00000000E+00  0.00000000E+00
  0.00000000E+00  0.00000000E+00  0.00000000E+00
  0.00000000E+00  0.00000000E+00  0.00000000E+00
  0.00000000E+00  0.00000000E+00  0.00000000E+00
  0.00000000E+00  0.00000000E+00  0.00000000E+00
  0.00000000E+00  0.00000000E+00  0.00000000E+00
  0.00000000E+00  0.00000000E+00  0.00000000E+00
  0.00000000E+00  0.00000000E+00  0.00000000E+00
  0.00000000E+00  0.00000000E+00  0.00000000E+00
  0.00000000E+00  0.00000000E+00  0.00000000E+00
  0.00000000E+00  0.00000000E+00  0.00000000E+00
  0.00000000E+00  0.00000000E+00  0.00000000E+00
  0.00000000E+00  0.00000000E+00  0.00000000E+00
  0.00000000E+00  0.00000000E+00  0.00000000E+00
  0.00000000E+00  0.00000000E+00  0.00000000E+00
  0.00000000E+00  0.00000000E+00  0.00000000E+00
  0.00000000E+00  0.00000000E+00  0.00000000E+00
  0.00000000E+00  0.00000000E+00  0.00000000E+00
  0.00000000E+00  0.00000000E+00  0.00000000E+00
  0.00000000E+00  0.00000000E+00  0.00000000E+00
  0.00000000E+00  0.00000000E+00  0.00000000E+00
  0.00000000E+00  0.00000000E+00  0.00000000E+00
  0.00000000E+00  0.00000000E+00  0.00000000E+00
  0.00000000E+00  0.00000000E+00  0.00000000E+00
  0.00000000E+00  0.00000000E+00  0.00000000E+00
  0.00000000E+00  0.00000000E+00  0.00000000E+00
  0.00000000E+00  0.00000000E+00  0.00000000E+00
  0.00000000E+00  0.00000000E+00  0.00000000E+00
  0.00000000E+00  0.00000000E+00  0.00000000E+00
  0.00000000E+00  0.00000000E+00  0.00000000E+00
  0.00000000E+00  0.00000000E+00  0.00000000E+00
  0.00000000E+00  0.00000000E+00  0.00000000E+00
  0.00000000E+00  0.00000000E+00  0.00000000E+00
  0.00000000E+00  0.00000000E+00  0.00000000E+00
  0.00000000E+00  0.00000000E+00  0.00000000E+00
  0.00000000E+00  0.00000000E+00  0.00000000E+00
  0.00000000E+00  0.00000000E+00  0.00000000E+00
  0.00000000E+00  0.00000000E+00  0.00000000E+00
  0.00000000E+00  0.00000000E+00  0.00000000E+00
  0.00000000E+00  0.00000000E+00  0.00000000E+00
  0.00000000E+00  0.00000000E+00  0.00000000E+00
  0.00000000E+00  0.00000000E+00  0.00000000E+00
  0.00000000E+00  0.00000000E+00  0.00000000E+00
  0.00000000E+00  0.00000000E+00  0.00000000E+00
  0.00000000E+00  0.00000000E+00  0.00000000E+00
  0.00000000E+00  0.00000000E+00  0.00000000E+00
  0.00000000E+00  0.00000000E+00  0.00000000E+00
  0.00000000E+00  0.00000000E+00  0.00000000E+00
  0.00000000E+00  0.00000000E+00  0.00000000E+00
  0.00000000E+00  0.00000000E+00  0.00000000E+00
  0.00000000E+00  0.00000000E+00  0.00000000E+00
  0.00000000E+00  0.00000000E+00  0.00000000E+00
  0.00000000E+00  0.00000000E+00  0.00000000E+00
  0.00000000E+00  0.00000000E+00  0.00000000E+00
  0.00000000E+00  0.00000000E+00  0.00000000E+00
  0.00000000E+00  0.00000000E+00  0.00000000E+00
  0.00000000E+00  0.00000000E+00  0.00000000E+00
  0.00000000E+00  0.00000000E+00  0.00000000E+00
