Cu  C  N Br                             
    1.000000000000000     
    10.2424774999999997    0.0000000000000000    0.0000000000000000
     0.0000000000000000   14.4850505999999992    0.0000000000000000
     0.0000000000000000    0.0000000000000000   21.8409290399999989
   Cu   C    N    Br
    64     4     2     4
Selective dynamics
Direct
  0.2499999995118358  0.2499999993096296  0.3433919860398049   F   F   F
  0.0000000000000000  0.7499999965481621  0.3433919860398049   F   F   F
  0.2499999995118358  0.4999999986192663  0.3433919860398049   F   F   F
  0.2499999995118358  0.7499999979288958  0.3433919860398049   F   F   F
  0.2499999995118358  0.0000000000000000  0.3433919860398049   F   F   F
  0.4999999990236716  0.2499999993096296  0.3433919860398049   F   F   F
  0.4999999990236716  0.4999999986192663  0.3433919860398049   F   F   F
  0.0000000000000000  0.0000000000000000  0.3433919860398049   F   F   F
  0.4999999990236716  0.7499999979288958  0.3433919860398049   F   F   F
  0.4999999990236716  0.0000000000000000  0.3433919860398049   F   F   F
  0.7499999985355075  0.2499999993096296  0.3433919860398049   F   F   F
  0.7499999985355075  0.4999999986192663  0.3433919860398049   F   F   F
  0.7499999985355075  0.7499999979288958  0.3433919860398049   F   F   F
  0.7499999985355075  0.0000000000000000  0.3433919860398049   F   F   F
  0.9999999980473504  0.2499999993096296  0.3433919860398049   F   F   F
  0.0000000000000000  0.4999999986192663  0.3433919860398049   F   F   F
  0.2490233681145479  0.2498470839473118  0.4608365997003183   T   T   T
  0.2510028786752007  0.4998711770271630  0.4594786344857156   T   T   T
  0.2499864613230441  0.7490902008725893  0.4611739080061684   T   T   T
  0.2502855540137882  0.9998786937895396  0.4620250365324812   T   T   T
  0.4996587169244690  0.2498757028991095  0.4601013568316499   T   T   T
  0.5000203461315437  0.4999875320167082  0.4594562607273889   T   T   T
  0.5003588565241205  0.7501194682986645  0.4601016497135580   T   T   T
  0.5000042500230185 -0.0000068455779790  0.4620470641926927   T   T   T
  0.7500045392747199  0.2509164905144639  0.4611785537976915   T   T   T
  0.7489983404567744  0.5001151129160286  0.4595055909236775   T   T   T
  0.7509799983180210  0.7501278674602824  0.4608526763510792   T   T   T
  0.7497232557485362  0.0001092756569992  0.4620275213388265   T   T   T
  0.9994174661901557  0.2504716776315390  0.4618484295469830   T   T   T
 -0.0000105121231815  0.4999964463282088  0.4600794744971458   T   T   T
  0.0005767713174349  0.7495052934370096  0.4618606637305986   T   T   T
  0.0000034574072998 -0.0000042088885535  0.4618601067934111   T   T   T
  0.1248213502770166  0.1252821102437288  0.5163228948140076   T   T   T
  0.1238682694136570  0.3757702049443524  0.5159497093321963   T   T   T
  0.1251469452148067  0.6234988269257926  0.5167259947136623   T   T   T
  0.1252221039948558  0.8744932166684700  0.5162857548053342   T   T   T
  0.3747843479910024  0.1261392760525589  0.5160572606299378   T   T   T
  0.3719691341637131  0.3712653180493460  0.5170442769014605   T   T   T
  0.3758052917582208  0.6262714517627291  0.5173169482399860   T   T   T
  0.3751464912877404  0.8734623784079948  0.5162863526094890   T   T   T
  0.6248633159561350  0.1265339400197118  0.5162856379865955   T   T   T
  0.6242032551022763  0.3737290261498232  0.5173844881715908   T   T   T
  0.6280351857294377  0.6287210517394725  0.5170449122089065   T   T   T
  0.6252267238074157  0.8738523749681253  0.5160645167632303   T   T   T
  0.8747814906615135  0.1254965505086714  0.5162791714295573   T   T   T
  0.8748595445268723  0.3764590529698307  0.5167090540187560   T   T   T
  0.8761338203728803  0.6242052808045784  0.5159702643638647   T   T   T
  0.8751835336629447  0.8747056399641909  0.5163287846654400   T   T   T
  0.1250000002440785  0.1249999996548183  0.4020117305412967   F   F   F
  0.1250000002440785  0.3749999989644479  0.4020117305412967   F   F   F
  0.1250000002440785  0.6249999982740846  0.4020117305412967   F   F   F
  0.1250000002440785  0.8749999975837142  0.4020117305412967   F   F   F
  0.3749999997559215  0.1249999996548183  0.4020117305412967   F   F   F
  0.3749999997559215  0.3749999989644479  0.4020117305412967   F   F   F
  0.3749999997559215  0.6249999982740846  0.4020117305412967   F   F   F
  0.3749999997559215  0.8749999975837142  0.4020117305412967   F   F   F
  0.6249999982914289  0.1249999996548183  0.4020117305412967   F   F   F
  0.6249999992677573  0.3749999989644479  0.4020117305412967   F   F   F
  0.6249999992677573  0.6249999982740846  0.4020117305412967   F   F   F
  0.6249999992677573  0.8749999975837142  0.4020117305412967   F   F   F
  0.8749999987795931  0.1249999996548183  0.4020117305412967   F   F   F
  0.8749999978032648  0.3749999989644479  0.4020117305412967   F   F   F
  0.8749999987795931  0.6249999982740846  0.4020117305412967   F   F   F
  0.8749999987795931  0.8749999975837142  0.4020117305412967   F   F   F
  0.5570554641895523  0.4113532162027746  0.6040034501759929   T   T   T
  0.6285839645628333  0.4948370823820364  0.6112957095808258   T   T   T
  0.4427503378178236  0.5886809635097068  0.6038916769002433   T   T   T
  0.3711592140539339  0.5052019799683347  0.6111999952384333   T   T   T
  0.5820848398236863  0.5777901076438766  0.5995454374986541   T   T   T
  0.4176914168243262  0.4222148881749188  0.5995573201544142   T   T   T
  0.1829059162277535  0.5120556203504134  0.6221982966864659   T   T   T
  0.3950247655961490  0.6968545789914056  0.6542487714990866   T   T   T
  0.6048421216497524  0.3033160500029923  0.6543304793184289   T   T   T
  0.8170099669487947  0.4881885477617559  0.6223423065045280   T   T   T
 
  0.00000000E+00  0.00000000E+00  0.00000000E+00
  0.00000000E+00  0.00000000E+00  0.00000000E+00
  0.00000000E+00  0.00000000E+00  0.00000000E+00
  0.00000000E+00  0.00000000E+00  0.00000000E+00
  0.00000000E+00  0.00000000E+00  0.00000000E+00
  0.00000000E+00  0.00000000E+00  0.00000000E+00
  0.00000000E+00  0.00000000E+00  0.00000000E+00
  0.00000000E+00  0.00000000E+00  0.00000000E+00
  0.00000000E+00  0.00000000E+00  0.00000000E+00
  0.00000000E+00  0.00000000E+00  0.00000000E+00
  0.00000000E+00  0.00000000E+00  0.00000000E+00
  0.00000000E+00  0.00000000E+00  0.00000000E+00
  0.00000000E+00  0.00000000E+00  0.00000000E+00
  0.00000000E+00  0.00000000E+00  0.00000000E+00
  0.00000000E+00  0.00000000E+00  0.00000000E+00
  0.00000000E+00  0.00000000E+00  0.00000000E+00
  0.00000000E+00  0.00000000E+00  0.00000000E+00
  0.00000000E+00  0.00000000E+00  0.00000000E+00
  0.00000000E+00  0.00000000E+00  0.00000000E+00
  0.00000000E+00  0.00000000E+00  0.00000000E+00
  0.00000000E+00  0.00000000E+00  0.00000000E+00
  0.00000000E+00  0.00000000E+00  0.00000000E+00
  0.00000000E+00  0.00000000E+00  0.00000000E+00
  0.00000000E+00  0.00000000E+00  0.00000000E+00
  0.00000000E+00  0.00000000E+00  0.00000000E+00
  0.00000000E+00  0.00000000E+00  0.00000000E+00
  0.00000000E+00  0.00000000E+00  0.00000000E+00
  0.00000000E+00  0.00000000E+00  0.00000000E+00
  0.00000000E+00  0.00000000E+00  0.00000000E+00
  0.00000000E+00  0.00000000E+00  0.00000000E+00
  0.00000000E+00  0.00000000E+00  0.00000000E+00
  0.00000000E+00  0.00000000E+00  0.00000000E+00
  0.00000000E+00  0.00000000E+00  0.00000000E+00
  0.00000000E+00  0.00000000E+00  0.00000000E+00
  0.00000000E+00  0.00000000E+00  0.00000000E+00
  0.00000000E+00  0.00000000E+00  0.00000000E+00
  0.00000000E+00  0.00000000E+00  0.00000000E+00
  0.00000000E+00  0.00000000E+00  0.00000000E+00
  0.00000000E+00  0.00000000E+00  0.00000000E+00
  0.00000000E+00  0.00000000E+00  0.00000000E+00
  0.00000000E+00  0.00000000E+00  0.00000000E+00
  0.00000000E+00  0.00000000E+00  0.00000000E+00
  0.00000000E+00  0.00000000E+00  0.00000000E+00
  0.00000000E+00  0.00000000E+00  0.00000000E+00
  0.00000000E+00  0.00000000E+00  0.00000000E+00
  0.00000000E+00  0.00000000E+00  0.00000000E+00
  0.00000000E+00  0.00000000E+00  0.00000000E+00
  0.00000000E+00  0.00000000E+00  0.00000000E+00
  0.00000000E+00  0.00000000E+00  0.00000000E+00
  0.00000000E+00  0.00000000E+00  0.00000000E+00
  0.00000000E+00  0.00000000E+00  0.00000000E+00
  0.00000000E+00  0.00000000E+00  0.00000000E+00
  0.00000000E+00  0.00000000E+00  0.00000000E+00
  0.00000000E+00  0.00000000E+00  0.00000000E+00
  0.00000000E+00  0.00000000E+00  0.00000000E+00
  0.00000000E+00  0.00000000E+00  0.00000000E+00
  0.00000000E+00  0.00000000E+00  0.00000000E+00
  0.00000000E+00  0.00000000E+00  0.00000000E+00
  0.00000000E+00  0.00000000E+00  0.00000000E+00
  0.00000000E+00  0.00000000E+00  0.00000000E+00
  0.00000000E+00  0.00000000E+00  0.00000000E+00
  0.00000000E+00  0.00000000E+00  0.00000000E+00
  0.00000000E+00  0.00000000E+00  0.00000000E+00
  0.00000000E+00  0.00000000E+00  0.00000000E+00
  0.00000000E+00  0.00000000E+00  0.00000000E+00
  0.00000000E+00  0.00000000E+00  0.00000000E+00
  0.00000000E+00  0.00000000E+00  0.00000000E+00
  0.00000000E+00  0.00000000E+00  0.00000000E+00
  0.00000000E+00  0.00000000E+00  0.00000000E+00
  0.00000000E+00  0.00000000E+00  0.00000000E+00
  0.00000000E+00  0.00000000E+00  0.00000000E+00
  0.00000000E+00  0.00000000E+00  0.00000000E+00
  0.00000000E+00  0.00000000E+00  0.00000000E+00
  0.00000000E+00  0.00000000E+00  0.00000000E+00
