Ir48 C6 F6                              
    1.000000000000000     
    10.9622135000000007    0.0000000000000000    0.0000000000000000
     0.0000000000000000   15.5029109999999992    0.0000000000000000
     0.0000000000000000    0.0000000000000000   15.5412342500000005
   Ir   C    F 
    48     6     6
Selective dynamics
Direct
  0.2497666090132284  0.0001768672242335  0.4133675701369768   T   T   T
  0.2494344116803475  0.2508239807917434  0.4116816274740458   T   T   T
  0.2476218047548997  0.4985614784060104  0.4070194314342785   T   T   T
  0.2548706114956758  0.7464511743038997  0.4151249054400168   T   T   T
  0.4999999990877768  0.0000000000000000  0.3948049199590500   T   T   T
  0.4992629020012913  0.2529037980472140  0.3963774035288665   T   T   T
  0.4999999990877768  0.4999999993549622  0.3928793328929530   T   T   T
  0.5007370961742623  0.7470962000176655  0.3963774035288665   T   T   T
  0.7502333891623252  0.9998231327757665  0.4133675701369768   T   T   T
  0.7451293866798778  0.2535488237609798  0.4151249054400168   T   T   T
  0.7523781934206539  0.5014385203039140  0.4070194314342785   T   T   T
  0.7505655864952061  0.7491760172731361  0.4116816281174920   T   T   T
  0.0000000000000000  0.0000000000000000  0.3903345459637961   T   T   T
  0.9979314818457041  0.2497748366144563  0.3950427545425512   T   T   T
  0.9999999981755536  0.4999999993549622  0.3926518738216345   T   T   T
  0.0020685145054031  0.7502251614504232  0.3950427551859974   T   T   T
  0.1229137769979332  0.1249831254585061  0.4849234247369196   T   T   T
  0.1192474568119479  0.3746572005337470  0.4849853280868217   T   T   T
  0.1242769999391342  0.6234618664063234  0.4846712455910875   T   T   T
  0.1254069299575136  0.8739788096725150  0.4848358169149591   T   T   T
  0.3758993893132399  0.1258583817398744  0.4846318667774270   T   T   T
  0.3668671629888465  0.3774193037830287  0.4882945558985128   T   T   T
  0.3819572754463820  0.6105350349891410  0.4953533169931248   T   T   T
  0.3764876495066076  0.8742785889957858  0.4844080932080104   T   T   T
  0.6235123495811692  0.1257214090690937  0.4844080932080104   T   T   T
  0.6180427236413948  0.3894649637207763  0.4953533169931248   T   T   T
  0.6331328360989303  0.6225806949268886  0.4882945558985128   T   T   T
  0.6241006097745370  0.8741416163250051  0.4846318667774270   T   T   T
  0.8745930691302632  0.1260211883923645  0.4848358169149591   T   T   T
  0.8757229991486426  0.3765381323035939  0.4846712455910875   T   T   T
  0.8807525422758289  0.6253427981761703  0.4849853280868217   T   T   T
  0.8770862220898437  0.8750168726063734  0.4849234247369196   T   T   T
  0.1249999993158326  0.1249999996774775  0.3217247690607294   F   F   F
  0.1249999993158326  0.3749999996774775  0.3217247690607294   F   F   F
  0.1250000002280558  0.6249999990324397  0.3217247690607294   F   F   F
  0.1250000002280558  0.8749999983874019  0.3217247690607294   F   F   F
  0.3749999988597210  0.1249999996774775  0.3217247690607294   F   F   F
  0.3749999997719442  0.3749999996774775  0.3217247690607294   F   F   F
  0.3749999997719442  0.6249999990324397  0.3217247690607294   F   F   F
  0.3749999997719442  0.8749999983874019  0.3217247690607294   F   F   F
  0.6249999993158326  0.1249999996774775  0.3217247690607294   F   F   F
  0.6249999984036094  0.3749999996774775  0.3217247690607294   F   F   F
  0.6249999993158326  0.6249999990324397  0.3217247690607294   F   F   F
  0.6249999993158326  0.8749999983874019  0.3217247690607294   F   F   F
  0.8749999979474978  0.1249999996774775  0.3217247690607294   F   F   F
  0.8749999988597210  0.3749999996774775  0.3217247690607294   F   F   F
  0.8749999988597210  0.6249999990324397  0.3217247690607294   F   F   F
  0.8749999988597210  0.8749999983874019  0.3217247690607294   F   F   F
  0.3705769339724299  0.5279154026636306  0.6078234924172037   T   T   T
  0.4644799565051940  0.5923945920043323  0.6178233414746472   T   T   T
  0.5993743347561278  0.5697717080940095  0.6079035008369331   T   T   T
  0.6294230386608390  0.4720845831454881  0.6078234924172037   T   T   T
  0.5355200690370836  0.4076054196063907  0.6178233414746472   T   T   T
  0.4006256643316490  0.4302282906159149  0.6079035008369331   T   T   T
  0.2626809542624997  0.5424122274620018  0.6510252348565828   T   T   T
  0.4435135032168489  0.6584243636265157  0.6747947551181781   T   T   T
  0.6642213566110016  0.6075873117107733  0.6756719725638689   T   T   T
  0.7373190448252771  0.4575877712479155  0.6510252348565828   T   T   T
  0.5564865624633129  0.3415756557246894  0.6747947551181781   T   T   T
  0.3357786689312903  0.3924126998999498  0.6756719725638689   T   T   T
 
  0.00000000E+00  0.00000000E+00  0.00000000E+00
  0.00000000E+00  0.00000000E+00  0.00000000E+00
  0.00000000E+00  0.00000000E+00  0.00000000E+00
  0.00000000E+00  0.00000000E+00  0.00000000E+00
  0.00000000E+00  0.00000000E+00  0.00000000E+00
  0.00000000E+00  0.00000000E+00  0.00000000E+00
  0.00000000E+00  0.00000000E+00  0.00000000E+00
  0.00000000E+00  0.00000000E+00  0.00000000E+00
  0.00000000E+00  0.00000000E+00  0.00000000E+00
  0.00000000E+00  0.00000000E+00  0.00000000E+00
  0.00000000E+00  0.00000000E+00  0.00000000E+00
  0.00000000E+00  0.00000000E+00  0.00000000E+00
  0.00000000E+00  0.00000000E+00  0.00000000E+00
  0.00000000E+00  0.00000000E+00  0.00000000E+00
  0.00000000E+00  0.00000000E+00  0.00000000E+00
  0.00000000E+00  0.00000000E+00  0.00000000E+00
  0.00000000E+00  0.00000000E+00  0.00000000E+00
  0.00000000E+00  0.00000000E+00  0.00000000E+00
  0.00000000E+00  0.00000000E+00  0.00000000E+00
  0.00000000E+00  0.00000000E+00  0.00000000E+00
  0.00000000E+00  0.00000000E+00  0.00000000E+00
  0.00000000E+00  0.00000000E+00  0.00000000E+00
  0.00000000E+00  0.00000000E+00  0.00000000E+00
  0.00000000E+00  0.00000000E+00  0.00000000E+00
  0.00000000E+00  0.00000000E+00  0.00000000E+00
  0.00000000E+00  0.00000000E+00  0.00000000E+00
  0.00000000E+00  0.00000000E+00  0.00000000E+00
  0.00000000E+00  0.00000000E+00  0.00000000E+00
  0.00000000E+00  0.00000000E+00  0.00000000E+00
  0.00000000E+00  0.00000000E+00  0.00000000E+00
  0.00000000E+00  0.00000000E+00  0.00000000E+00
  0.00000000E+00  0.00000000E+00  0.00000000E+00
  0.00000000E+00  0.00000000E+00  0.00000000E+00
  0.00000000E+00  0.00000000E+00  0.00000000E+00
  0.00000000E+00  0.00000000E+00  0.00000000E+00
  0.00000000E+00  0.00000000E+00  0.00000000E+00
  0.00000000E+00  0.00000000E+00  0.00000000E+00
  0.00000000E+00  0.00000000E+00  0.00000000E+00
  0.00000000E+00  0.00000000E+00  0.00000000E+00
  0.00000000E+00  0.00000000E+00  0.00000000E+00
  0.00000000E+00  0.00000000E+00  0.00000000E+00
  0.00000000E+00  0.00000000E+00  0.00000000E+00
  0.00000000E+00  0.00000000E+00  0.00000000E+00
  0.00000000E+00  0.00000000E+00  0.00000000E+00
  0.00000000E+00  0.00000000E+00  0.00000000E+00
  0.00000000E+00  0.00000000E+00  0.00000000E+00
  0.00000000E+00  0.00000000E+00  0.00000000E+00
  0.00000000E+00  0.00000000E+00  0.00000000E+00
  0.00000000E+00  0.00000000E+00  0.00000000E+00
  0.00000000E+00  0.00000000E+00  0.00000000E+00
  0.00000000E+00  0.00000000E+00  0.00000000E+00
  0.00000000E+00  0.00000000E+00  0.00000000E+00
  0.00000000E+00  0.00000000E+00  0.00000000E+00
  0.00000000E+00  0.00000000E+00  0.00000000E+00
  0.00000000E+00  0.00000000E+00  0.00000000E+00
  0.00000000E+00  0.00000000E+00  0.00000000E+00
  0.00000000E+00  0.00000000E+00  0.00000000E+00
  0.00000000E+00  0.00000000E+00  0.00000000E+00
  0.00000000E+00  0.00000000E+00  0.00000000E+00
  0.00000000E+00  0.00000000E+00  0.00000000E+00
