Rh48 C6 F6                              
    1.000000000000000     
    10.8721879999999995    0.0000000000000000    0.0000000000000000
    -5.4360939999999998    9.4155909999999992    0.0000000000000000
     0.0000000000000000    0.0000000000000000   17.4385520000000014
   Rh   C    F 
    48     6     6
Selective dynamics
Direct
  0.0833330000000032  0.1666669999999968  0.3440650000000005   F   F   F
  0.0833330000000032  0.4166669999999968  0.3440650000000005   F   F   F
  0.0833330000000032  0.6666669999999968  0.3440650000000005   F   F   F
  0.0833330000000032  0.9166669999999968  0.3440650000000005   F   F   F
  0.3333330000000032  0.1666669999999968  0.3440650000000005   F   F   F
  0.3333330000000032  0.4166669999999968  0.3440650000000005   F   F   F
  0.3333330000000032  0.6666669999999968  0.3440650000000005   F   F   F
  0.3333330000000032  0.9166669999999968  0.3440650000000005   F   F   F
  0.5833330000000032  0.1666669999999968  0.3440650000000005   F   F   F
  0.5833330000000032  0.4166669999999968  0.3440650000000005   F   F   F
  0.5833330000000032  0.6666669999999968  0.3440650000000005   F   F   F
  0.5833330000000032  0.9166669999999968  0.3440650000000005   F   F   F
  0.8333330000000032  0.1666669999999968  0.3440650000000005   F   F   F
  0.8333330000000032  0.4166669999999968  0.3440650000000005   F   F   F
  0.8333330000000032  0.6666669999999968  0.3440650000000005   F   F   F
  0.8333330000000032  0.9166669999999968  0.3440650000000005   F   F   F
  0.9999840778235196  0.0000193126595391  0.5850111892591983   T   T   T
  0.9998945963124797  0.2499786322545887  0.5850559326299134   T   T   T
  0.9999980764152170  0.5000420474880869  0.5849101836658477   T   T   T
  0.9999783650659282  0.7500554131465691  0.5848915856709027   T   T   T
  0.2499806580218475  0.9999205110161498  0.5850648032386374   T   T   T
  0.2500553811416992  0.2500502536925211  0.5854676641395145   T   T   T
  0.2499098923872793  0.5001141983902073  0.5850623130284305   T   T   T
  0.2499876876898597  0.7500345742816847  0.5848998902384679   T   T   T
  0.5000215444785070  0.9999919080661570  0.5849325992787584   T   T   T
  0.5000915491512501  0.2499432423966041  0.5850793459002332   T   T   T
  0.4999845872537776  0.4999748149531200  0.5854803790006287   T   T   T
  0.5000552986745532  0.7501415298263012  0.5850585858114030   T   T   T
  0.7500045424956525  0.0000266706121934  0.5848975840203536   T   T   T
  0.7500375198472469  0.2500085772217489  0.5849210396079485   T   T   T
  0.7501087260448216  0.5000439407811896  0.5850645894701216   T   T   T
  0.7500120982644205  0.7500500963562331  0.5850048872098768   T   T   T
  0.1667837511770855  0.0835264732930270  0.4646065112237920   T   T   T
  0.1667850506562374  0.3333470654903081  0.4645962762027978   T   T   T
  0.1667171125344282  0.5833040027341738  0.4645345925255100   T   T   T
  0.1666996932755751  0.8334157947386913  0.4645297263325077   T   T   T
  0.4166458566882767  0.0833962887993493  0.4645555605074776   T   T   T
  0.4166567200244273  0.3333765355109861  0.4646008692059738   T   T   T
  0.4166819414288696  0.5832361812339215  0.4646063665354561   T   T   T
  0.4167018839584742  0.8333221871367513  0.4645573818746698   T   T   T
  0.6666736304045315  0.0833465613247100  0.4645360529417744   T   T   T
  0.6666273206258211  0.3333796527714057  0.4645513780665667   T   T   T
  0.6664953688275901  0.5832369459244191  0.4646133877923546   T   T   T
  0.6666334608845972  0.8332670079909192  0.4645362415206407   T   T   T
  0.9167620759050052  0.0833933029017402  0.4645419547496772   T   T   T
  0.9167111934619072  0.3333269322073065  0.4645570317989041   T   T   T
  0.9166116385954979  0.5833259084012781  0.4645367719300495   T   T   T
  0.9166389588573409  0.8333912508539640  0.4645594552346637   T   T   T
  0.3007922692792917  0.2265131523178709  0.7693260931962413   T   T   T
  0.2265157542249625  0.3008008233579389  0.7693443871418211   T   T   T
  0.3008216043306433  0.4491040014573358  0.7697324715114604   T   T   T
  0.4491309153425505  0.5234609312950766  0.7693527604340602   T   T   T
  0.5234148295519319  0.4491561789891421  0.7693349014707636   T   T   T
  0.4490808228011076  0.3008337207603589  0.7697077519305537   T   T   T
  0.2296058843798292  0.0836528290627498  0.7719537748968719   T   T   T
  0.0836017243677318  0.2295849579772522  0.7719705261992473   T   T   T
  0.2292574575558604  0.5204750337263491  0.7720944466087118   T   T   T
  0.5201975156823906  0.6663093518031786  0.7719747039751468   T   T   T
  0.6663224994424795  0.5202553134499226  0.7719605815885728   T   T   T
  0.5204822669415918  0.2292998587008697  0.7720985706425338   T   T   T
 
  0.00000000E+00  0.00000000E+00  0.00000000E+00
  0.00000000E+00  0.00000000E+00  0.00000000E+00
  0.00000000E+00  0.00000000E+00  0.00000000E+00
  0.00000000E+00  0.00000000E+00  0.00000000E+00
  0.00000000E+00  0.00000000E+00  0.00000000E+00
  0.00000000E+00  0.00000000E+00  0.00000000E+00
  0.00000000E+00  0.00000000E+00  0.00000000E+00
  0.00000000E+00  0.00000000E+00  0.00000000E+00
  0.00000000E+00  0.00000000E+00  0.00000000E+00
  0.00000000E+00  0.00000000E+00  0.00000000E+00
  0.00000000E+00  0.00000000E+00  0.00000000E+00
  0.00000000E+00  0.00000000E+00  0.00000000E+00
  0.00000000E+00  0.00000000E+00  0.00000000E+00
  0.00000000E+00  0.00000000E+00  0.00000000E+00
  0.00000000E+00  0.00000000E+00  0.00000000E+00
  0.00000000E+00  0.00000000E+00  0.00000000E+00
  0.00000000E+00  0.00000000E+00  0.00000000E+00
  0.00000000E+00  0.00000000E+00  0.00000000E+00
  0.00000000E+00  0.00000000E+00  0.00000000E+00
  0.00000000E+00  0.00000000E+00  0.00000000E+00
  0.00000000E+00  0.00000000E+00  0.00000000E+00
  0.00000000E+00  0.00000000E+00  0.00000000E+00
  0.00000000E+00  0.00000000E+00  0.00000000E+00
  0.00000000E+00  0.00000000E+00  0.00000000E+00
  0.00000000E+00  0.00000000E+00  0.00000000E+00
  0.00000000E+00  0.00000000E+00  0.00000000E+00
  0.00000000E+00  0.00000000E+00  0.00000000E+00
  0.00000000E+00  0.00000000E+00  0.00000000E+00
  0.00000000E+00  0.00000000E+00  0.00000000E+00
  0.00000000E+00  0.00000000E+00  0.00000000E+00
  0.00000000E+00  0.00000000E+00  0.00000000E+00
  0.00000000E+00  0.00000000E+00  0.00000000E+00
  0.00000000E+00  0.00000000E+00  0.00000000E+00
  0.00000000E+00  0.00000000E+00  0.00000000E+00
  0.00000000E+00  0.00000000E+00  0.00000000E+00
  0.00000000E+00  0.00000000E+00  0.00000000E+00
  0.00000000E+00  0.00000000E+00  0.00000000E+00
  0.00000000E+00  0.00000000E+00  0.00000000E+00
  0.00000000E+00  0.00000000E+00  0.00000000E+00
  0.00000000E+00  0.00000000E+00  0.00000000E+00
  0.00000000E+00  0.00000000E+00  0.00000000E+00
  0.00000000E+00  0.00000000E+00  0.00000000E+00
  0.00000000E+00  0.00000000E+00  0.00000000E+00
  0.00000000E+00  0.00000000E+00  0.00000000E+00
  0.00000000E+00  0.00000000E+00  0.00000000E+00
  0.00000000E+00  0.00000000E+00  0.00000000E+00
  0.00000000E+00  0.00000000E+00  0.00000000E+00
  0.00000000E+00  0.00000000E+00  0.00000000E+00
  0.00000000E+00  0.00000000E+00  0.00000000E+00
  0.00000000E+00  0.00000000E+00  0.00000000E+00
  0.00000000E+00  0.00000000E+00  0.00000000E+00
  0.00000000E+00  0.00000000E+00  0.00000000E+00
  0.00000000E+00  0.00000000E+00  0.00000000E+00
  0.00000000E+00  0.00000000E+00  0.00000000E+00
  0.00000000E+00  0.00000000E+00  0.00000000E+00
  0.00000000E+00  0.00000000E+00  0.00000000E+00
  0.00000000E+00  0.00000000E+00  0.00000000E+00
  0.00000000E+00  0.00000000E+00  0.00000000E+00
  0.00000000E+00  0.00000000E+00  0.00000000E+00
  0.00000000E+00  0.00000000E+00  0.00000000E+00
