Ir  C  H Br                             
   1.00000000000000     
    10.9622130000000002    0.0000000000000000    0.0000000000000000
    -5.4811069999999997    9.4935550000000006    0.0000000000000000
     0.0000000000000000    0.0000000000000000   24.7129573799999989
   Ir   C    H    Br
    64     6     4     2
Selective dynamics
Direct
  0.7500000643925233  0.7500000284403470  0.3034845196661777   F   F   F
  0.0000000000000000  0.0000000000000000  0.3034845196661777   F   F   F
  0.0000000102134052  0.2500000094801180  0.3034845196661777   F   F   F
  0.0000000213390337  0.5000000189602289  0.3034845196661777   F   F   F
  0.0000000753392229  0.7500000284403470  0.3034845196661777   F   F   F
  0.2500000109466924  0.0000000000000000  0.3034845196661777   F   F   F
  0.2500000211600977  0.2500000094801180  0.3034845196661777   F   F   F
  0.2500000322857332  0.5000000189602289  0.3034845196661777   F   F   F
  0.5000000218933920  0.0000000000000000  0.3034845196661777   F   F   F
  0.5000000321067972  0.2500000094801180  0.3034845196661777   F   F   F
  0.5000000432324256  0.5000000189602289  0.3034845196661777   F   F   F
  0.5000000534458309  0.7500000284403470  0.3034845196661777   F   F   F
  0.7500000328400844  0.0000000000000000  0.3034845196661777   F   F   F
  0.7500000430534897  0.2500000094801180  0.3034845196661777   F   F   F
  0.7500000541791181  0.5000000189602289  0.3034845196661777   F   F   F
  0.2500000424991384  0.7500000284403470  0.3034845196661777   F   F   F
  0.0833330000000032  0.1666669999999968  0.3940302372665698   F   F   F
  0.0833330000000032  0.4166669999999968  0.3940302372665698   F   F   F
  0.0833330000000032  0.6666669999999968  0.3940302372665698   F   F   F
  0.0833330000000032  0.9166669999999968  0.3940302372665698   F   F   F
  0.3333330000000032  0.1666669999999968  0.3940302372665698   F   F   F
  0.3333330000000032  0.4166669999999968  0.3940302372665698   F   F   F
  0.3333330000000032  0.6666669999999968  0.3940302372665698   F   F   F
  0.3333330000000032  0.9166669999999968  0.3940302372665698   F   F   F
  0.5833330000000032  0.1666669999999968  0.3940302372665698   F   F   F
  0.5833330000000032  0.4166669999999968  0.3940302372665698   F   F   F
  0.5833330000000032  0.6666669999999968  0.3940302372665698   F   F   F
  0.5833330000000032  0.9166669999999968  0.3940302372665698   F   F   F
  0.8333330000000032  0.1666669999999968  0.3940302372665698   F   F   F
  0.8333330000000032  0.4166669999999968  0.3940302372665698   F   F   F
  0.8333330000000032  0.6666669999999968  0.3940302372665698   F   F   F
  0.8333330000000032  0.9166669999999968  0.3940302372665698   F   F   F
  0.9993659131338242  0.0000466867243518  0.5728603904923092   T   T   T
  0.9992339499905643  0.2497712310800154  0.5728154167751013   T   T   T
  0.9987627968657290  0.4999484242257544  0.5725137633544060   T   T   T
 -0.0001360118479338  0.7501432711029820  0.5729941957997249   T   T   T
  0.2496251315611407  0.9998124990722217  0.5728100494490875   T   T   T
  0.2492585565751789  0.2495404880963156  0.5733446647030727   T   T   T
  0.2492555459630964  0.5006399972254577  0.5724444489921847   T   T   T
  0.2502438331010119  0.7508858130313840  0.5727537987159361   T   T   T
  0.4999552780409308  0.9995998485296173  0.5726250924573472   T   T   T
  0.5001095780920574  0.2496140103343811  0.5725628032075449   T   T   T
  0.5002301066067777  0.5004534088593289  0.5735438083964816   T   T   T
  0.5001731113728930  0.7505651779158157  0.5728930721122077   T   T   T
  0.7499665110392527  0.0000681269074826  0.5730255145263378   T   T   T
  0.7501281653363021  0.2499832204430924  0.5728956452568434   T   T   T
  0.7501602267717208  0.5002871369809045  0.5728361997493143   T   T   T
  0.7500304061118711  0.7501448674192600  0.5730010522947687   T   T   T
  0.1664287918534079  0.0832099345800951  0.4834034991721702   T   T   T
  0.1667281135356520  0.3334037168859852  0.4837204340243365   T   T   T
  0.1665504697858736  0.5835534763703769  0.4831055882117042   T   T   T
  0.1664948853117869  0.8332717848343024  0.4834371854624306   T   T   T
  0.4164671007724514  0.0832427699057833  0.4832635791507932   T   T   T
  0.4164720643808671  0.3334325232778994  0.4838585631719326   T   T   T
  0.4165974833886443  0.5831604517006419  0.4835967642090504   T   T   T
  0.4166882709872591  0.8332429002079773  0.4832891186757137   T   T   T
  0.6667358302400275  0.0834818721222758  0.4833683041622816   T   T   T
  0.6667561708616153  0.3335616070090765  0.4833899595036784   T   T   T
  0.6665910169627892  0.5834833777402828  0.4834401736803302   T   T   T
  0.6668848323044371  0.8334433475043932  0.4835122370537112   T   T   T
  0.9165189055695108  0.0832367916452597  0.4833180558473768   T   T   T
  0.9166993498906242  0.3334463077744875  0.4832852179311860   T   T   T
  0.9166603006082797  0.5835347380362671  0.4832882330507017   T   T   T
  0.9166289465587697  0.8334049996275766  0.4833092141196208   T   T   T
  0.3011106877106176  0.4454710991987386  0.7010686013986317   T   T   T
  0.4481409703946966  0.5205715358862345  0.6990748145396617   T   T   T
  0.5216697146746899  0.4464355744478621  0.6993297977528798   T   T   T
  0.4463833668109025  0.2994992706365834  0.7015507708829469   T   T   T
  0.2995025895882727  0.2248016911244931  0.6992545349126585   T   T   T
  0.2258009909145701  0.2986463002277716  0.6990167166258805   T   T   T
  0.5058826309890827  0.6354089760063510  0.6977085247973769   T   T   T
  0.6364084844627882  0.5038632734405961  0.6980099632443660   T   T   T
  0.2417930448183589  0.1101028734902781  0.6979466114093301   T   T   T
  0.1110684793446898  0.2415251112979458  0.6976404962406868   T   T   T
  0.1995526478971683  0.5444646037118348  0.7018536937874018   T   T   T
  0.5451298489928925  0.1982819981386885  0.7050592952200863   T   T   T
 
  0.00000000E+00  0.00000000E+00  0.00000000E+00
  0.00000000E+00  0.00000000E+00  0.00000000E+00
  0.00000000E+00  0.00000000E+00  0.00000000E+00
  0.00000000E+00  0.00000000E+00  0.00000000E+00
  0.00000000E+00  0.00000000E+00  0.00000000E+00
  0.00000000E+00  0.00000000E+00  0.00000000E+00
  0.00000000E+00  0.00000000E+00  0.00000000E+00
  0.00000000E+00  0.00000000E+00  0.00000000E+00
  0.00000000E+00  0.00000000E+00  0.00000000E+00
  0.00000000E+00  0.00000000E+00  0.00000000E+00
  0.00000000E+00  0.00000000E+00  0.00000000E+00
  0.00000000E+00  0.00000000E+00  0.00000000E+00
  0.00000000E+00  0.00000000E+00  0.00000000E+00
  0.00000000E+00  0.00000000E+00  0.00000000E+00
  0.00000000E+00  0.00000000E+00  0.00000000E+00
  0.00000000E+00  0.00000000E+00  0.00000000E+00
  0.00000000E+00  0.00000000E+00  0.00000000E+00
  0.00000000E+00  0.00000000E+00  0.00000000E+00
  0.00000000E+00  0.00000000E+00  0.00000000E+00
  0.00000000E+00  0.00000000E+00  0.00000000E+00
  0.00000000E+00  0.00000000E+00  0.00000000E+00
  0.00000000E+00  0.00000000E+00  0.00000000E+00
  0.00000000E+00  0.00000000E+00  0.00000000E+00
  0.00000000E+00  0.00000000E+00  0.00000000E+00
  0.00000000E+00  0.00000000E+00  0.00000000E+00
  0.00000000E+00  0.00000000E+00  0.00000000E+00
  0.00000000E+00  0.00000000E+00  0.00000000E+00
  0.00000000E+00  0.00000000E+00  0.00000000E+00
  0.00000000E+00  0.00000000E+00  0.00000000E+00
  0.00000000E+00  0.00000000E+00  0.00000000E+00
  0.00000000E+00  0.00000000E+00  0.00000000E+00
  0.00000000E+00  0.00000000E+00  0.00000000E+00
  0.00000000E+00  0.00000000E+00  0.00000000E+00
  0.00000000E+00  0.00000000E+00  0.00000000E+00
  0.00000000E+00  0.00000000E+00  0.00000000E+00
  0.00000000E+00  0.00000000E+00  0.00000000E+00
  0.00000000E+00  0.00000000E+00  0.00000000E+00
  0.00000000E+00  0.00000000E+00  0.00000000E+00
  0.00000000E+00  0.00000000E+00  0.00000000E+00
  0.00000000E+00  0.00000000E+00  0.00000000E+00
  0.00000000E+00  0.00000000E+00  0.00000000E+00
  0.00000000E+00  0.00000000E+00  0.00000000E+00
  0.00000000E+00  0.00000000E+00  0.00000000E+00
  0.00000000E+00  0.00000000E+00  0.00000000E+00
  0.00000000E+00  0.00000000E+00  0.00000000E+00
  0.00000000E+00  0.00000000E+00  0.00000000E+00
  0.00000000E+00  0.00000000E+00  0.00000000E+00
  0.00000000E+00  0.00000000E+00  0.00000000E+00
  0.00000000E+00  0.00000000E+00  0.00000000E+00
  0.00000000E+00  0.00000000E+00  0.00000000E+00
  0.00000000E+00  0.00000000E+00  0.00000000E+00
  0.00000000E+00  0.00000000E+00  0.00000000E+00
  0.00000000E+00  0.00000000E+00  0.00000000E+00
  0.00000000E+00  0.00000000E+00  0.00000000E+00
  0.00000000E+00  0.00000000E+00  0.00000000E+00
  0.00000000E+00  0.00000000E+00  0.00000000E+00
  0.00000000E+00  0.00000000E+00  0.00000000E+00
  0.00000000E+00  0.00000000E+00  0.00000000E+00
  0.00000000E+00  0.00000000E+00  0.00000000E+00
  0.00000000E+00  0.00000000E+00  0.00000000E+00
  0.00000000E+00  0.00000000E+00  0.00000000E+00
  0.00000000E+00  0.00000000E+00  0.00000000E+00
  0.00000000E+00  0.00000000E+00  0.00000000E+00
  0.00000000E+00  0.00000000E+00  0.00000000E+00
  0.00000000E+00  0.00000000E+00  0.00000000E+00
  0.00000000E+00  0.00000000E+00  0.00000000E+00
  0.00000000E+00  0.00000000E+00  0.00000000E+00
  0.00000000E+00  0.00000000E+00  0.00000000E+00
  0.00000000E+00  0.00000000E+00  0.00000000E+00
  0.00000000E+00  0.00000000E+00  0.00000000E+00
  0.00000000E+00  0.00000000E+00  0.00000000E+00
  0.00000000E+00  0.00000000E+00  0.00000000E+00
  0.00000000E+00  0.00000000E+00  0.00000000E+00
  0.00000000E+00  0.00000000E+00  0.00000000E+00
  0.00000000E+00  0.00000000E+00  0.00000000E+00
  0.00000000E+00  0.00000000E+00  0.00000000E+00
