Ag  C  H  F                             
   1.00000000000000     
    11.7678089999999997    0.0000000000000000    0.0000000000000000
    -5.8839040000000002   10.1912210000000005    0.0000000000000000
     0.0000000000000000    0.0000000000000000   25.2062817300000006
   Ag   C    H    F 
    64     6     4     2
Selective dynamics
Direct
  0.7499999754973956  0.7500000274746270  0.2975448771198046   F   F   F
  0.9999999830044857  0.0000000000000000  0.2975448771198046   F   F   F
  0.9999999789222898  0.2500000088311296  0.2975448771198046   F   F   F
  0.9999999748400938  0.5000000176622592  0.2975448771198046   F   F   F
  0.9999999882440349  0.7500000274746270  0.2975448771198046   F   F   F
  0.2499999957511179  0.0000000000000000  0.2975448771198046   F   F   F
  0.2499999916689291  0.2500000088311296  0.2975448771198046   F   F   F
  0.2499999875867331  0.5000000176622592  0.2975448771198046   F   F   F
  0.4999999915022428  0.0000000000000000  0.2975448771198046   F   F   F
  0.4999999874200469  0.2500000088311296  0.2975448771198046   F   F   F
  0.4999999833378510  0.5000000176622592  0.2975448771198046   F   F   F
  0.4999999797462777  0.7500000274746270  0.2975448771198046   F   F   F
  0.7499999872533607  0.0000000000000000  0.2975448771198046   F   F   F
  0.7499999831711648  0.2500000088311296  0.2975448771198046   F   F   F
  0.7499999790889760  0.5000000176622592  0.2975448771198046   F   F   F
  0.2499999839951599  0.7500000274746270  0.2975448771198046   F   F   F
  0.0833330000000032  0.1666669999999968  0.3928423087572952   F   F   F
  0.0833330000000032  0.4166669999999968  0.3928423087572952   F   F   F
  0.0833330000000032  0.6666669999999968  0.3928423087572952   F   F   F
  0.0833330000000032  0.9166669999999968  0.3928423087572952   F   F   F
  0.3333330000000032  0.1666669999999968  0.3928423087572952   F   F   F
  0.3333330000000032  0.4166669999999968  0.3928423087572952   F   F   F
  0.3333330000000032  0.6666669999999968  0.3928423087572952   F   F   F
  0.3333330000000032  0.9166669999999968  0.3928423087572952   F   F   F
  0.5833330000000032  0.1666669999999968  0.3928423087572952   F   F   F
  0.5833330000000032  0.4166669999999968  0.3928423087572952   F   F   F
  0.5833330000000032  0.6666669999999968  0.3928423087572952   F   F   F
  0.5833330000000032  0.9166669999999968  0.3928423087572952   F   F   F
  0.8333330000000032  0.1666669999999968  0.3928423087572952   F   F   F
  0.8333330000000032  0.4166669999999968  0.3928423087572952   F   F   F
  0.8333330000000032  0.6666669999999968  0.3928423087572952   F   F   F
  0.8333330000000032  0.9166669999999968  0.3928423087572952   F   F   F
  0.2490575002898806  0.2492249535543724  0.5705661167213157   T   T   T
  0.2496808400216158  0.5003380674050297  0.5704959833131326   T   T   T
  0.2500796491141711  0.7501224155574366  0.5710184899578210   T   T   T
  0.2497911210992255  0.9996787910280468  0.5708761105017169   T   T   T
  0.5003424873004352  0.2496947421008947  0.5704603438455119   T   T   T
  0.5008374713850685  0.5009769967366928  0.5705315098499791   T   T   T
  0.5002786018173115  0.7505768988014971  0.5708952446211095   T   T   T
  0.4998800868444312  0.9998627759984661  0.5710119132950396   T   T   T
  0.7501648984135327  0.2501181397524629  0.5710112508447389   T   T   T
  0.7503944671091474  0.5002332767939376  0.5708697704977063   T   T   T
  0.7503508319226929  0.7503721657392388  0.5710220235191764   T   T   T
  0.7500471649334050 -0.0000185665057851  0.5710696775999314   T   T   T
  0.9994630597298476  0.2497405827707813  0.5708955609156707   T   T   T
  0.9998800177503298  0.4999073430997267  0.5710199229501319   T   T   T
  0.9999648922152713  0.7500231946185871  0.5710532243851576   T   T   T
  0.9996990682185496  0.9997479885454554  0.5710109543553551   T   T   T
  0.1665151066373205  0.0830400293580657  0.4816042299145096   T   T   T
  0.1666517026112832  0.3332838027201093  0.4816628934372485   T   T   T
  0.1665070978331672  0.5835127016137573  0.4816218181762295   T   T   T
  0.1666320273455200  0.8332501911036340  0.4816575627328964   T   T   T
  0.4166012147920912  0.0831892348408331  0.4816289032383951   T   T   T
  0.4165602380183120  0.3334484276746770  0.4817678527282050   T   T   T
  0.4167178004825308  0.5833629716121881  0.4816516291376056   T   T   T
  0.4166989565097514  0.8333153778865098  0.4816391668356223   T   T   T
  0.6666628391704735  0.0833424027214699  0.4817161819219012   T   T   T
  0.6668778468020412  0.3334351413288059  0.4816348828142767   T   T   T
  0.6670364190907839  0.5835601760008742  0.4816030279896247   T   T   T
  0.6667255389774451  0.8333233213350026  0.4816791351800112   T   T   T
  0.9166870729699717  0.0833011463548780  0.4816637566451430   T   T   T
  0.9166758313637106  0.3332965130908090  0.4816374188727953   T   T   T
  0.9167839332208865  0.5834091589774749  0.4816396296115718   T   T   T
  0.9167076015928747  0.8333145784335910  0.4816197167280566   T   T   T
  0.3081760694570808  0.4454791927267080  0.6924593294549415   T   T   T
  0.4445402548376389  0.5151151998664832  0.6912278622174239   T   T   T
  0.5120450338065632  0.4452788141024334  0.6908960028734932   T   T   T
  0.4399821787318901  0.3089577685971968  0.6918689253869423   T   T   T
  0.3035666643587757  0.2392393629354045  0.6908802571405510   T   T   T
  0.2360741900620108  0.3091247331741433  0.6912023868929017   T   T   T
  0.4969733947805057  0.6220471922004064  0.6904877270808225   T   T   T
  0.6189126873073936  0.4959309707858843  0.6900489390520814   T   T   T
  0.2511284353400114  0.1323243583311784  0.6900949097891391   T   T   T
  0.1291987894958203  0.2586441509508797  0.6905015541974389   T   T   T
  0.2425521924323676  0.5136511541718263  0.6939577492852457   T   T   T
  0.5057024307640980  0.2408005951818050  0.6925889563880053   T   T   T
 
  0.00000000E+00  0.00000000E+00  0.00000000E+00
  0.00000000E+00  0.00000000E+00  0.00000000E+00
  0.00000000E+00  0.00000000E+00  0.00000000E+00
  0.00000000E+00  0.00000000E+00  0.00000000E+00
  0.00000000E+00  0.00000000E+00  0.00000000E+00
  0.00000000E+00  0.00000000E+00  0.00000000E+00
  0.00000000E+00  0.00000000E+00  0.00000000E+00
  0.00000000E+00  0.00000000E+00  0.00000000E+00
  0.00000000E+00  0.00000000E+00  0.00000000E+00
  0.00000000E+00  0.00000000E+00  0.00000000E+00
  0.00000000E+00  0.00000000E+00  0.00000000E+00
  0.00000000E+00  0.00000000E+00  0.00000000E+00
  0.00000000E+00  0.00000000E+00  0.00000000E+00
  0.00000000E+00  0.00000000E+00  0.00000000E+00
  0.00000000E+00  0.00000000E+00  0.00000000E+00
  0.00000000E+00  0.00000000E+00  0.00000000E+00
  0.00000000E+00  0.00000000E+00  0.00000000E+00
  0.00000000E+00  0.00000000E+00  0.00000000E+00
  0.00000000E+00  0.00000000E+00  0.00000000E+00
  0.00000000E+00  0.00000000E+00  0.00000000E+00
  0.00000000E+00  0.00000000E+00  0.00000000E+00
  0.00000000E+00  0.00000000E+00  0.00000000E+00
  0.00000000E+00  0.00000000E+00  0.00000000E+00
  0.00000000E+00  0.00000000E+00  0.00000000E+00
  0.00000000E+00  0.00000000E+00  0.00000000E+00
  0.00000000E+00  0.00000000E+00  0.00000000E+00
  0.00000000E+00  0.00000000E+00  0.00000000E+00
  0.00000000E+00  0.00000000E+00  0.00000000E+00
  0.00000000E+00  0.00000000E+00  0.00000000E+00
  0.00000000E+00  0.00000000E+00  0.00000000E+00
  0.00000000E+00  0.00000000E+00  0.00000000E+00
  0.00000000E+00  0.00000000E+00  0.00000000E+00
  0.00000000E+00  0.00000000E+00  0.00000000E+00
  0.00000000E+00  0.00000000E+00  0.00000000E+00
  0.00000000E+00  0.00000000E+00  0.00000000E+00
  0.00000000E+00  0.00000000E+00  0.00000000E+00
  0.00000000E+00  0.00000000E+00  0.00000000E+00
  0.00000000E+00  0.00000000E+00  0.00000000E+00
  0.00000000E+00  0.00000000E+00  0.00000000E+00
  0.00000000E+00  0.00000000E+00  0.00000000E+00
  0.00000000E+00  0.00000000E+00  0.00000000E+00
  0.00000000E+00  0.00000000E+00  0.00000000E+00
  0.00000000E+00  0.00000000E+00  0.00000000E+00
  0.00000000E+00  0.00000000E+00  0.00000000E+00
  0.00000000E+00  0.00000000E+00  0.00000000E+00
  0.00000000E+00  0.00000000E+00  0.00000000E+00
  0.00000000E+00  0.00000000E+00  0.00000000E+00
  0.00000000E+00  0.00000000E+00  0.00000000E+00
  0.00000000E+00  0.00000000E+00  0.00000000E+00
  0.00000000E+00  0.00000000E+00  0.00000000E+00
  0.00000000E+00  0.00000000E+00  0.00000000E+00
  0.00000000E+00  0.00000000E+00  0.00000000E+00
  0.00000000E+00  0.00000000E+00  0.00000000E+00
  0.00000000E+00  0.00000000E+00  0.00000000E+00
  0.00000000E+00  0.00000000E+00  0.00000000E+00
  0.00000000E+00  0.00000000E+00  0.00000000E+00
  0.00000000E+00  0.00000000E+00  0.00000000E+00
  0.00000000E+00  0.00000000E+00  0.00000000E+00
  0.00000000E+00  0.00000000E+00  0.00000000E+00
  0.00000000E+00  0.00000000E+00  0.00000000E+00
  0.00000000E+00  0.00000000E+00  0.00000000E+00
  0.00000000E+00  0.00000000E+00  0.00000000E+00
  0.00000000E+00  0.00000000E+00  0.00000000E+00
  0.00000000E+00  0.00000000E+00  0.00000000E+00
  0.00000000E+00  0.00000000E+00  0.00000000E+00
  0.00000000E+00  0.00000000E+00  0.00000000E+00
  0.00000000E+00  0.00000000E+00  0.00000000E+00
  0.00000000E+00  0.00000000E+00  0.00000000E+00
  0.00000000E+00  0.00000000E+00  0.00000000E+00
  0.00000000E+00  0.00000000E+00  0.00000000E+00
  0.00000000E+00  0.00000000E+00  0.00000000E+00
  0.00000000E+00  0.00000000E+00  0.00000000E+00
  0.00000000E+00  0.00000000E+00  0.00000000E+00
  0.00000000E+00  0.00000000E+00  0.00000000E+00
  0.00000000E+00  0.00000000E+00  0.00000000E+00
  0.00000000E+00  0.00000000E+00  0.00000000E+00
