Pd48 C6 Br2 H4                          
    1.000000000000000     
    11.1817229999999999    0.0000000000000000    0.0000000000000000
     0.0000000000000000   11.1817229999999999    0.0000000000000000
     0.0000000000000000    0.0000000000000000   16.9036404100000013
   Pd   C    Br   H 
    48     6     2     4
Selective dynamics
Direct
  0.9994418332609598  0.2493075738936952  0.4105072057257999   T   T   T
  0.0000145451106235  0.4999967538336350  0.4096466222328985   T   T   T
  0.0005627905433698  0.7506907953822051  0.4105053509992587   T   T   T
  0.9999916063644463  0.0000036529279370  0.4103427227433087   T   T   T
  0.2507048271663024  0.2507367492189303  0.4108306151840182   T   T   T
  0.2516146234114132  0.5012247541283088  0.4121117555785645   T   T   T
  0.2513336903021539  0.7486409146520572  0.4124827331245058   T   T   T
  0.2492964100986086  0.9994432675763818  0.4104912221690427   T   T   T
  0.5012236570781141  0.2516338821518929  0.4120925300271949   T   T   T
  0.4999882292396975  0.4999970174409185  0.4117624149119194   T   T   T
  0.4987731054999500  0.7483661486047666  0.4120970639573258   T   T   T
  0.5000128661566237  0.9999902388153075  0.4096305530989781   T   T   T
  0.7486565358133674  0.2513398192921912  0.4124814792598102   T   T   T
  0.7483675526899134  0.4987723140782876  0.4120918172545700   T   T   T
  0.7492760126359244  0.7492874024069067  0.4108281777032090   T   T   T
  0.7506988874214997  0.0005575990214481  0.4105056759972001   T   T   T
  0.1246638563615221  0.1246584323226685  0.5259775971810967   T   T   T
  0.1230368185211859  0.3752130562846503  0.5260187193810495   T   T   T
  0.1224360669941262  0.6246469029147903  0.5260511943998836   T   T   T
  0.1247737266390345  0.8752256770921321  0.5266974171032075   T   T   T
  0.3752144271038560  0.1230458861091677  0.5259537011329982   T   T   T
  0.3711797767001244  0.3711841740399464  0.5290511916482430   T   T   T
  0.3722899029248765  0.6277030451669674  0.5354510532448629   T   T   T
  0.3753438693420890  0.8775584457260237  0.5260130375954759   T   T   T
  0.6246428764623815  0.1224449762813791  0.5260180069853675   T   T   T
  0.6276937754258327  0.3722955130678400  0.5354477274896965   T   T   T
  0.6288152740579420  0.6288112983955827  0.5290358962913260   T   T   T
  0.6247813385137135  0.8769533772531091  0.5259917647745382   T   T   T
  0.8752245050288607  0.1247801390854022  0.5266936334302770   T   T   T
  0.8775411646316158  0.3753559044408945  0.5260170022161361   T   T   T
  0.8769463551181431  0.6247795675740235  0.5259685394354960   T   T   T
  0.8753367618673096  0.8753391267526496  0.5259946716390544   T   T   T
  0.1249999995528412  0.1249999995528412  0.2957942714542128   F   F   F
  0.1249999995528412  0.3749999986585237  0.2957942714542128   F   F   F
  0.1249999995528412  0.6249999977642062  0.2957942714542128   F   F   F
  0.1249999995528412  0.8749999968698887  0.2957942714542128   F   F   F
  0.3749999986585237  0.1249999995528412  0.2957942714542128   F   F   F
  0.3749999986585237  0.3749999986585237  0.2957942714542128   F   F   F
  0.3749999986585237  0.6249999977642062  0.2957942714542128   F   F   F
  0.3749999986585237  0.8749999968698887  0.2957942714542128   F   F   F
  0.6249999977642062  0.1249999995528412  0.2957942714542128   F   F   F
  0.6249999977642062  0.3749999986585237  0.2957942714542128   F   F   F
  0.6249999977642062  0.6249999977642062  0.2957942714542128   F   F   F
  0.6249999977642062  0.8749999968698887  0.2957942714542128   F   F   F
  0.8749999968698887  0.1249999995528412  0.2957942714542128   F   F   F
  0.8749999968698887  0.3749999986585237  0.2957942714542128   F   F   F
  0.8749999968698887  0.6249999977642062  0.2957942714542128   F   F   F
  0.8749999968698887  0.8749999968698887  0.2957942714542128   F   F   F
  0.5914346845044562  0.5914241461429057  0.6457653977800319   T   T   T
  0.6249036653060855  0.4655750740073330  0.6506731106354522   T   T   T
  0.5344009490074697  0.3751132288031371  0.6506744003006943   T   T   T
  0.4085813560790257  0.4086059666887607  0.6457757706205598   T   T   T
  0.3751195310691102  0.5344305460720449  0.6506812720596713   T   T   T
  0.4655989331336059  0.6249147366639534  0.6506793549260337   T   T   T
  0.7019511351678105  0.7019106878746655  0.6988293155160861   T   T   T
  0.2980706771286705  0.2981247842070829  0.6988635225557474   T   T   T
  0.7137942948768128  0.4445335075637189  0.6734091200194783   T   T   T
  0.5554441215696997  0.2862074189808226  0.6734179490986918   T   T   T
  0.2862169745623717  0.5554953420604036  0.6734312370683284   T   T   T
  0.4445681031008490  0.7138110487365168  0.6734100966279328   T   T   T
 
  0.00000000E+00  0.00000000E+00  0.00000000E+00
  0.00000000E+00  0.00000000E+00  0.00000000E+00
  0.00000000E+00  0.00000000E+00  0.00000000E+00
  0.00000000E+00  0.00000000E+00  0.00000000E+00
  0.00000000E+00  0.00000000E+00  0.00000000E+00
  0.00000000E+00  0.00000000E+00  0.00000000E+00
  0.00000000E+00  0.00000000E+00  0.00000000E+00
  0.00000000E+00  0.00000000E+00  0.00000000E+00
  0.00000000E+00  0.00000000E+00  0.00000000E+00
  0.00000000E+00  0.00000000E+00  0.00000000E+00
  0.00000000E+00  0.00000000E+00  0.00000000E+00
  0.00000000E+00  0.00000000E+00  0.00000000E+00
  0.00000000E+00  0.00000000E+00  0.00000000E+00
  0.00000000E+00  0.00000000E+00  0.00000000E+00
  0.00000000E+00  0.00000000E+00  0.00000000E+00
  0.00000000E+00  0.00000000E+00  0.00000000E+00
  0.00000000E+00  0.00000000E+00  0.00000000E+00
  0.00000000E+00  0.00000000E+00  0.00000000E+00
  0.00000000E+00  0.00000000E+00  0.00000000E+00
  0.00000000E+00  0.00000000E+00  0.00000000E+00
  0.00000000E+00  0.00000000E+00  0.00000000E+00
  0.00000000E+00  0.00000000E+00  0.00000000E+00
  0.00000000E+00  0.00000000E+00  0.00000000E+00
  0.00000000E+00  0.00000000E+00  0.00000000E+00
  0.00000000E+00  0.00000000E+00  0.00000000E+00
  0.00000000E+00  0.00000000E+00  0.00000000E+00
  0.00000000E+00  0.00000000E+00  0.00000000E+00
  0.00000000E+00  0.00000000E+00  0.00000000E+00
  0.00000000E+00  0.00000000E+00  0.00000000E+00
  0.00000000E+00  0.00000000E+00  0.00000000E+00
  0.00000000E+00  0.00000000E+00  0.00000000E+00
  0.00000000E+00  0.00000000E+00  0.00000000E+00
  0.00000000E+00  0.00000000E+00  0.00000000E+00
  0.00000000E+00  0.00000000E+00  0.00000000E+00
  0.00000000E+00  0.00000000E+00  0.00000000E+00
  0.00000000E+00  0.00000000E+00  0.00000000E+00
  0.00000000E+00  0.00000000E+00  0.00000000E+00
  0.00000000E+00  0.00000000E+00  0.00000000E+00
  0.00000000E+00  0.00000000E+00  0.00000000E+00
  0.00000000E+00  0.00000000E+00  0.00000000E+00
  0.00000000E+00  0.00000000E+00  0.00000000E+00
  0.00000000E+00  0.00000000E+00  0.00000000E+00
  0.00000000E+00  0.00000000E+00  0.00000000E+00
  0.00000000E+00  0.00000000E+00  0.00000000E+00
  0.00000000E+00  0.00000000E+00  0.00000000E+00
  0.00000000E+00  0.00000000E+00  0.00000000E+00
  0.00000000E+00  0.00000000E+00  0.00000000E+00
  0.00000000E+00  0.00000000E+00  0.00000000E+00
  0.00000000E+00  0.00000000E+00  0.00000000E+00
  0.00000000E+00  0.00000000E+00  0.00000000E+00
  0.00000000E+00  0.00000000E+00  0.00000000E+00
  0.00000000E+00  0.00000000E+00  0.00000000E+00
  0.00000000E+00  0.00000000E+00  0.00000000E+00
  0.00000000E+00  0.00000000E+00  0.00000000E+00
  0.00000000E+00  0.00000000E+00  0.00000000E+00
  0.00000000E+00  0.00000000E+00  0.00000000E+00
  0.00000000E+00  0.00000000E+00  0.00000000E+00
  0.00000000E+00  0.00000000E+00  0.00000000E+00
  0.00000000E+00  0.00000000E+00  0.00000000E+00
  0.00000000E+00  0.00000000E+00  0.00000000E+00
