H4 Rh48 C6 F2                           
    1.000000000000000     
    10.8721879999999995    0.0000000000000000    0.0000000000000000
    -5.4360939999999998    9.4155909999999992    0.0000000000000000
     0.0000000000000000    0.0000000000000000   16.4459060000000008
   H    Rh   C    F 
     4    48     6     2
Selective dynamics
Direct
  0.5076399023757077  0.6362711934952259  0.7784393332773192   T   T   T
  0.6354811990938600  0.5083319944991231  0.7784979486620855   T   T   T
  0.2418812459328592  0.1148449920248211  0.7785677414298320   T   T   T
  0.1140084733332998  0.2427419771673414  0.7785328298007528   T   T   T
  0.0833330000000032  0.1666669999999968  0.3648319999999998   F   F   F
  0.0833330000000032  0.4166669999999968  0.3648319999999998   F   F   F
  0.0833330000000032  0.6666669999999968  0.3648319999999998   F   F   F
  0.0833330000000032  0.9166669999999968  0.3648319999999998   F   F   F
  0.3333330000000032  0.1666669999999968  0.3648319999999998   F   F   F
  0.3333330000000032  0.4166669999999968  0.3648319999999998   F   F   F
  0.3333330000000032  0.6666669999999968  0.3648319999999998   F   F   F
  0.3333330000000032  0.9166669999999968  0.3648319999999998   F   F   F
  0.5833330000000032  0.1666669999999968  0.3648319999999998   F   F   F
  0.5833330000000032  0.4166669999999968  0.3648319999999998   F   F   F
  0.5833330000000032  0.6666669999999968  0.3648319999999998   F   F   F
  0.5833330000000032  0.9166669999999968  0.3648319999999998   F   F   F
  0.8333330000000032  0.1666669999999968  0.3648319999999998   F   F   F
  0.8333330000000032  0.4166669999999968  0.3648319999999998   F   F   F
  0.8333330000000032  0.6666669999999968  0.3648319999999998   F   F   F
  0.8333330000000032  0.9166669999999968  0.3648319999999998   F   F   F
  0.9968244507001955  0.9961840856133577  0.6230220602821248   T   T   T
  0.9947017563962675  0.2485020089155086  0.6231706123609015   T   T   T
  0.0006696923143394  0.4994076929219773  0.6240951007976392   T   T   T
  0.0011195108428623  0.7489496924323831  0.6235611113253512   T   T   T
  0.2473133668177141  0.9944654794899535  0.6230425806986375   T   T   T
  0.2415981080575165  0.2412995750536808  0.6313705502927078   T   T   T
  0.2519052034254301  0.4982253528954104  0.6321716473392129   T   T   T
  0.2506527342026033  0.7494005076819263  0.6241084620007769   T   T   T
  0.5001275217887837  0.0012972045020376  0.6239910706290175   T   T   T
  0.4983421761278706  0.2517374884554187  0.6333238421021008   T   T   T
  0.5088291754702396  0.5085175777247031  0.6313568776569554   T   T   T
  0.5015592686049004  0.7553846285946619  0.6231457965565497   T   T   T
  0.7498994669580554  0.0001617370448841  0.6231074122325779   T   T   T
  0.7487659209845319  0.2499241589999812  0.6239860899470671   T   T   T
  0.7556199920821385  0.5027451928380913  0.6230404883144587   T   T   T
  0.7539514592025824  0.7533139835554010  0.6230115615778544   T   T   T
  0.1681579601237502  0.0864702955405292  0.4946144553003791   T   T   T
  0.1692858147032936  0.3346197734465406  0.4955221054925190   T   T   T
  0.1689548558984555  0.5810781735055528  0.4958973900391399   T   T   T
  0.1680164013072059  0.8331767686230762  0.4939838506023762   T   T   T
  0.4176375229462934  0.0873554023396252  0.4956647221176809   T   T   T
  0.4156469907878702  0.3344099444792477  0.4966539174867961   T   T   T
  0.4154259541467269  0.5807512696276049  0.4955246818317107   T   T   T
  0.4168881305036649  0.8339086666248647  0.4943226797183584   T   T   T
  0.6661222191260023  0.0839290168579510  0.4944204694725016   T   T   T
  0.6627209317209477  0.3324340763437590  0.4956647270849075   T   T   T
  0.6636181875577236  0.5819056505172640  0.4946069987482034   T   T   T
  0.6659239356125752  0.8325727298095629  0.4940530807310068   T   T   T
  0.9174847234807260  0.0841244648071040  0.4940592565980424   T   T   T
  0.9161290203191541  0.3331463115024960  0.4943212678812685   T   T   T
  0.9168641877315267  0.5820220543762176  0.4939863922176713   T   T   T
  0.9173818299163088  0.8327108890235806  0.4936395872708417   T   T   T
  0.2948934197482558  0.4554528399758624  0.7520918614261944   T   T   T
  0.4510947799457554  0.5276812518239780  0.7547331521857146   T   T   T
  0.5270831736099879  0.4515525274736873  0.7546574511728181   T   T   T
  0.4550322995945635  0.2951320908182922  0.7524707254065461   T   T   T
  0.2985857110424064  0.2231547040842869  0.7546665630032408   T   T   T
  0.2225110566563941  0.2991787967803248  0.7547707628105229   T   T   T
  0.2386278802987505  0.5118159261304314  0.8080893980216217   T   T   T
  0.5102668152537007  0.2396395296137968  0.8097098392096242   T   T   T
 
  0.00000000E+00  0.00000000E+00  0.00000000E+00
  0.00000000E+00  0.00000000E+00  0.00000000E+00
  0.00000000E+00  0.00000000E+00  0.00000000E+00
  0.00000000E+00  0.00000000E+00  0.00000000E+00
  0.00000000E+00  0.00000000E+00  0.00000000E+00
  0.00000000E+00  0.00000000E+00  0.00000000E+00
  0.00000000E+00  0.00000000E+00  0.00000000E+00
  0.00000000E+00  0.00000000E+00  0.00000000E+00
  0.00000000E+00  0.00000000E+00  0.00000000E+00
  0.00000000E+00  0.00000000E+00  0.00000000E+00
  0.00000000E+00  0.00000000E+00  0.00000000E+00
  0.00000000E+00  0.00000000E+00  0.00000000E+00
  0.00000000E+00  0.00000000E+00  0.00000000E+00
  0.00000000E+00  0.00000000E+00  0.00000000E+00
  0.00000000E+00  0.00000000E+00  0.00000000E+00
  0.00000000E+00  0.00000000E+00  0.00000000E+00
  0.00000000E+00  0.00000000E+00  0.00000000E+00
  0.00000000E+00  0.00000000E+00  0.00000000E+00
  0.00000000E+00  0.00000000E+00  0.00000000E+00
  0.00000000E+00  0.00000000E+00  0.00000000E+00
  0.00000000E+00  0.00000000E+00  0.00000000E+00
  0.00000000E+00  0.00000000E+00  0.00000000E+00
  0.00000000E+00  0.00000000E+00  0.00000000E+00
  0.00000000E+00  0.00000000E+00  0.00000000E+00
  0.00000000E+00  0.00000000E+00  0.00000000E+00
  0.00000000E+00  0.00000000E+00  0.00000000E+00
  0.00000000E+00  0.00000000E+00  0.00000000E+00
  0.00000000E+00  0.00000000E+00  0.00000000E+00
  0.00000000E+00  0.00000000E+00  0.00000000E+00
  0.00000000E+00  0.00000000E+00  0.00000000E+00
  0.00000000E+00  0.00000000E+00  0.00000000E+00
  0.00000000E+00  0.00000000E+00  0.00000000E+00
  0.00000000E+00  0.00000000E+00  0.00000000E+00
  0.00000000E+00  0.00000000E+00  0.00000000E+00
  0.00000000E+00  0.00000000E+00  0.00000000E+00
  0.00000000E+00  0.00000000E+00  0.00000000E+00
  0.00000000E+00  0.00000000E+00  0.00000000E+00
  0.00000000E+00  0.00000000E+00  0.00000000E+00
  0.00000000E+00  0.00000000E+00  0.00000000E+00
  0.00000000E+00  0.00000000E+00  0.00000000E+00
  0.00000000E+00  0.00000000E+00  0.00000000E+00
  0.00000000E+00  0.00000000E+00  0.00000000E+00
  0.00000000E+00  0.00000000E+00  0.00000000E+00
  0.00000000E+00  0.00000000E+00  0.00000000E+00
  0.00000000E+00  0.00000000E+00  0.00000000E+00
  0.00000000E+00  0.00000000E+00  0.00000000E+00
  0.00000000E+00  0.00000000E+00  0.00000000E+00
  0.00000000E+00  0.00000000E+00  0.00000000E+00
  0.00000000E+00  0.00000000E+00  0.00000000E+00
  0.00000000E+00  0.00000000E+00  0.00000000E+00
  0.00000000E+00  0.00000000E+00  0.00000000E+00
  0.00000000E+00  0.00000000E+00  0.00000000E+00
  0.00000000E+00  0.00000000E+00  0.00000000E+00
  0.00000000E+00  0.00000000E+00  0.00000000E+00
  0.00000000E+00  0.00000000E+00  0.00000000E+00
  0.00000000E+00  0.00000000E+00  0.00000000E+00
  0.00000000E+00  0.00000000E+00  0.00000000E+00
  0.00000000E+00  0.00000000E+00  0.00000000E+00
  0.00000000E+00  0.00000000E+00  0.00000000E+00
  0.00000000E+00  0.00000000E+00  0.00000000E+00
