Cu48 C4 N2 Cl4                          
    1.000000000000000     
    10.2424774999999997    0.0000000000000000    0.0000000000000000
     0.0000000000000000   14.4850505999999992    0.0000000000000000
     0.0000000000000000    0.0000000000000000   15.4644450100000004
   Cu   C    N    Cl
    48     4     2     4
Selective dynamics
Direct
  0.2500544165951979  0.2502290324819114  0.4029144540499985   T   T   T
  0.2501278798420117  0.4998637199802474  0.4027722038263875   T   T   T
  0.2498809295561131  0.7499738503334399  0.4026320847850826   T   T   T
  0.2499855676055631  0.0000351642750829  0.4028070506280415   T   T   T
  0.4998351118002660  0.2500090129170118  0.4025655628358606   T   T   T
  0.5000010267931287  0.4999999796366339  0.4032538454306476   T   T   T
  0.5001659562288694  0.7499909397504325  0.4025649401432432   T   T   T
  0.5000002352748112  0.9999999538488993  0.4027942207036119   T   T   T
  0.7501191371424056  0.2500261366297067  0.4026321301948741   T   T   T
  0.7498719896912718  0.5001365436539587  0.4027718873844321   T   T   T
  0.7499455766972147  0.7497701345319570  0.4029141762023443   T   T   T
  0.7500145224399191  0.9999650019314998  0.4028072559431237   T   T   T
  0.9999864011991946  0.2502061075325059  0.4029006170843061   T   T   T
  0.9999989462473522  0.5000002747844263  0.4028393091689111   T   T   T
  0.0000123938011143  0.7497931741803896  0.4029011778905556   T   T   T
  0.9999997513896233  0.0000002175957334  0.4028012097626075   T   T   T
  0.1249987413651183  0.1250850213862691  0.4821830258678830   T   T   T
  0.1250172343415485  0.3751501008629248  0.4826446903206616   T   T   T
  0.1250432399774652  0.6247551580772353  0.4827662249432692   T   T   T
  0.1250616678970857  0.8749430784564680  0.4822106334077603   T   T   T
  0.3750375133146804  0.1251423411536052  0.4822457898098165   T   T   T
  0.3750279506340348  0.3749561714699823  0.4832093141013871   T   T   T
  0.3749764977453935  0.6251136442189136  0.4819852855648890   T   T   T
  0.3750096530433566  0.8749766142409570  0.4821794767907832   T   T   T
  0.6249912766521390  0.1250226311970692  0.4821798626708897   T   T   T
  0.6250237803429499  0.3748868672346646  0.4819843949612164   T   T   T
  0.6249726037882297  0.6250440358314151  0.4832080743925715   T   T   T
  0.6249627706481959  0.8748571038895392  0.4822442073353983   T   T   T
  0.8749381868685902  0.1250565800531760  0.4822099772756729   T   T   T
  0.8749561112623780  0.3752446800418525  0.4827653997834886   T   T   T
  0.8749825193442433  0.6248495497534563  0.4826438552291137   T   T   T
  0.8750003806256856  0.8749148343110420  0.4821833501703949   T   T   T
  0.1250000002440785  0.1249999996548183  0.3233223046004383   F   F   F
  0.1250000002440785  0.3749999989644479  0.3233223046004383   F   F   F
  0.1250000002440785  0.6249999982740846  0.3233223046004383   F   F   F
  0.1250000002440785  0.8749999975837142  0.3233223046004383   F   F   F
  0.3749999997559215  0.1249999996548183  0.3233223046004383   F   F   F
  0.3749999997559215  0.3749999989644479  0.3233223046004383   F   F   F
  0.3749999997559215  0.6249999982740846  0.3233223046004383   F   F   F
  0.3749999997559215  0.8749999975837142  0.3233223046004383   F   F   F
  0.6249999982914289  0.1249999996548183  0.3233223046004383   F   F   F
  0.6249999992677573  0.3749999989644479  0.3233223046004383   F   F   F
  0.6249999992677573  0.6249999982740846  0.3233223046004383   F   F   F
  0.6249999992677573  0.8749999975837142  0.3233223046004383   F   F   F
  0.8749999987795931  0.1249999996548183  0.3233223046004383   F   F   F
  0.8749999978032648  0.3749999989644479  0.3233223046004383   F   F   F
  0.8749999987795931  0.6249999982740846  0.3233223046004383   F   F   F
  0.8749999987795931  0.8749999975837142  0.3233223046004383   F   F   F
  0.5514316261436818  0.4146494545197470  0.6760551526919443   T   T   T
  0.6311700516910150  0.4943085096841671  0.6761324152792909   T   T   T
  0.4485749066541729  0.5853593011882126  0.6760552589897699   T   T   T
  0.3688328057249208  0.5056990441630091  0.6761324342546970   T   T   T
  0.5777486107569487  0.5777085648024638  0.6754143192378734   T   T   T
  0.4222574558998318  0.4223022438047792  0.6754139234859267   T   T   T
  0.2016245896515727  0.5127791316834021  0.6763271797799533   T   T   T
  0.3832547742287389  0.6945697487197862  0.6769614259062635   T   T   T
  0.6167487045901723  0.3054416206770654  0.6769622855461463   T   T   T
  0.7983789453741679  0.4872277783230885  0.6763259352434190   T   T   T
 
  0.00000000E+00  0.00000000E+00  0.00000000E+00
  0.00000000E+00  0.00000000E+00  0.00000000E+00
  0.00000000E+00  0.00000000E+00  0.00000000E+00
  0.00000000E+00  0.00000000E+00  0.00000000E+00
  0.00000000E+00  0.00000000E+00  0.00000000E+00
  0.00000000E+00  0.00000000E+00  0.00000000E+00
  0.00000000E+00  0.00000000E+00  0.00000000E+00
  0.00000000E+00  0.00000000E+00  0.00000000E+00
  0.00000000E+00  0.00000000E+00  0.00000000E+00
  0.00000000E+00  0.00000000E+00  0.00000000E+00
  0.00000000E+00  0.00000000E+00  0.00000000E+00
  0.00000000E+00  0.00000000E+00  0.00000000E+00
  0.00000000E+00  0.00000000E+00  0.00000000E+00
  0.00000000E+00  0.00000000E+00  0.00000000E+00
  0.00000000E+00  0.00000000E+00  0.00000000E+00
  0.00000000E+00  0.00000000E+00  0.00000000E+00
  0.00000000E+00  0.00000000E+00  0.00000000E+00
  0.00000000E+00  0.00000000E+00  0.00000000E+00
  0.00000000E+00  0.00000000E+00  0.00000000E+00
  0.00000000E+00  0.00000000E+00  0.00000000E+00
  0.00000000E+00  0.00000000E+00  0.00000000E+00
  0.00000000E+00  0.00000000E+00  0.00000000E+00
  0.00000000E+00  0.00000000E+00  0.00000000E+00
  0.00000000E+00  0.00000000E+00  0.00000000E+00
  0.00000000E+00  0.00000000E+00  0.00000000E+00
  0.00000000E+00  0.00000000E+00  0.00000000E+00
  0.00000000E+00  0.00000000E+00  0.00000000E+00
  0.00000000E+00  0.00000000E+00  0.00000000E+00
  0.00000000E+00  0.00000000E+00  0.00000000E+00
  0.00000000E+00  0.00000000E+00  0.00000000E+00
  0.00000000E+00  0.00000000E+00  0.00000000E+00
  0.00000000E+00  0.00000000E+00  0.00000000E+00
  0.00000000E+00  0.00000000E+00  0.00000000E+00
  0.00000000E+00  0.00000000E+00  0.00000000E+00
  0.00000000E+00  0.00000000E+00  0.00000000E+00
  0.00000000E+00  0.00000000E+00  0.00000000E+00
  0.00000000E+00  0.00000000E+00  0.00000000E+00
  0.00000000E+00  0.00000000E+00  0.00000000E+00
  0.00000000E+00  0.00000000E+00  0.00000000E+00
  0.00000000E+00  0.00000000E+00  0.00000000E+00
  0.00000000E+00  0.00000000E+00  0.00000000E+00
  0.00000000E+00  0.00000000E+00  0.00000000E+00
  0.00000000E+00  0.00000000E+00  0.00000000E+00
  0.00000000E+00  0.00000000E+00  0.00000000E+00
  0.00000000E+00  0.00000000E+00  0.00000000E+00
  0.00000000E+00  0.00000000E+00  0.00000000E+00
  0.00000000E+00  0.00000000E+00  0.00000000E+00
  0.00000000E+00  0.00000000E+00  0.00000000E+00
  0.00000000E+00  0.00000000E+00  0.00000000E+00
  0.00000000E+00  0.00000000E+00  0.00000000E+00
  0.00000000E+00  0.00000000E+00  0.00000000E+00
  0.00000000E+00  0.00000000E+00  0.00000000E+00
  0.00000000E+00  0.00000000E+00  0.00000000E+00
  0.00000000E+00  0.00000000E+00  0.00000000E+00
  0.00000000E+00  0.00000000E+00  0.00000000E+00
  0.00000000E+00  0.00000000E+00  0.00000000E+00
  0.00000000E+00  0.00000000E+00  0.00000000E+00
  0.00000000E+00  0.00000000E+00  0.00000000E+00
