Pd48 C4 N2 Br4                          
    1.000000000000000     
    11.1817229999999999    0.0000000000000000    0.0000000000000000
     0.0000000000000000   15.8133443000000007    0.0000000000000000
     0.0000000000000000    0.0000000000000000   15.6556714100000001
   Pd   C    N    Br
    48     4     2     4
Selective dynamics
Direct
  0.2503091143060345  0.0002698544845501  0.4037147334483464   T   T   T
  0.2471864161991846  0.2516703951029271  0.4027391706345043   T   T   T
  0.2489299817770529  0.4985079838667588  0.3951700902776167   T   T   T
  0.2532705035116152  0.7473484253407108  0.4031840837391201   T   T   T
  0.4999812144751203  0.9999719275695611  0.4044318387243351   T   T   T
  0.4988584505109657  0.2518155294424673  0.4016442526252746   T   T   T
  0.5000103089370640  0.4999985437891183  0.3861510732443492   T   T   T
  0.5011093951800660  0.7482668776911794  0.4016322062850364   T   T   T
  0.7496916214049989  0.9997145990192635  0.4037336962208471   T   T   T
  0.7467377513508637  0.2527064249690483  0.4031939219512495   T   T   T
  0.7510815741873174  0.5014790987127640  0.3952000867679217   T   T   T
  0.7528264284313764  0.7483755736347746  0.4027629971682885   T   T   T
  0.9999909377603586  0.0000093834171366  0.4028598831592234   T   T   T
  0.9955999908387980  0.2527679601101624  0.4049981687273458   T   T   T
  0.9999926784286899  0.4999833146560917  0.4025111104592938   T   T   T
  0.0044087258279504  0.7472677475980092  0.4050030986854196   T   T   T
  0.1221319203096485  0.1271373264267410  0.4873811025141350   T   T   T
  0.1166512838814526  0.3755903867527906  0.4898966979877599   T   T   T
  0.1402275050283279  0.6179911834666001  0.4922118699086013   T   T   T
  0.1278007055543284  0.8739165085076053  0.4877529896486266   T   T   T
  0.3732390429529104  0.1278457528642036  0.4879874032025455   T   T   T
  0.3632475366015342  0.3780132939404552  0.4890395420591247   T   T   T
  0.3927064586245237  0.6118116266334894  0.4924302493069064   T   T   T
  0.3768488684341378  0.8732529139879830  0.4882569762079854   T   T   T
  0.6231007990603175  0.1267743618259800  0.4881408471495945   T   T   T
  0.6072935296484090  0.3882386273179961  0.4925254369103413   T   T   T
  0.6367773874573501  0.6220744500129882  0.4889732898535897   T   T   T
  0.6267247656005637  0.8721735573274003  0.4879888018850380   T   T   T
  0.8721645959481066  0.1261248766199614  0.4877942988778443   T   T   T
  0.8597747180884383  0.3820241700901263  0.4922545398409426   T   T   T
  0.8833647843369477  0.6244366921554061  0.4899134095615310   T   T   T
  0.8778496949683472  0.8729107591935090  0.4874327625379422   T   T   T
  0.1249999995528412  0.1249999995257198  0.3193730801482104   F   F   F
  0.1249999995528412  0.3749999992095283  0.3193730801482104   F   F   F
  0.1249999995528412  0.6249999982609609  0.3193730801482104   F   F   F
  0.1249999995528412  0.8749999979447765  0.3193730801482104   F   F   F
  0.3749999986585237  0.1249999995257198  0.3193730801482104   F   F   F
  0.3749999986585237  0.3749999992095283  0.3193730801482104   F   F   F
  0.3749999986585237  0.6249999982609609  0.3193730801482104   F   F   F
  0.3749999986585237  0.8749999979447765  0.3193730801482104   F   F   F
  0.6249999977642062  0.1249999995257198  0.3193730801482104   F   F   F
  0.6249999977642062  0.3749999992095283  0.3193730801482104   F   F   F
  0.6249999977642062  0.6249999982609609  0.3193730801482104   F   F   F
  0.6249999977642062  0.8749999979447765  0.3193730801482104   F   F   F
  0.8749999968698887  0.1249999995257198  0.3193730801482104   F   F   F
  0.8749999968698887  0.3749999992095283  0.3193730801482104   F   F   F
  0.8749999968698887  0.6249999982609609  0.3193730801482104   F   F   F
  0.8749999968698887  0.8749999979447765  0.3193730801482104   F   F   F
  0.5219308088894721  0.4138009678793040  0.6117327691110219   T   T   T
  0.6171958030326579  0.4744538865758443  0.6013886832189570   T   T   T
  0.4781399023064239  0.5864160678285870  0.6116794655129709   T   T   T
  0.3828566282986188  0.5256964512817746  0.6013758532919553   T   T   T
  0.5950068712612406  0.5585940315723334  0.5992307716696175   T   T   T
  0.4050593739398778  0.4415934012382436  0.5992687700821904   T   T   T
  0.2103385104298212  0.5533695482761871  0.6314826630225809   T   T   T
  0.4635285420874595  0.6840103151371011  0.6863633862137277   T   T   T
  0.5365475071501677  0.3162667838761379  0.6865629488055021   T   T   T
  0.7897313507338382  0.4468583535586745  0.6314786206247476   T   T   T
 
  0.00000000E+00  0.00000000E+00  0.00000000E+00
  0.00000000E+00  0.00000000E+00  0.00000000E+00
  0.00000000E+00  0.00000000E+00  0.00000000E+00
  0.00000000E+00  0.00000000E+00  0.00000000E+00
  0.00000000E+00  0.00000000E+00  0.00000000E+00
  0.00000000E+00  0.00000000E+00  0.00000000E+00
  0.00000000E+00  0.00000000E+00  0.00000000E+00
  0.00000000E+00  0.00000000E+00  0.00000000E+00
  0.00000000E+00  0.00000000E+00  0.00000000E+00
  0.00000000E+00  0.00000000E+00  0.00000000E+00
  0.00000000E+00  0.00000000E+00  0.00000000E+00
  0.00000000E+00  0.00000000E+00  0.00000000E+00
  0.00000000E+00  0.00000000E+00  0.00000000E+00
  0.00000000E+00  0.00000000E+00  0.00000000E+00
  0.00000000E+00  0.00000000E+00  0.00000000E+00
  0.00000000E+00  0.00000000E+00  0.00000000E+00
  0.00000000E+00  0.00000000E+00  0.00000000E+00
  0.00000000E+00  0.00000000E+00  0.00000000E+00
  0.00000000E+00  0.00000000E+00  0.00000000E+00
  0.00000000E+00  0.00000000E+00  0.00000000E+00
  0.00000000E+00  0.00000000E+00  0.00000000E+00
  0.00000000E+00  0.00000000E+00  0.00000000E+00
  0.00000000E+00  0.00000000E+00  0.00000000E+00
  0.00000000E+00  0.00000000E+00  0.00000000E+00
  0.00000000E+00  0.00000000E+00  0.00000000E+00
  0.00000000E+00  0.00000000E+00  0.00000000E+00
  0.00000000E+00  0.00000000E+00  0.00000000E+00
  0.00000000E+00  0.00000000E+00  0.00000000E+00
  0.00000000E+00  0.00000000E+00  0.00000000E+00
  0.00000000E+00  0.00000000E+00  0.00000000E+00
  0.00000000E+00  0.00000000E+00  0.00000000E+00
  0.00000000E+00  0.00000000E+00  0.00000000E+00
  0.00000000E+00  0.00000000E+00  0.00000000E+00
  0.00000000E+00  0.00000000E+00  0.00000000E+00
  0.00000000E+00  0.00000000E+00  0.00000000E+00
  0.00000000E+00  0.00000000E+00  0.00000000E+00
  0.00000000E+00  0.00000000E+00  0.00000000E+00
  0.00000000E+00  0.00000000E+00  0.00000000E+00
  0.00000000E+00  0.00000000E+00  0.00000000E+00
  0.00000000E+00  0.00000000E+00  0.00000000E+00
  0.00000000E+00  0.00000000E+00  0.00000000E+00
  0.00000000E+00  0.00000000E+00  0.00000000E+00
  0.00000000E+00  0.00000000E+00  0.00000000E+00
  0.00000000E+00  0.00000000E+00  0.00000000E+00
  0.00000000E+00  0.00000000E+00  0.00000000E+00
  0.00000000E+00  0.00000000E+00  0.00000000E+00
  0.00000000E+00  0.00000000E+00  0.00000000E+00
  0.00000000E+00  0.00000000E+00  0.00000000E+00
  0.00000000E+00  0.00000000E+00  0.00000000E+00
  0.00000000E+00  0.00000000E+00  0.00000000E+00
  0.00000000E+00  0.00000000E+00  0.00000000E+00
  0.00000000E+00  0.00000000E+00  0.00000000E+00
  0.00000000E+00  0.00000000E+00  0.00000000E+00
  0.00000000E+00  0.00000000E+00  0.00000000E+00
  0.00000000E+00  0.00000000E+00  0.00000000E+00
  0.00000000E+00  0.00000000E+00  0.00000000E+00
  0.00000000E+00  0.00000000E+00  0.00000000E+00
  0.00000000E+00  0.00000000E+00  0.00000000E+00
