Au48 C6 Cl2 H4                          
    1.000000000000000     
    11.7981856999999994    0.0000000000000000    0.0000000000000000
     0.0000000000000000   16.6851543000000007    0.0000000000000000
     0.0000000000000000    0.0000000000000000   15.8910941200000000
   Au   C    Cl   H 
    48     6     2     4
Selective dynamics
Direct
  0.9999606146270352  0.2499628687320765  0.4055026973148230   T   T   T
  0.0000015245456950  0.4999992857974505  0.4055118438682328   T   T   T
  0.0000407325475251  0.7500377693280527  0.4055033927868905   T   T   T
  0.0000000504723232  0.0000000450583997  0.4054346001121445   T   T   T
  0.2496255688615392  0.2497297741198636  0.4052022556024681   T   T   T
  0.2499188735420930  0.5000616617050113  0.4056476016546995   T   T   T
  0.2500877392851635  0.7499166386183376  0.4058106952509632   T   T   T
  0.2499929828856935  0.9999816833807955  0.4055624709813941   T   T   T
  0.5003071630456688  0.2498271809824146  0.4055293289686048   T   T   T
  0.4999971725350818  0.5000002114803763  0.4056294295966083   T   T   T
  0.4996899145978517  0.7501729157778669  0.4055284451835490   T   T   T
  0.5000000163722547  0.9999999956614829  0.4055862166257498   T   T   T
  0.7499133194528227  0.2500817101100594  0.4058129748594368   T   T   T
  0.7500827329442998  0.4999377603258068  0.4056523181215255   T   T   T
  0.7503752220112503  0.7502726505064885  0.4052042011267147   T   T   T
  0.7500069481850886  0.0000183387417891  0.4055625456521454   T   T   T
  0.1251591163778869  0.1250772383153489  0.4964517013723295   T   T   T
  0.1237568891570717  0.3751007318411510  0.4963032267197818   T   T   T
  0.1251715996348466  0.6248634918689788  0.4967311500402474   T   T   T
  0.1250217961688378  0.8750548121956996  0.4964783831017243   T   T   T
  0.3749698420744494  0.1251630086339190  0.4965003102246399   T   T   T
  0.3744453569978390  0.3746838276039028  0.4936920381892378   T   T   T
  0.3742684227115589  0.6246278549344808  0.4964994548584869   T   T   T
  0.3751004877112223  0.8749068161262628  0.4964954844414677   T   T   T
  0.6248992144713768  0.1250932295400915  0.4964954155545414   T   T   T
  0.6257303602027520  0.3753719976423326  0.4965008515507563   T   T   T
  0.6255554700415900  0.6253167159424251  0.4936895538516666   T   T   T
  0.6250297431035676  0.8748369107024061  0.4965005018389235   T   T   T
  0.8749786910151300  0.1249450446348135  0.4964784295724911   T   T   T
  0.8748281621819061  0.3751360640839039  0.4967314773566969   T   T   T
  0.8762457283006526  0.6248994799447303  0.4963031903051203   T   T   T
  0.8748411074078675  0.8749231037114740  0.4964521454090232   T   T   T
  0.1250000006356942  0.1249999995504965  0.3146416453293241   F   F   F
  0.1250000006356942  0.3749999992508322  0.3146416453293241   F   F   F
  0.1250000006356942  0.6249999983518251  0.3146416453293241   F   F   F
  0.1250000006356942  0.8749999974528251  0.3146416453293241   F   F   F
  0.3750000002118981  0.1249999995504965  0.3146416453293241   F   F   F
  0.3750000002118981  0.3749999992508322  0.3146416453293241   F   F   F
  0.3750000010594832  0.6249999983518251  0.3146416453293241   F   F   F
  0.3750000010594832  0.8749999974528251  0.3146416453293241   F   F   F
  0.6250000006356942  0.1249999995504965  0.3146416453293241   F   F   F
  0.6250000006356942  0.3749999992508322  0.3146416453293241   F   F   F
  0.6250000014832793  0.6249999983518251  0.3146416453293241   F   F   F
  0.6250000006356942  0.8749999974528251  0.3146416453293241   F   F   F
  0.8750000010594832  0.1249999995504965  0.3146416453293241   F   F   F
  0.8750000010594832  0.3749999992508322  0.3146416453293241   F   F   F
  0.8750000019070754  0.6249999983518251  0.3146416453293241   F   F   F
  0.8750000010594832  0.8749999974528251  0.3146416453293241   F   F   F
  0.5678943353408030  0.5675840233982683  0.6861404797141404   T   T   T
  0.6185257644508013  0.4920711245051592  0.6853809147685652   T   T   T
  0.5500877610295944  0.4238057378493352  0.6852163550576407   T   T   T
  0.4321051661540096  0.4324158606263353  0.6861556457918923   T   T   T
  0.3814755430835532  0.5079287924185039  0.6853890044133806   T   T   T
  0.4499115446164765  0.5761953360363066  0.6852092267445045   T   T   T
  0.6526474154997643  0.6525808416534389  0.6867038852132836   T   T   T
  0.3473547537514463  0.3474211753314265  0.6867411908089309   T   T   T
  0.7104673454137753  0.4863237370358320  0.6846393306272631   T   T   T
  0.5882156413289579  0.3642184542277462  0.6857626900209937   T   T   T
  0.2895332666209072  0.5136759630508720  0.6846538025475155   T   T   T
  0.4117844368664407  0.6357825030041084  0.6857477763691548   T   T   T
 
  0.00000000E+00  0.00000000E+00  0.00000000E+00
  0.00000000E+00  0.00000000E+00  0.00000000E+00
  0.00000000E+00  0.00000000E+00  0.00000000E+00
  0.00000000E+00  0.00000000E+00  0.00000000E+00
  0.00000000E+00  0.00000000E+00  0.00000000E+00
  0.00000000E+00  0.00000000E+00  0.00000000E+00
  0.00000000E+00  0.00000000E+00  0.00000000E+00
  0.00000000E+00  0.00000000E+00  0.00000000E+00
  0.00000000E+00  0.00000000E+00  0.00000000E+00
  0.00000000E+00  0.00000000E+00  0.00000000E+00
  0.00000000E+00  0.00000000E+00  0.00000000E+00
  0.00000000E+00  0.00000000E+00  0.00000000E+00
  0.00000000E+00  0.00000000E+00  0.00000000E+00
  0.00000000E+00  0.00000000E+00  0.00000000E+00
  0.00000000E+00  0.00000000E+00  0.00000000E+00
  0.00000000E+00  0.00000000E+00  0.00000000E+00
  0.00000000E+00  0.00000000E+00  0.00000000E+00
  0.00000000E+00  0.00000000E+00  0.00000000E+00
  0.00000000E+00  0.00000000E+00  0.00000000E+00
  0.00000000E+00  0.00000000E+00  0.00000000E+00
  0.00000000E+00  0.00000000E+00  0.00000000E+00
  0.00000000E+00  0.00000000E+00  0.00000000E+00
  0.00000000E+00  0.00000000E+00  0.00000000E+00
  0.00000000E+00  0.00000000E+00  0.00000000E+00
  0.00000000E+00  0.00000000E+00  0.00000000E+00
  0.00000000E+00  0.00000000E+00  0.00000000E+00
  0.00000000E+00  0.00000000E+00  0.00000000E+00
  0.00000000E+00  0.00000000E+00  0.00000000E+00
  0.00000000E+00  0.00000000E+00  0.00000000E+00
  0.00000000E+00  0.00000000E+00  0.00000000E+00
  0.00000000E+00  0.00000000E+00  0.00000000E+00
  0.00000000E+00  0.00000000E+00  0.00000000E+00
  0.00000000E+00  0.00000000E+00  0.00000000E+00
  0.00000000E+00  0.00000000E+00  0.00000000E+00
  0.00000000E+00  0.00000000E+00  0.00000000E+00
  0.00000000E+00  0.00000000E+00  0.00000000E+00
  0.00000000E+00  0.00000000E+00  0.00000000E+00
  0.00000000E+00  0.00000000E+00  0.00000000E+00
  0.00000000E+00  0.00000000E+00  0.00000000E+00
  0.00000000E+00  0.00000000E+00  0.00000000E+00
  0.00000000E+00  0.00000000E+00  0.00000000E+00
  0.00000000E+00  0.00000000E+00  0.00000000E+00
  0.00000000E+00  0.00000000E+00  0.00000000E+00
  0.00000000E+00  0.00000000E+00  0.00000000E+00
  0.00000000E+00  0.00000000E+00  0.00000000E+00
  0.00000000E+00  0.00000000E+00  0.00000000E+00
  0.00000000E+00  0.00000000E+00  0.00000000E+00
  0.00000000E+00  0.00000000E+00  0.00000000E+00
  0.00000000E+00  0.00000000E+00  0.00000000E+00
  0.00000000E+00  0.00000000E+00  0.00000000E+00
  0.00000000E+00  0.00000000E+00  0.00000000E+00
  0.00000000E+00  0.00000000E+00  0.00000000E+00
  0.00000000E+00  0.00000000E+00  0.00000000E+00
  0.00000000E+00  0.00000000E+00  0.00000000E+00
  0.00000000E+00  0.00000000E+00  0.00000000E+00
  0.00000000E+00  0.00000000E+00  0.00000000E+00
  0.00000000E+00  0.00000000E+00  0.00000000E+00
  0.00000000E+00  0.00000000E+00  0.00000000E+00
  0.00000000E+00  0.00000000E+00  0.00000000E+00
  0.00000000E+00  0.00000000E+00  0.00000000E+00
