Au  C  N  F                             
    1.000000000000000     
    11.7981856999999994    0.0000000000000000    0.0000000000000000
     0.0000000000000000   16.6851543000000007    0.0000000000000000
     0.0000000000000000    0.0000000000000000   22.4243196299999994
   Au   C    N    F 
    64     4     2     4
Selective dynamics
Direct
  0.0000000016951773  0.2499999991010000  0.3344583079330619   F   F   F
  0.7500000012713812  0.7499999979023286  0.3344583079330619   F   F   F
  0.0000000016951773  0.4999999988013286  0.3344583079330619   F   F   F
  0.0000000016951773  0.7499999979023286  0.3344583079330619   F   F   F
  0.0000000016951773  0.0000000000000000  0.3344583079330619   F   F   F
  0.2500000004237961  0.2499999991010000  0.3344583079330619   F   F   F
  0.2500000004237961  0.4999999988013286  0.3344583079330619   F   F   F
  0.7500000012713812  0.0000000000000000  0.3344583079330619   F   F   F
  0.2500000004237961  0.7499999979023286  0.3344583079330619   F   F   F
  0.2500000004237961  0.0000000000000000  0.3344583079330619   F   F   F
  0.5000000008475851  0.2499999991010000  0.3344583079330619   F   F   F
  0.5000000008475851  0.4999999988013286  0.3344583079330619   F   F   F
  0.5000000008475851  0.7499999979023286  0.3344583079330619   F   F   F
  0.5000000008475851  0.0000000000000000  0.3344583079330619   F   F   F
  0.7500000012713812  0.2499999991010000  0.3344583079330619   F   F   F
  0.7500000012713812  0.4999999988013286  0.3344583079330619   F   F   F
  0.0008065465772347  0.2500532081930119  0.4701687422280050   T   T   T
 -0.0008304902404369  0.5000642997026323  0.4701713165865372   T   T   T
  0.0006137080075363  0.7500058641125316  0.4701344974532057   T   T   T
  0.0002939669382027 -0.0000194936741297  0.4700683795471289   T   T   T
  0.2499498587612261  0.2508804787459941  0.4705950536666904   T   T   T
  0.2498721092447407  0.5008076088083456  0.4705612250593923   T   T   T
  0.2499276990151050  0.7494579171649310  0.4705225321187864   T   T   T
  0.2508157900903725 -0.0001203357726160  0.4702013228028274   T   T   T
  0.4991762580658654  0.2500491518387000  0.4701620882901847   T   T   T
  0.4999838275148840  0.5008168390821131  0.4705852706816485   T   T   T
  0.5003571696234691  0.7496052146545377  0.4705456410125435   T   T   T
  0.5001801294267381 -0.0000277798259887  0.4700024950188980   T   T   T
  0.7492572430030192  0.2500046222963051  0.4701703889464390   T   T   T
  0.7499887205955675  0.4991953026881646  0.4705916282978822   T   T   T
  0.7492946919079072  0.7499957763451257  0.4701828499717770   T   T   T
  0.7508436231940097  0.0000729018161715  0.4702102304674142   T   T   T
  0.1265326047874683  0.1249988740262641  0.5287149164253130   T   T   T
  0.1238896790535407  0.3758931858724522  0.5288073722508624   T   T   T
  0.1234913832578291  0.6255103433781081  0.5289188462788954   T   T   T
  0.1239015003053035  0.8742674608638638  0.5287968502312733   T   T   T
  0.3762432158093100  0.1250648236915352  0.5287062072174145   T   T   T
  0.3738341771471328  0.3758341158775325  0.5288070381718726   T   T   T
  0.3736179031654359  0.6251070143068206  0.5285497593320460   T   T   T
  0.3738389103745144  0.8741944754292424  0.5288338759663906   T   T   T
  0.6261981120324964  0.1248635121562831  0.5286939154109040   T   T   T
  0.6237467541655655  0.3749145878047621  0.5284546638677537   T   T   T
  0.6249936656005917  0.6249925674508749  0.5287044411413313   T   T   T
  0.6235643961726599  0.8750156946061592  0.5286534733817478   T   T   T
  0.8761532142288093  0.1258245318550916  0.5287954514881565   T   T   T
  0.8748796548600174  0.3743093008440501  0.5287845374323167   T   T   T
  0.8749264999868254  0.6249991884659750  0.5286859734982553   T   T   T
  0.8735299773292848  0.8749076535502355  0.5287308417210275   T   T   T
  0.1250000006356942  0.1249999995504965  0.4002249949199452   F   F   F
  0.1250000006356942  0.3749999992508322  0.4002249949199452   F   F   F
  0.1250000006356942  0.6249999983518251  0.4002249949199452   F   F   F
  0.1250000006356942  0.8749999974528251  0.4002249949199452   F   F   F
  0.3750000002118981  0.1249999995504965  0.4002249949199452   F   F   F
  0.3750000002118981  0.3749999992508322  0.4002249949199452   F   F   F
  0.3750000010594832  0.6249999983518251  0.4002249949199452   F   F   F
  0.3750000010594832  0.8749999974528251  0.4002249949199452   F   F   F
  0.6250000006356942  0.1249999995504965  0.4002249949199452   F   F   F
  0.6250000006356942  0.3749999992508322  0.4002249949199452   F   F   F
  0.6250000014832793  0.6249999983518251  0.4002249949199452   F   F   F
  0.6250000006356942  0.8749999974528251  0.4002249949199452   F   F   F
  0.8750000010594832  0.1249999995504965  0.4002249949199452   F   F   F
  0.8750000010594832  0.3749999992508322  0.4002249949199452   F   F   F
  0.8750000019070754  0.6249999983518251  0.4002249949199452   F   F   F
  0.8750000010594832  0.8749999974528251  0.4002249949199452   F   F   F
  0.5431316310686437  0.4265299832846661  0.6644567577937803   T   T   T
  0.6124658174259952  0.4946872264376440  0.6633030263329953   T   T   T
  0.4571429256162646  0.5733976463763470  0.6644292255502000   T   T   T
  0.3878150881709588  0.5052450567101943  0.6633153012854461   T   T   T
  0.5685011632829775  0.5672448674725050  0.6636830361826463   T   T   T
  0.4317875050864760  0.4326898831508364  0.6637296750551224   T   T   T
  0.2746191541545894  0.5120521497575167  0.6623153538260740   T   T   T
  0.4118047460182392  0.6471359069549814  0.6675717452794848   T   T   T
  0.5884543696878850  0.3527853881726423  0.6676149595068365   T   T   T
  0.7256666548371916  0.4878723186117981  0.6622960785889174   T   T   T
 
  0.00000000E+00  0.00000000E+00  0.00000000E+00
  0.00000000E+00  0.00000000E+00  0.00000000E+00
  0.00000000E+00  0.00000000E+00  0.00000000E+00
  0.00000000E+00  0.00000000E+00  0.00000000E+00
  0.00000000E+00  0.00000000E+00  0.00000000E+00
  0.00000000E+00  0.00000000E+00  0.00000000E+00
  0.00000000E+00  0.00000000E+00  0.00000000E+00
  0.00000000E+00  0.00000000E+00  0.00000000E+00
  0.00000000E+00  0.00000000E+00  0.00000000E+00
  0.00000000E+00  0.00000000E+00  0.00000000E+00
  0.00000000E+00  0.00000000E+00  0.00000000E+00
  0.00000000E+00  0.00000000E+00  0.00000000E+00
  0.00000000E+00  0.00000000E+00  0.00000000E+00
  0.00000000E+00  0.00000000E+00  0.00000000E+00
  0.00000000E+00  0.00000000E+00  0.00000000E+00
  0.00000000E+00  0.00000000E+00  0.00000000E+00
  0.00000000E+00  0.00000000E+00  0.00000000E+00
  0.00000000E+00  0.00000000E+00  0.00000000E+00
  0.00000000E+00  0.00000000E+00  0.00000000E+00
  0.00000000E+00  0.00000000E+00  0.00000000E+00
  0.00000000E+00  0.00000000E+00  0.00000000E+00
  0.00000000E+00  0.00000000E+00  0.00000000E+00
  0.00000000E+00  0.00000000E+00  0.00000000E+00
  0.00000000E+00  0.00000000E+00  0.00000000E+00
  0.00000000E+00  0.00000000E+00  0.00000000E+00
  0.00000000E+00  0.00000000E+00  0.00000000E+00
  0.00000000E+00  0.00000000E+00  0.00000000E+00
  0.00000000E+00  0.00000000E+00  0.00000000E+00
  0.00000000E+00  0.00000000E+00  0.00000000E+00
  0.00000000E+00  0.00000000E+00  0.00000000E+00
  0.00000000E+00  0.00000000E+00  0.00000000E+00
  0.00000000E+00  0.00000000E+00  0.00000000E+00
  0.00000000E+00  0.00000000E+00  0.00000000E+00
  0.00000000E+00  0.00000000E+00  0.00000000E+00
  0.00000000E+00  0.00000000E+00  0.00000000E+00
  0.00000000E+00  0.00000000E+00  0.00000000E+00
  0.00000000E+00  0.00000000E+00  0.00000000E+00
  0.00000000E+00  0.00000000E+00  0.00000000E+00
  0.00000000E+00  0.00000000E+00  0.00000000E+00
  0.00000000E+00  0.00000000E+00  0.00000000E+00
  0.00000000E+00  0.00000000E+00  0.00000000E+00
  0.00000000E+00  0.00000000E+00  0.00000000E+00
  0.00000000E+00  0.00000000E+00  0.00000000E+00
  0.00000000E+00  0.00000000E+00  0.00000000E+00
  0.00000000E+00  0.00000000E+00  0.00000000E+00
  0.00000000E+00  0.00000000E+00  0.00000000E+00
  0.00000000E+00  0.00000000E+00  0.00000000E+00
  0.00000000E+00  0.00000000E+00  0.00000000E+00
  0.00000000E+00  0.00000000E+00  0.00000000E+00
  0.00000000E+00  0.00000000E+00  0.00000000E+00
  0.00000000E+00  0.00000000E+00  0.00000000E+00
  0.00000000E+00  0.00000000E+00  0.00000000E+00
  0.00000000E+00  0.00000000E+00  0.00000000E+00
  0.00000000E+00  0.00000000E+00  0.00000000E+00
  0.00000000E+00  0.00000000E+00  0.00000000E+00
  0.00000000E+00  0.00000000E+00  0.00000000E+00
  0.00000000E+00  0.00000000E+00  0.00000000E+00
  0.00000000E+00  0.00000000E+00  0.00000000E+00
  0.00000000E+00  0.00000000E+00  0.00000000E+00
  0.00000000E+00  0.00000000E+00  0.00000000E+00
  0.00000000E+00  0.00000000E+00  0.00000000E+00
  0.00000000E+00  0.00000000E+00  0.00000000E+00
  0.00000000E+00  0.00000000E+00  0.00000000E+00
  0.00000000E+00  0.00000000E+00  0.00000000E+00
  0.00000000E+00  0.00000000E+00  0.00000000E+00
  0.00000000E+00  0.00000000E+00  0.00000000E+00
  0.00000000E+00  0.00000000E+00  0.00000000E+00
  0.00000000E+00  0.00000000E+00  0.00000000E+00
  0.00000000E+00  0.00000000E+00  0.00000000E+00
  0.00000000E+00  0.00000000E+00  0.00000000E+00
  0.00000000E+00  0.00000000E+00  0.00000000E+00
  0.00000000E+00  0.00000000E+00  0.00000000E+00
  0.00000000E+00  0.00000000E+00  0.00000000E+00
  0.00000000E+00  0.00000000E+00  0.00000000E+00
