Cu  C  H Br                             
    1.000000000000000     
    10.2424774999999997    0.0000000000000000    0.0000000000000000
     0.0000000000000000   10.2424774999999997    0.0000000000000000
     0.0000000000000000    0.0000000000000000   23.4318939600000000
   Cu   C    H    Br
    64     6     2     4
Selective dynamics
Direct
  0.2499999995118358  0.0000000000000000  0.3200765594451340   F   F   F
  0.0000000000000000  0.4999999990236716  0.3200765594451340   F   F   F
  0.2499999995118358  0.2499999995118358  0.3200765594451340   F   F   F
  0.2499999995118358  0.4999999990236716  0.3200765594451340   F   F   F
  0.2499999995118358  0.7499999985355075  0.3200765594451340   F   F   F
  0.4999999990236716  0.0000000000000000  0.3200765594451340   F   F   F
  0.4999999990236716  0.2499999995118358  0.3200765594451340   F   F   F
  0.0000000000000000  0.7499999985355075  0.3200765594451340   F   F   F
  0.4999999990236716  0.4999999990236716  0.3200765594451340   F   F   F
  0.4999999990236716  0.7499999985355075  0.3200765594451340   F   F   F
  0.7499999985355075  0.0000000000000000  0.3200765594451340   F   F   F
  0.7499999985355075  0.2499999995118358  0.3200765594451340   F   F   F
  0.7499999985355075  0.4999999990236716  0.3200765594451340   F   F   F
  0.7499999985355075  0.7499999985355075  0.3200765594451340   F   F   F
  0.0000000000000000  0.0000000000000000  0.3200765594451340   F   F   F
  0.0000000000000000  0.2499999995118358  0.3200765594451340   F   F   F
  0.2501185961889364  0.9998294416387143  0.4741530418189410   T   T   T
  0.2499666853448984  0.2499704023635282  0.4741125661056478   T   T   T
  0.2496234719715242  0.4999024268358978  0.4739783635703927   T   T   T
  0.2499264115398639  0.7500766110936220  0.4741108105008151   T   T   T
  0.5000008658480399  0.0000035121362098  0.4742318635330426   T   T   T
  0.4999022326652847  0.2496269611171426  0.4739810982358063   T   T   T
  0.5000041244492860  0.5000008789252359  0.4737980408747541   T   T   T
  0.5001029346527986  0.7503795286907968  0.4739776468540998   T   T   T
  0.7498838520071121  0.0001764750289706  0.4741544501529806   T   T   T
  0.7500735882408142  0.2499313598568308  0.4741136567476398   T   T   T
  0.7503775587498047  0.5001031061135109  0.4739797418464264   T   T   T
  0.7500339832725386  0.7500347959824214  0.4741109213672238   T   T   T
 -0.0000005525480055  0.0000039988417758  0.4740040333469515   T   T   T
  0.9998251493552007  0.2501238277352149  0.4741527832007341   T   T   T
 -0.0000006537150329  0.5000029356886823  0.4742308697544595   T   T   T
  0.0001741092205081  0.7498827492987167  0.4741516446938850   T   T   T
  0.1250369126288079  0.1250428607669481  0.5497094353413976   T   T   T
  0.1250160279054583  0.3745665046552719  0.5497066149840542   T   T   T
  0.1250206594936671  0.6250594177436717  0.5498498389157028   T   T   T
  0.1247094810586278  0.8752927283686596  0.5496110470423875   T   T   T
  0.3745626954376141  0.1250196639212225  0.5497108307313076   T   T   T
  0.3748734246621077  0.3748786362466863  0.5493705203029756   T   T   T
  0.3754772012934383  0.6245391318414850  0.5485271531864981   T   T   T
  0.3749437032837854  0.8749820591649440  0.5498514025053751   T   T   T
  0.6250612766102979  0.1250240205532295  0.5498569844062476   T   T   T
  0.6245325472085800  0.3754726085285319  0.5485384323311987   T   T   T
  0.6251307493594647  0.6251292474009126  0.5493702049211596   T   T   T
  0.6254388499039037  0.8749856994267593  0.5497082756870220   T   T   T
  0.8752904502676967  0.1247151918439608  0.5496129619465010   T   T   T
  0.8749825942923598  0.3749476647581833  0.5498539237675933   T   T   T
  0.8749864588913141  0.6254414502364284  0.5497076480418156   T   T   T
  0.8749627715470419  0.8749641968422511  0.5497087685571357   T   T   T
  0.1250000002440785  0.1249999992677573  0.3973486452223582   F   F   F
  0.1250000002440785  0.3749999997559215  0.3973486452223582   F   F   F
  0.1250000002440785  0.6249999982914289  0.3973486452223582   F   F   F
  0.1250000002440785  0.8749999987795931  0.3973486452223582   F   F   F
  0.3749999997559215  0.1249999992677573  0.3973486452223582   F   F   F
  0.3749999997559215  0.3749999997559215  0.3973486452223582   F   F   F
  0.3749999997559215  0.6249999982914289  0.3973486452223582   F   F   F
  0.3749999997559215  0.8749999987795931  0.3973486452223582   F   F   F
  0.6249999982914289  0.1249999992677573  0.3973486452223582   F   F   F
  0.6249999982914289  0.3749999997559215  0.3973486452223582   F   F   F
  0.6249999992677573  0.6249999982914289  0.3973486452223582   F   F   F
  0.6249999992677573  0.8749999987795931  0.3973486452223582   F   F   F
  0.8749999987795931  0.1249999992677573  0.3973486452223582   F   F   F
  0.8749999978032648  0.3749999997559215  0.3973486452223582   F   F   F
  0.8749999987795931  0.6249999982914289  0.3973486452223582   F   F   F
  0.8749999987795931  0.8749999987795931  0.3973486452223582   F   F   F
  0.5964954034800244  0.5964352712419169  0.6758135705016703   T   T   T
  0.6322223165540173  0.4645120155271796  0.6767142925141341   T   T   T
  0.5354091065809662  0.3677403797823015  0.6767264511097215   T   T   T
  0.4035132278930113  0.4035156909128371  0.6758130540076956   T   T   T
  0.3678212906235506  0.5354316442894365  0.6766457422591573   T   T   T
  0.4645909971337093  0.6321688878406349  0.6766576462402994   T   T   T
  0.6717381704856484  0.6717056487748514  0.6757046878252555   T   T   T
  0.3282560777895411  0.3282756625489054  0.6757041451765160   T   T   T
  0.8125781408576980  0.4227539004866486  0.6767471996920060   T   T   T
  0.5771196804891456  0.1873125214139431  0.6767903028501443   T   T   T
  0.1875553179809533  0.5774279087223420  0.6766784853567748   T   T   T
  0.4226328228564777  0.8124369462673254  0.6767530515164163   T   T   T
 
  0.00000000E+00  0.00000000E+00  0.00000000E+00
  0.00000000E+00  0.00000000E+00  0.00000000E+00
  0.00000000E+00  0.00000000E+00  0.00000000E+00
  0.00000000E+00  0.00000000E+00  0.00000000E+00
  0.00000000E+00  0.00000000E+00  0.00000000E+00
  0.00000000E+00  0.00000000E+00  0.00000000E+00
  0.00000000E+00  0.00000000E+00  0.00000000E+00
  0.00000000E+00  0.00000000E+00  0.00000000E+00
  0.00000000E+00  0.00000000E+00  0.00000000E+00
  0.00000000E+00  0.00000000E+00  0.00000000E+00
  0.00000000E+00  0.00000000E+00  0.00000000E+00
  0.00000000E+00  0.00000000E+00  0.00000000E+00
  0.00000000E+00  0.00000000E+00  0.00000000E+00
  0.00000000E+00  0.00000000E+00  0.00000000E+00
  0.00000000E+00  0.00000000E+00  0.00000000E+00
  0.00000000E+00  0.00000000E+00  0.00000000E+00
  0.00000000E+00  0.00000000E+00  0.00000000E+00
  0.00000000E+00  0.00000000E+00  0.00000000E+00
  0.00000000E+00  0.00000000E+00  0.00000000E+00
  0.00000000E+00  0.00000000E+00  0.00000000E+00
  0.00000000E+00  0.00000000E+00  0.00000000E+00
  0.00000000E+00  0.00000000E+00  0.00000000E+00
  0.00000000E+00  0.00000000E+00  0.00000000E+00
  0.00000000E+00  0.00000000E+00  0.00000000E+00
  0.00000000E+00  0.00000000E+00  0.00000000E+00
  0.00000000E+00  0.00000000E+00  0.00000000E+00
  0.00000000E+00  0.00000000E+00  0.00000000E+00
  0.00000000E+00  0.00000000E+00  0.00000000E+00
  0.00000000E+00  0.00000000E+00  0.00000000E+00
  0.00000000E+00  0.00000000E+00  0.00000000E+00
  0.00000000E+00  0.00000000E+00  0.00000000E+00
  0.00000000E+00  0.00000000E+00  0.00000000E+00
  0.00000000E+00  0.00000000E+00  0.00000000E+00
  0.00000000E+00  0.00000000E+00  0.00000000E+00
  0.00000000E+00  0.00000000E+00  0.00000000E+00
  0.00000000E+00  0.00000000E+00  0.00000000E+00
  0.00000000E+00  0.00000000E+00  0.00000000E+00
  0.00000000E+00  0.00000000E+00  0.00000000E+00
  0.00000000E+00  0.00000000E+00  0.00000000E+00
  0.00000000E+00  0.00000000E+00  0.00000000E+00
  0.00000000E+00  0.00000000E+00  0.00000000E+00
  0.00000000E+00  0.00000000E+00  0.00000000E+00
  0.00000000E+00  0.00000000E+00  0.00000000E+00
  0.00000000E+00  0.00000000E+00  0.00000000E+00
  0.00000000E+00  0.00000000E+00  0.00000000E+00
  0.00000000E+00  0.00000000E+00  0.00000000E+00
  0.00000000E+00  0.00000000E+00  0.00000000E+00
  0.00000000E+00  0.00000000E+00  0.00000000E+00
  0.00000000E+00  0.00000000E+00  0.00000000E+00
  0.00000000E+00  0.00000000E+00  0.00000000E+00
  0.00000000E+00  0.00000000E+00  0.00000000E+00
  0.00000000E+00  0.00000000E+00  0.00000000E+00
  0.00000000E+00  0.00000000E+00  0.00000000E+00
  0.00000000E+00  0.00000000E+00  0.00000000E+00
  0.00000000E+00  0.00000000E+00  0.00000000E+00
  0.00000000E+00  0.00000000E+00  0.00000000E+00
  0.00000000E+00  0.00000000E+00  0.00000000E+00
  0.00000000E+00  0.00000000E+00  0.00000000E+00
  0.00000000E+00  0.00000000E+00  0.00000000E+00
  0.00000000E+00  0.00000000E+00  0.00000000E+00
  0.00000000E+00  0.00000000E+00  0.00000000E+00
  0.00000000E+00  0.00000000E+00  0.00000000E+00
  0.00000000E+00  0.00000000E+00  0.00000000E+00
  0.00000000E+00  0.00000000E+00  0.00000000E+00
  0.00000000E+00  0.00000000E+00  0.00000000E+00
  0.00000000E+00  0.00000000E+00  0.00000000E+00
  0.00000000E+00  0.00000000E+00  0.00000000E+00
  0.00000000E+00  0.00000000E+00  0.00000000E+00
  0.00000000E+00  0.00000000E+00  0.00000000E+00
  0.00000000E+00  0.00000000E+00  0.00000000E+00
  0.00000000E+00  0.00000000E+00  0.00000000E+00
  0.00000000E+00  0.00000000E+00  0.00000000E+00
  0.00000000E+00  0.00000000E+00  0.00000000E+00
  0.00000000E+00  0.00000000E+00  0.00000000E+00
  0.00000000E+00  0.00000000E+00  0.00000000E+00
  0.00000000E+00  0.00000000E+00  0.00000000E+00
