Cu  C  N Br                             
   1.00000000000000     
    10.2424769999999992    0.0000000000000000    0.0000000000000000
    -5.1212390000000001    8.8702459999999999    0.0000000000000000
     0.0000000000000000    0.0000000000000000   24.2722108799999958
   Cu   C    N    Br
    64     4     2     4
Selective dynamics
Direct
  0.7500000436217675  0.9999999661790682  0.3089953377992387   F   F   F
  0.0000000023248248  0.2499999909810811  0.3089953377992387   F   F   F
  0.0000000042370090  0.4999999830895305  0.3089953377992387   F   F   F
  0.0000000055855054  0.7499999740706187  0.3089953377992387   F   F   F
  0.0000000084740179  0.9999999661790682  0.3089953377992387   F   F   F
  0.2500000140407437  0.2499999909810811  0.3089953377992387   F   F   F
  0.2500000159529208  0.4999999830895305  0.3089953377992387   F   F   F
  0.2500000173014243  0.7499999740706187  0.3089953377992387   F   F   F
  0.5000000257566555  0.2499999909810811  0.3089953377992387   F   F   F
  0.5000000276688397  0.4999999830895305  0.3089953377992387   F   F   F
  0.5000000290173432  0.7499999740706187  0.3089953377992387   F   F   F
  0.5000000319058486  0.9999999661790682  0.3089953377992387   F   F   F
  0.7500000374725744  0.2499999909810811  0.3089953377992387   F   F   F
  0.7500000393847586  0.4999999830895305  0.3089953377992387   F   F   F
  0.7500000417095833  0.7499999740706187  0.3089953377992387   F   F   F
  0.2500000201899297  0.9999999661790682  0.3089953377992387   F   F   F
  0.0833330000000032  0.1666669999999968  0.3951324008931820   F   F   F
  0.0833330000000032  0.4166669999999968  0.3951324008931820   F   F   F
  0.0833330000000032  0.6666669999999968  0.3951324008931820   F   F   F
  0.0833330000000032  0.9166669999999968  0.3951324008931820   F   F   F
  0.3333330000000032  0.1666669999999968  0.3951324008931820   F   F   F
  0.3333330000000032  0.4166669999999968  0.3951324008931820   F   F   F
  0.3333330000000032  0.6666669999999968  0.3951324008931820   F   F   F
  0.3333330000000032  0.9166669999999968  0.3951324008931820   F   F   F
  0.5833330000000032  0.1666669999999968  0.3951324008931820   F   F   F
  0.5833330000000032  0.4166669999999968  0.3951324008931820   F   F   F
  0.5833330000000032  0.6666669999999968  0.3951324008931820   F   F   F
  0.5833330000000032  0.9166669999999968  0.3951324008931820   F   F   F
  0.8333330000000032  0.1666669999999968  0.3951324008931820   F   F   F
  0.8333330000000032  0.4166669999999968  0.3951324008931820   F   F   F
  0.8333330000000032  0.6666669999999968  0.3951324008931820   F   F   F
  0.8333330000000032  0.9166669999999968  0.3951324008931820   F   F   F
  0.9996386653033661  0.9998090803523809  0.5646080913603073   T   T   T
  0.9997444629251858  0.2500573295140476  0.5648324486808092   T   T   T
  0.0001549342311425  0.5000953762779035  0.5647447362140080   T   T   T
  0.0001048987835507  0.7499153431505748  0.5645215870381337   T   T   T
  0.2498359737947344  0.9998495168694302  0.5649187490926539   T   T   T
  0.2501265205910890  0.2503706394610422  0.5634935259555516   T   T   T
  0.2499465013108812  0.5000553115100165  0.5647648128437628   T   T   T
  0.2499113479974262  0.7498542267260621  0.5647630476021401   T   T   T
  0.5000398482409516  0.0004999825949603  0.5647803742240776   T   T   T
  0.4996539426275137  0.2503281391286775  0.5647624037229102   T   T   T
  0.4996481615313085  0.4998710683973444  0.5634818022932272   T   T   T
  0.4999513541819386  0.7502628023187939  0.5648397382068754   T   T   T
  0.7496760096745891  0.0003177449586296  0.5645094424044430   T   T   T
  0.7495792380550433  0.2499789801149841  0.5648000768553062   T   T   T
  0.7501599405145452  0.5001619887636536  0.5649190513259658   T   T   T
  0.7501768710820892  0.7503168446989852  0.5646198114148662   T   T   T
  0.1665366507774663  0.0828499516086703  0.4798278201056425   T   T   T
  0.1663697581162096  0.3334801439272983  0.4798060198940644   T   T   T
  0.1666352741356719  0.5833634852947155  0.4799314733197046   T   T   T
  0.1668424707366831  0.8333720495254336  0.4799186820252524   T   T   T
  0.4164960374367804  0.0832429397559974  0.4800293747984612   T   T   T
  0.4168954880166960  0.3330777972595192  0.4794736469737196   T   T   T
  0.4165237338236080  0.5836577238349555  0.4797962181439348   T   T   T
  0.4167640880085000  0.8334420227020723  0.4800197212686177   T   T   T
  0.6665897064527443  0.0834268788378249  0.4798474978919109   T   T   T
  0.6667448714214020  0.3335070244243930  0.4800364619888011   T   T   T
  0.6671834095491708  0.5834924345174629  0.4798250756188197   T   T   T
  0.6665376654005711  0.8332401998196874  0.4799206082810581   T   T   T
  0.9167893017383361  0.0834896106845598  0.4799126043512365   T   T   T
  0.9165707518998473  0.3332593632877912  0.4800150321454499   T   T   T
  0.9166225290392210  0.5831586087052837  0.4799117073893632   T   T   T
  0.9167413949166332  0.8332885077150994  0.4799033545685698   T   T   T
  0.5265178821598200  0.4467801143998538  0.6913463392638861   T   T   T
  0.4469818154699702  0.5264003657207013  0.6912708370716314   T   T   T
  0.2233884242669360  0.3028491223847862  0.6912657642486609   T   T   T
  0.3029359656479367  0.2232432428291177  0.6913374612585108   T   T   T
  0.2977258480736970  0.4521078495350552  0.6912927238104597   T   T   T
  0.4522457364476157  0.2975686161113175  0.6914705380755368   T   T   T
  0.2052960730448590  0.0101284914234050  0.6910282153793621   T   T   T
  0.0103509787986244  0.2052141191868409  0.6909940219867193   T   T   T
  0.7399237499667309  0.5447933638981002  0.6909836545261153   T   T   T
  0.5450159978623343  0.7398911635809476  0.6909798822694349   T   T   T
 
  0.00000000E+00  0.00000000E+00  0.00000000E+00
  0.00000000E+00  0.00000000E+00  0.00000000E+00
  0.00000000E+00  0.00000000E+00  0.00000000E+00
  0.00000000E+00  0.00000000E+00  0.00000000E+00
  0.00000000E+00  0.00000000E+00  0.00000000E+00
  0.00000000E+00  0.00000000E+00  0.00000000E+00
  0.00000000E+00  0.00000000E+00  0.00000000E+00
  0.00000000E+00  0.00000000E+00  0.00000000E+00
  0.00000000E+00  0.00000000E+00  0.00000000E+00
  0.00000000E+00  0.00000000E+00  0.00000000E+00
  0.00000000E+00  0.00000000E+00  0.00000000E+00
  0.00000000E+00  0.00000000E+00  0.00000000E+00
  0.00000000E+00  0.00000000E+00  0.00000000E+00
  0.00000000E+00  0.00000000E+00  0.00000000E+00
  0.00000000E+00  0.00000000E+00  0.00000000E+00
  0.00000000E+00  0.00000000E+00  0.00000000E+00
  0.00000000E+00  0.00000000E+00  0.00000000E+00
  0.00000000E+00  0.00000000E+00  0.00000000E+00
  0.00000000E+00  0.00000000E+00  0.00000000E+00
  0.00000000E+00  0.00000000E+00  0.00000000E+00
  0.00000000E+00  0.00000000E+00  0.00000000E+00
  0.00000000E+00  0.00000000E+00  0.00000000E+00
  0.00000000E+00  0.00000000E+00  0.00000000E+00
  0.00000000E+00  0.00000000E+00  0.00000000E+00
  0.00000000E+00  0.00000000E+00  0.00000000E+00
  0.00000000E+00  0.00000000E+00  0.00000000E+00
  0.00000000E+00  0.00000000E+00  0.00000000E+00
  0.00000000E+00  0.00000000E+00  0.00000000E+00
  0.00000000E+00  0.00000000E+00  0.00000000E+00
  0.00000000E+00  0.00000000E+00  0.00000000E+00
  0.00000000E+00  0.00000000E+00  0.00000000E+00
  0.00000000E+00  0.00000000E+00  0.00000000E+00
  0.00000000E+00  0.00000000E+00  0.00000000E+00
  0.00000000E+00  0.00000000E+00  0.00000000E+00
  0.00000000E+00  0.00000000E+00  0.00000000E+00
  0.00000000E+00  0.00000000E+00  0.00000000E+00
  0.00000000E+00  0.00000000E+00  0.00000000E+00
  0.00000000E+00  0.00000000E+00  0.00000000E+00
  0.00000000E+00  0.00000000E+00  0.00000000E+00
  0.00000000E+00  0.00000000E+00  0.00000000E+00
  0.00000000E+00  0.00000000E+00  0.00000000E+00
  0.00000000E+00  0.00000000E+00  0.00000000E+00
  0.00000000E+00  0.00000000E+00  0.00000000E+00
  0.00000000E+00  0.00000000E+00  0.00000000E+00
  0.00000000E+00  0.00000000E+00  0.00000000E+00
  0.00000000E+00  0.00000000E+00  0.00000000E+00
  0.00000000E+00  0.00000000E+00  0.00000000E+00
  0.00000000E+00  0.00000000E+00  0.00000000E+00
  0.00000000E+00  0.00000000E+00  0.00000000E+00
  0.00000000E+00  0.00000000E+00  0.00000000E+00
  0.00000000E+00  0.00000000E+00  0.00000000E+00
  0.00000000E+00  0.00000000E+00  0.00000000E+00
  0.00000000E+00  0.00000000E+00  0.00000000E+00
  0.00000000E+00  0.00000000E+00  0.00000000E+00
  0.00000000E+00  0.00000000E+00  0.00000000E+00
  0.00000000E+00  0.00000000E+00  0.00000000E+00
  0.00000000E+00  0.00000000E+00  0.00000000E+00
  0.00000000E+00  0.00000000E+00  0.00000000E+00
  0.00000000E+00  0.00000000E+00  0.00000000E+00
  0.00000000E+00  0.00000000E+00  0.00000000E+00
  0.00000000E+00  0.00000000E+00  0.00000000E+00
  0.00000000E+00  0.00000000E+00  0.00000000E+00
  0.00000000E+00  0.00000000E+00  0.00000000E+00
  0.00000000E+00  0.00000000E+00  0.00000000E+00
  0.00000000E+00  0.00000000E+00  0.00000000E+00
  0.00000000E+00  0.00000000E+00  0.00000000E+00
  0.00000000E+00  0.00000000E+00  0.00000000E+00
  0.00000000E+00  0.00000000E+00  0.00000000E+00
  0.00000000E+00  0.00000000E+00  0.00000000E+00
  0.00000000E+00  0.00000000E+00  0.00000000E+00
  0.00000000E+00  0.00000000E+00  0.00000000E+00
  0.00000000E+00  0.00000000E+00  0.00000000E+00
  0.00000000E+00  0.00000000E+00  0.00000000E+00
  0.00000000E+00  0.00000000E+00  0.00000000E+00
