Cu48 C6 F2 H4                           
    1.000000000000000     
    10.2424774999999997    0.0000000000000000    0.0000000000000000
     0.0000000000000000   10.2424774999999997    0.0000000000000000
     0.0000000000000000    0.0000000000000000   16.5496807100000005
   Cu   C    F    H 
    48     6     2     4
Selective dynamics
Direct
  0.2493198621851676  0.9998976217993558  0.4090188567660746   T   T   T
  0.2499482708081544  0.2499409764347860  0.4091784609123081   T   T   T
  0.2509258117321167  0.5003095807503968  0.4092262361626737   T   T   T
  0.2503702011269766  0.7496496724381245  0.4096192971974943   T   T   T
  0.4999933326743715  0.0000054046671920  0.4088593193379424   T   T   T
  0.5003185223081275  0.2509160094219141  0.4092277405769593   T   T   T
  0.4999989752263616  0.4999926658546130  0.4089373816211364   T   T   T
  0.4996739186998767  0.7490857960499255  0.4092237985621452   T   T   T
  0.7506757619420412  0.0001218154187939  0.4090189657236394   T   T   T
  0.7496388118829174  0.2503567865068064  0.4096208525305300   T   T   T
  0.7490730831019476  0.4996648975890210  0.4092192705533648   T   T   T
  0.7500392620529581  0.7500537396192968  0.4091691548663832   T   T   T
  0.0000078822296388  0.0000155833125675  0.4095747534955052   T   T   T
  0.9998935093102688  0.2493101927277905  0.4090194573074299   T   T   T
  0.0000036339789418  0.4999832690862931  0.4088536636747264   T   T   T
  0.0001180820234552  0.7506870725759285  0.4090138481765280   T   T   T
  0.1250543719791182  0.1250654940924250  0.5166725465866406   T   T   T
  0.1242567704618551  0.3747814987907390  0.5152877906668181   T   T   T
  0.1243831267120186  0.6249531939132851  0.5154765065585210   T   T   T
  0.1252546310422105  0.8748019198719419  0.5168124123111895   T   T   T
  0.3748047205221710  0.1242499021960981  0.5152789399985025   T   T   T
  0.3743424543268219  0.3743317711433605  0.5157474019679285   T   T   T
  0.3744520038462369  0.6255689822560413  0.5184547531801869   T   T   T
  0.3750516141047981  0.8756516206793918  0.5154384544005950   T   T   T
  0.6249652844771418  0.1243526872344916  0.5154472250034132   T   T   T
  0.6255524821168521  0.3744180612533583  0.5184584128807330   T   T   T
  0.6256273061094646  0.6256569240782568  0.5157499225490483   T   T   T
  0.6251651110626355  0.8757527844703432  0.5152932570084019   T   T   T
  0.8747752584219413  0.1252465972830521  0.5167933578296129   T   T   T
  0.8756451908837590  0.3749983243276844  0.5154495207636245   T   T   T
  0.8757231896969984  0.6251662047959528  0.5153543272685610   T   T   T
  0.8749261481378454  0.8749807031581085  0.5167413096705005   T   T   T
  0.1250000002440785  0.1249999992677573  0.3021206322717020   F   F   F
  0.1250000002440785  0.3749999997559215  0.3021206322717020   F   F   F
  0.1250000002440785  0.6249999982914289  0.3021206322717020   F   F   F
  0.1250000002440785  0.8749999987795931  0.3021206322717020   F   F   F
  0.3749999997559215  0.1249999992677573  0.3021206322717020   F   F   F
  0.3749999997559215  0.3749999997559215  0.3021206322717020   F   F   F
  0.3749999997559215  0.6249999982914289  0.3021206322717020   F   F   F
  0.3749999997559215  0.8749999987795931  0.3021206322717020   F   F   F
  0.6249999982914289  0.1249999992677573  0.3021206322717020   F   F   F
  0.6249999982914289  0.3749999997559215  0.3021206322717020   F   F   F
  0.6249999992677573  0.6249999982914289  0.3021206322717020   F   F   F
  0.6249999992677573  0.8749999987795931  0.3021206322717020   F   F   F
  0.8749999987795931  0.1249999992677573  0.3021206322717020   F   F   F
  0.8749999978032648  0.3749999997559215  0.3021206322717020   F   F   F
  0.8749999987795931  0.6249999982914289  0.3021206322717020   F   F   F
  0.8749999987795931  0.8749999987795931  0.3021206322717020   F   F   F
  0.5956541200998444  0.5956403434043267  0.6513540855246802   T   T   T
  0.6349150480662544  0.4634634046076940  0.6483495072026670   T   T   T
  0.5364530794819231  0.3650537790746640  0.6483490474909033   T   T   T
  0.4043675389076427  0.4043310632366897  0.6513421586764139   T   T   T
  0.3650620548613048  0.5364435412189579  0.6483490500555007   T   T   T
  0.4634954807500122  0.6349253574998670  0.6483454615505551   T   T   T
  0.6855729485570876  0.6855730776658220  0.6767630668451403   T   T   T
  0.3144473361161317  0.3144602379502714  0.6767316548827580   T   T   T
  0.7363980187890462  0.4391680034387306  0.6610907474884016   T   T   T
  0.5608294306694575  0.2636217183992571  0.6610632285758626   T   T   T
  0.2635696265871204  0.5608387459010586  0.6610804228935692   T   T   T
  0.4391506621500483  0.7364158199442770  0.6610822886228647   T   T   T
 
  0.00000000E+00  0.00000000E+00  0.00000000E+00
  0.00000000E+00  0.00000000E+00  0.00000000E+00
  0.00000000E+00  0.00000000E+00  0.00000000E+00
  0.00000000E+00  0.00000000E+00  0.00000000E+00
  0.00000000E+00  0.00000000E+00  0.00000000E+00
  0.00000000E+00  0.00000000E+00  0.00000000E+00
  0.00000000E+00  0.00000000E+00  0.00000000E+00
  0.00000000E+00  0.00000000E+00  0.00000000E+00
  0.00000000E+00  0.00000000E+00  0.00000000E+00
  0.00000000E+00  0.00000000E+00  0.00000000E+00
  0.00000000E+00  0.00000000E+00  0.00000000E+00
  0.00000000E+00  0.00000000E+00  0.00000000E+00
  0.00000000E+00  0.00000000E+00  0.00000000E+00
  0.00000000E+00  0.00000000E+00  0.00000000E+00
  0.00000000E+00  0.00000000E+00  0.00000000E+00
  0.00000000E+00  0.00000000E+00  0.00000000E+00
  0.00000000E+00  0.00000000E+00  0.00000000E+00
  0.00000000E+00  0.00000000E+00  0.00000000E+00
  0.00000000E+00  0.00000000E+00  0.00000000E+00
  0.00000000E+00  0.00000000E+00  0.00000000E+00
  0.00000000E+00  0.00000000E+00  0.00000000E+00
  0.00000000E+00  0.00000000E+00  0.00000000E+00
  0.00000000E+00  0.00000000E+00  0.00000000E+00
  0.00000000E+00  0.00000000E+00  0.00000000E+00
  0.00000000E+00  0.00000000E+00  0.00000000E+00
  0.00000000E+00  0.00000000E+00  0.00000000E+00
  0.00000000E+00  0.00000000E+00  0.00000000E+00
  0.00000000E+00  0.00000000E+00  0.00000000E+00
  0.00000000E+00  0.00000000E+00  0.00000000E+00
  0.00000000E+00  0.00000000E+00  0.00000000E+00
  0.00000000E+00  0.00000000E+00  0.00000000E+00
  0.00000000E+00  0.00000000E+00  0.00000000E+00
  0.00000000E+00  0.00000000E+00  0.00000000E+00
  0.00000000E+00  0.00000000E+00  0.00000000E+00
  0.00000000E+00  0.00000000E+00  0.00000000E+00
  0.00000000E+00  0.00000000E+00  0.00000000E+00
  0.00000000E+00  0.00000000E+00  0.00000000E+00
  0.00000000E+00  0.00000000E+00  0.00000000E+00
  0.00000000E+00  0.00000000E+00  0.00000000E+00
  0.00000000E+00  0.00000000E+00  0.00000000E+00
  0.00000000E+00  0.00000000E+00  0.00000000E+00
  0.00000000E+00  0.00000000E+00  0.00000000E+00
  0.00000000E+00  0.00000000E+00  0.00000000E+00
  0.00000000E+00  0.00000000E+00  0.00000000E+00
  0.00000000E+00  0.00000000E+00  0.00000000E+00
  0.00000000E+00  0.00000000E+00  0.00000000E+00
  0.00000000E+00  0.00000000E+00  0.00000000E+00
  0.00000000E+00  0.00000000E+00  0.00000000E+00
  0.00000000E+00  0.00000000E+00  0.00000000E+00
  0.00000000E+00  0.00000000E+00  0.00000000E+00
  0.00000000E+00  0.00000000E+00  0.00000000E+00
  0.00000000E+00  0.00000000E+00  0.00000000E+00
  0.00000000E+00  0.00000000E+00  0.00000000E+00
  0.00000000E+00  0.00000000E+00  0.00000000E+00
  0.00000000E+00  0.00000000E+00  0.00000000E+00
  0.00000000E+00  0.00000000E+00  0.00000000E+00
  0.00000000E+00  0.00000000E+00  0.00000000E+00
  0.00000000E+00  0.00000000E+00  0.00000000E+00
  0.00000000E+00  0.00000000E+00  0.00000000E+00
  0.00000000E+00  0.00000000E+00  0.00000000E+00
