Pt  C  H Br                             
    1.000000000000000     
    11.2480068000000006    0.0000000000000000    0.0000000000000000
     0.0000000000000000   11.2480068000000006    0.0000000000000000
     0.0000000000000000    0.0000000000000000   23.9651564400000012
   Pt   C    H    Br
    64     6     2     4
Selective dynamics
Direct
  0.2500000008890453  0.0000000000000000  0.3129543518222917   F   F   F
  0.0000000000000000  0.5000000017780906  0.3129543518222917   F   F   F
  0.2500000008890453  0.2500000008890453  0.3129543518222917   F   F   F
  0.2500000008890453  0.5000000017780906  0.3129543518222917   F   F   F
  0.2500000008890453  0.7500000026671358  0.3129543518222917   F   F   F
  0.5000000017780906  0.0000000000000000  0.3129543518222917   F   F   F
  0.5000000017780906  0.2500000008890453  0.3129543518222917   F   F   F
  0.0000000000000000  0.7500000026671358  0.3129543518222917   F   F   F
  0.5000000017780906  0.5000000017780906  0.3129543518222917   F   F   F
  0.5000000017780906  0.7500000026671358  0.3129543518222917   F   F   F
  0.7500000026671358  0.0000000000000000  0.3129543518222917   F   F   F
  0.7500000026671358  0.2500000008890453  0.3129543518222917   F   F   F
  0.7500000026671358  0.5000000017780906  0.3129543518222917   F   F   F
  0.7500000026671358  0.7500000026671358  0.3129543518222917   F   F   F
  0.0000000000000000  0.0000000000000000  0.3129543518222917   F   F   F
  0.0000000000000000  0.2500000008890453  0.3129543518222917   F   F   F
  0.2504366124253832  0.9997005329068711  0.4784730971439243   T   T   T
  0.2497596618215297  0.2497513305795420  0.4783259092757174   T   T   T
  0.2486245907234547  0.4994526664739506  0.4780313400917878   T   T   T
  0.2495015338485508  0.7504988656996983  0.4780836128694407   T   T   T
  0.5000065341994280  0.0000044733181238  0.4787111623729857   T   T   T
  0.4994593398222973  0.2486379919912644  0.4780331003366181   T   T   T
  0.4999953412829792  0.5000050538229032  0.4776556241271269   T   T   T
  0.5005520583655146  0.7513775234387580  0.4780279207404275   T   T   T
  0.7495595432291194  0.0002924940601928  0.4784796579250893   T   T   T
  0.7505071108684878  0.2494943497039282  0.4780879186435531   T   T   T
  0.7513622862709225  0.5005480214571411  0.4780342308435996   T   T   T
  0.7502522132399800  0.7502406090974102  0.4783248529701742   T   T   T
 -0.0000100876939517 -0.0000028728965548  0.4781970401760456   T   T   T
  0.9997094838480952  0.2504426494766021  0.4784803980458055   T   T   T
 -0.0000002355804292  0.5000011548968079  0.4787161018182995   T   T   T
  0.0003041659540249  0.7495570248416663  0.4784802543554582   T   T   T
  0.1247874507961043  0.1247707394591231  0.5602904921310762   T   T   T
  0.1255307569541286  0.3741817777116231  0.5604476997379900   T   T   T
  0.1243503137033128  0.6253012287702637  0.5613879238059343   T   T   T
  0.1247964798689397  0.8752139302793427  0.5602334180774232   T   T   T
  0.3741793749511389  0.1255210223905898  0.5604419655632542   T   T   T
  0.3749524716019894  0.3749598345830554  0.5605713000162432   T   T   T
  0.3751882653761448  0.6248351089730863  0.5575790706028749   T   T   T
  0.3747031212774059  0.8756535025492250  0.5613779828599725   T   T   T
  0.6253137886027869  0.1243518271720201  0.5613826951297471   T   T   T
  0.6248221248834704  0.3751843449426677  0.5575899161881787   T   T   T
  0.6250458948725806  0.6250462083031344  0.5605753841335678   T   T   T
  0.6258080039974260  0.8744689801876319  0.5604466481027345   T   T   T
  0.8752286371394241  0.1247768848561265  0.5602345480934975   T   T   T
  0.8756409914049647  0.3746889782124637  0.5613830361546841   T   T   T
  0.8744719363845253  0.6258186130636451  0.5604531020501851   T   T   T
  0.8752245110260261  0.8752115084985256  0.5602928569669889   T   T   T
  0.1250000008890453  0.1250000000000000  0.3959242036977884   F   F   F
  0.1250000008890453  0.3750000008890453  0.3959242036977884   F   F   F
  0.1250000008890453  0.6250000026671358  0.3959242036977884   F   F   F
  0.1250000008890453  0.8750000026671358  0.3959242036977884   F   F   F
  0.3750000017780906  0.1250000000000000  0.3959242036977884   F   F   F
  0.3750000017780906  0.3750000008890453  0.3959242036977884   F   F   F
  0.3750000017780906  0.6250000026671358  0.3959242036977884   F   F   F
  0.3750000017780906  0.8750000026671358  0.3959242036977884   F   F   F
  0.6250000026671358  0.1250000000000000  0.3959242036977884   F   F   F
  0.6250000026671358  0.3750000008890453  0.3959242036977884   F   F   F
  0.6250000026671358  0.6250000026671358  0.3959242036977884   F   F   F
  0.6250000026671358  0.8750000026671358  0.3959242036977884   F   F   F
  0.8750000035561882  0.1250000000000000  0.3959242036977884   F   F   F
  0.8750000026671358  0.3750000008890453  0.3959242036977884   F   F   F
  0.8750000035561882  0.6250000026671358  0.3959242036977884   F   F   F
  0.8750000035561882  0.8750000026671358  0.3959242036977884   F   F   F
  0.4118517610434322  0.4119267166911756  0.6828938462958448   T   T   T
  0.3794406753686825  0.5323814432022986  0.6845932500427113   T   T   T
  0.4676339055189505  0.6205430276836392  0.6846159681419707   T   T   T
  0.5880829617512174  0.5881106120495126  0.6829023032255648   T   T   T
  0.6205622203506123  0.4676647999389550  0.6845665511952012   T   T   T
  0.5323204734148856  0.3795430518964681  0.6845637296960531   T   T   T
  0.3433700525622523  0.3434184199154961  0.6841279467874893   T   T   T
  0.6565833077935244  0.6565649014058417  0.6841366092831280   T   T   T
  0.2151052667787687  0.5698190350362425  0.6863245128061798   T   T   T
  0.4300240137841572  0.7849794100070022  0.6865039700584696   T   T   T
  0.7849059431983632  0.4302973602669235  0.6863979125286362   T   T   T
  0.5697636549398980  0.2150404683677099  0.6862759217580017   T   T   T
 
  0.00000000E+00  0.00000000E+00  0.00000000E+00
  0.00000000E+00  0.00000000E+00  0.00000000E+00
  0.00000000E+00  0.00000000E+00  0.00000000E+00
  0.00000000E+00  0.00000000E+00  0.00000000E+00
  0.00000000E+00  0.00000000E+00  0.00000000E+00
  0.00000000E+00  0.00000000E+00  0.00000000E+00
  0.00000000E+00  0.00000000E+00  0.00000000E+00
  0.00000000E+00  0.00000000E+00  0.00000000E+00
  0.00000000E+00  0.00000000E+00  0.00000000E+00
  0.00000000E+00  0.00000000E+00  0.00000000E+00
  0.00000000E+00  0.00000000E+00  0.00000000E+00
  0.00000000E+00  0.00000000E+00  0.00000000E+00
  0.00000000E+00  0.00000000E+00  0.00000000E+00
  0.00000000E+00  0.00000000E+00  0.00000000E+00
  0.00000000E+00  0.00000000E+00  0.00000000E+00
  0.00000000E+00  0.00000000E+00  0.00000000E+00
  0.00000000E+00  0.00000000E+00  0.00000000E+00
  0.00000000E+00  0.00000000E+00  0.00000000E+00
  0.00000000E+00  0.00000000E+00  0.00000000E+00
  0.00000000E+00  0.00000000E+00  0.00000000E+00
  0.00000000E+00  0.00000000E+00  0.00000000E+00
  0.00000000E+00  0.00000000E+00  0.00000000E+00
  0.00000000E+00  0.00000000E+00  0.00000000E+00
  0.00000000E+00  0.00000000E+00  0.00000000E+00
  0.00000000E+00  0.00000000E+00  0.00000000E+00
  0.00000000E+00  0.00000000E+00  0.00000000E+00
  0.00000000E+00  0.00000000E+00  0.00000000E+00
  0.00000000E+00  0.00000000E+00  0.00000000E+00
  0.00000000E+00  0.00000000E+00  0.00000000E+00
  0.00000000E+00  0.00000000E+00  0.00000000E+00
  0.00000000E+00  0.00000000E+00  0.00000000E+00
  0.00000000E+00  0.00000000E+00  0.00000000E+00
  0.00000000E+00  0.00000000E+00  0.00000000E+00
  0.00000000E+00  0.00000000E+00  0.00000000E+00
  0.00000000E+00  0.00000000E+00  0.00000000E+00
  0.00000000E+00  0.00000000E+00  0.00000000E+00
  0.00000000E+00  0.00000000E+00  0.00000000E+00
  0.00000000E+00  0.00000000E+00  0.00000000E+00
  0.00000000E+00  0.00000000E+00  0.00000000E+00
  0.00000000E+00  0.00000000E+00  0.00000000E+00
  0.00000000E+00  0.00000000E+00  0.00000000E+00
  0.00000000E+00  0.00000000E+00  0.00000000E+00
  0.00000000E+00  0.00000000E+00  0.00000000E+00
  0.00000000E+00  0.00000000E+00  0.00000000E+00
  0.00000000E+00  0.00000000E+00  0.00000000E+00
  0.00000000E+00  0.00000000E+00  0.00000000E+00
  0.00000000E+00  0.00000000E+00  0.00000000E+00
  0.00000000E+00  0.00000000E+00  0.00000000E+00
  0.00000000E+00  0.00000000E+00  0.00000000E+00
  0.00000000E+00  0.00000000E+00  0.00000000E+00
  0.00000000E+00  0.00000000E+00  0.00000000E+00
  0.00000000E+00  0.00000000E+00  0.00000000E+00
  0.00000000E+00  0.00000000E+00  0.00000000E+00
  0.00000000E+00  0.00000000E+00  0.00000000E+00
  0.00000000E+00  0.00000000E+00  0.00000000E+00
  0.00000000E+00  0.00000000E+00  0.00000000E+00
  0.00000000E+00  0.00000000E+00  0.00000000E+00
  0.00000000E+00  0.00000000E+00  0.00000000E+00
  0.00000000E+00  0.00000000E+00  0.00000000E+00
  0.00000000E+00  0.00000000E+00  0.00000000E+00
  0.00000000E+00  0.00000000E+00  0.00000000E+00
  0.00000000E+00  0.00000000E+00  0.00000000E+00
  0.00000000E+00  0.00000000E+00  0.00000000E+00
  0.00000000E+00  0.00000000E+00  0.00000000E+00
  0.00000000E+00  0.00000000E+00  0.00000000E+00
  0.00000000E+00  0.00000000E+00  0.00000000E+00
  0.00000000E+00  0.00000000E+00  0.00000000E+00
  0.00000000E+00  0.00000000E+00  0.00000000E+00
  0.00000000E+00  0.00000000E+00  0.00000000E+00
  0.00000000E+00  0.00000000E+00  0.00000000E+00
  0.00000000E+00  0.00000000E+00  0.00000000E+00
  0.00000000E+00  0.00000000E+00  0.00000000E+00
  0.00000000E+00  0.00000000E+00  0.00000000E+00
  0.00000000E+00  0.00000000E+00  0.00000000E+00
  0.00000000E+00  0.00000000E+00  0.00000000E+00
  0.00000000E+00  0.00000000E+00  0.00000000E+00
