Pt  C Br                                
    1.000000000000000     
    11.2480068000000006    0.0000000000000000    0.0000000000000000
     0.0000000000000000   11.2480068000000006    0.0000000000000000
     0.0000000000000000    0.0000000000000000   23.9651564400000012
   Pt   C    Br
    64     6     6
Selective dynamics
Direct
  0.2500000008890453  0.0000000000000000  0.3129543518222917   F   F   F
  0.0000000000000000  0.5000000017780906  0.3129543518222917   F   F   F
  0.2500000008890453  0.2500000008890453  0.3129543518222917   F   F   F
  0.2500000008890453  0.5000000017780906  0.3129543518222917   F   F   F
  0.2500000008890453  0.7500000026671358  0.3129543518222917   F   F   F
  0.5000000017780906  0.0000000000000000  0.3129543518222917   F   F   F
  0.5000000017780906  0.2500000008890453  0.3129543518222917   F   F   F
  0.0000000000000000  0.7500000026671358  0.3129543518222917   F   F   F
  0.5000000017780906  0.5000000017780906  0.3129543518222917   F   F   F
  0.5000000017780906  0.7500000026671358  0.3129543518222917   F   F   F
  0.7500000026671358  0.0000000000000000  0.3129543518222917   F   F   F
  0.7500000026671358  0.2500000008890453  0.3129543518222917   F   F   F
  0.7500000026671358  0.5000000017780906  0.3129543518222917   F   F   F
  0.7500000026671358  0.7500000026671358  0.3129543518222917   F   F   F
  0.0000000000000000  0.0000000000000000  0.3129543518222917   F   F   F
  0.0000000000000000  0.2500000008890453  0.3129543518222917   F   F   F
  0.2509582558072160  0.9953094644408734  0.4789115005271385   T   T   T
  0.2475622491984674  0.2476386973596494  0.4783861532588884   T   T   T
  0.2468652666271306  0.4978721543189680  0.4783600716497632   T   T   T
  0.2518416449160674  0.7453787980435824  0.4797721067091295   T   T   T
  0.5001666972541721 -0.0001275880607509  0.4780780473688461   T   T   T
  0.5010596610906104  0.2506251688880403  0.4785234027559946   T   T   T
  0.4999713111316705  0.4999842241032835  0.4787343301899286   T   T   T
  0.4992187077223246  0.7483483308075974  0.4790988692510180   T   T   T
  0.7500790371994018  0.0049383615278056  0.4780638604228368   T   T   T
  0.7479519951665289  0.2543413041408134  0.4791186717362238   T   T   T
  0.7515819940035403  0.5016950407427282  0.4788251963123599   T   T   T
  0.7531930154502547  0.7522422806112845  0.4782327936151602   T   T   T
  0.0009285471230234  0.0005032357577468  0.4783031403568309   T   T   T
  0.9986960075102700  0.2526754065253682  0.4791915350452787   T   T   T
  0.9996952537236417  0.5015712428275013  0.4805096980798057   T   T   T
  0.0028957749346102  0.7491805638296312  0.4790143262225459   T   T   T
  0.1229166608161803  0.1124676896972381  0.5639289020932876   T   T   T
  0.1232650084546756  0.3789719701639281  0.5632804628288814   T   T   T
  0.1260964592330725  0.6267248430382414  0.5681386171629086   T   T   T
  0.1274752968794859  0.8715646747978879  0.5602143838131829   T   T   T
  0.3731877252721650  0.1202735358860871  0.5581881802788879   T   T   T
  0.3655983505453846  0.3626173485259852  0.5618853991110748   T   T   T
  0.3690124230266209  0.6167250963524578  0.5633665353448974   T   T   T
  0.3763620499230754  0.8723887362255113  0.5660618826409091   T   T   T
  0.6248342019990301  0.1250058657371618  0.5661086987883522   T   T   T
  0.6285387827425579  0.3763086289235852  0.5632579686762141   T   T   T
  0.6337956157453440  0.6385159458769163  0.5612986515001671   T   T   T
  0.6285774262026030  0.8821696550343620  0.5580208688882567   T   T   T
  0.8738025857242265  0.1299265559512513  0.5595179760594757   T   T   T
  0.8779861745231052  0.3744279685554418  0.5663878817235436   T   T   T
  0.8802768868944622  0.6253055206619016  0.5630119337793362   T   T   T
  0.8788654121694658  0.8902099889301257  0.5628991651057164   T   T   T
  0.1250000008890453  0.1250000000000000  0.3959242036977884   F   F   F
  0.1250000008890453  0.3750000008890453  0.3959242036977884   F   F   F
  0.1250000008890453  0.6250000026671358  0.3959242036977884   F   F   F
  0.1250000008890453  0.8750000026671358  0.3959242036977884   F   F   F
  0.3750000017780906  0.1250000000000000  0.3959242036977884   F   F   F
  0.3750000017780906  0.3750000008890453  0.3959242036977884   F   F   F
  0.3750000017780906  0.6250000026671358  0.3959242036977884   F   F   F
  0.3750000017780906  0.8750000026671358  0.3959242036977884   F   F   F
  0.6250000026671358  0.1250000000000000  0.3959242036977884   F   F   F
  0.6250000026671358  0.3750000008890453  0.3959242036977884   F   F   F
  0.6250000026671358  0.6250000026671358  0.3959242036977884   F   F   F
  0.6250000026671358  0.8750000026671358  0.3959242036977884   F   F   F
  0.8750000035561882  0.1250000000000000  0.3959242036977884   F   F   F
  0.8750000026671358  0.3750000008890453  0.3959242036977884   F   F   F
  0.8750000035561882  0.6250000026671358  0.3959242036977884   F   F   F
  0.8750000035561882  0.8750000026671358  0.3959242036977884   F   F   F
  0.6464215047033508  0.4567187495619162  0.6445168952770053   T   T   T
  0.5501093081308150  0.3704073698721773  0.6450159745428663   T   T   T
  0.4326066431908883  0.4160917464901882  0.6341155878513369   T   T   T
  0.4143718610998238  0.5369079729234488  0.6360242052886043   T   T   T
  0.5038463096072119  0.6212829496507623  0.6475794110377466   T   T   T
  0.6208851339678226  0.5826261492347861  0.6408485956894943   T   T   T
  0.8110863085480188  0.4116935759445991  0.6674769009718879   T   T   T
  0.5734820224908723  0.2009910134933635  0.6679720366403773   T   T   T
  0.1245011641556670  0.2435930567124857  0.6469137689742340   T   T   T
  0.1403194469773104  0.6051306781505560  0.6683298264490205   T   T   T
  0.4556942805931459  0.7944279696278689  0.6625298858727577   T   T   T
  0.8666683274432139  0.7655226196541796  0.6462250441485788   T   T   T
 
  0.00000000E+00  0.00000000E+00  0.00000000E+00
  0.00000000E+00  0.00000000E+00  0.00000000E+00
  0.00000000E+00  0.00000000E+00  0.00000000E+00
  0.00000000E+00  0.00000000E+00  0.00000000E+00
  0.00000000E+00  0.00000000E+00  0.00000000E+00
  0.00000000E+00  0.00000000E+00  0.00000000E+00
  0.00000000E+00  0.00000000E+00  0.00000000E+00
  0.00000000E+00  0.00000000E+00  0.00000000E+00
  0.00000000E+00  0.00000000E+00  0.00000000E+00
  0.00000000E+00  0.00000000E+00  0.00000000E+00
  0.00000000E+00  0.00000000E+00  0.00000000E+00
  0.00000000E+00  0.00000000E+00  0.00000000E+00
  0.00000000E+00  0.00000000E+00  0.00000000E+00
  0.00000000E+00  0.00000000E+00  0.00000000E+00
  0.00000000E+00  0.00000000E+00  0.00000000E+00
  0.00000000E+00  0.00000000E+00  0.00000000E+00
  0.00000000E+00  0.00000000E+00  0.00000000E+00
  0.00000000E+00  0.00000000E+00  0.00000000E+00
  0.00000000E+00  0.00000000E+00  0.00000000E+00
  0.00000000E+00  0.00000000E+00  0.00000000E+00
  0.00000000E+00  0.00000000E+00  0.00000000E+00
  0.00000000E+00  0.00000000E+00  0.00000000E+00
  0.00000000E+00  0.00000000E+00  0.00000000E+00
  0.00000000E+00  0.00000000E+00  0.00000000E+00
  0.00000000E+00  0.00000000E+00  0.00000000E+00
  0.00000000E+00  0.00000000E+00  0.00000000E+00
  0.00000000E+00  0.00000000E+00  0.00000000E+00
  0.00000000E+00  0.00000000E+00  0.00000000E+00
  0.00000000E+00  0.00000000E+00  0.00000000E+00
  0.00000000E+00  0.00000000E+00  0.00000000E+00
  0.00000000E+00  0.00000000E+00  0.00000000E+00
  0.00000000E+00  0.00000000E+00  0.00000000E+00
  0.00000000E+00  0.00000000E+00  0.00000000E+00
  0.00000000E+00  0.00000000E+00  0.00000000E+00
  0.00000000E+00  0.00000000E+00  0.00000000E+00
  0.00000000E+00  0.00000000E+00  0.00000000E+00
  0.00000000E+00  0.00000000E+00  0.00000000E+00
  0.00000000E+00  0.00000000E+00  0.00000000E+00
  0.00000000E+00  0.00000000E+00  0.00000000E+00
  0.00000000E+00  0.00000000E+00  0.00000000E+00
  0.00000000E+00  0.00000000E+00  0.00000000E+00
  0.00000000E+00  0.00000000E+00  0.00000000E+00
  0.00000000E+00  0.00000000E+00  0.00000000E+00
  0.00000000E+00  0.00000000E+00  0.00000000E+00
  0.00000000E+00  0.00000000E+00  0.00000000E+00
  0.00000000E+00  0.00000000E+00  0.00000000E+00
  0.00000000E+00  0.00000000E+00  0.00000000E+00
  0.00000000E+00  0.00000000E+00  0.00000000E+00
  0.00000000E+00  0.00000000E+00  0.00000000E+00
  0.00000000E+00  0.00000000E+00  0.00000000E+00
  0.00000000E+00  0.00000000E+00  0.00000000E+00
  0.00000000E+00  0.00000000E+00  0.00000000E+00
  0.00000000E+00  0.00000000E+00  0.00000000E+00
  0.00000000E+00  0.00000000E+00  0.00000000E+00
  0.00000000E+00  0.00000000E+00  0.00000000E+00
  0.00000000E+00  0.00000000E+00  0.00000000E+00
  0.00000000E+00  0.00000000E+00  0.00000000E+00
  0.00000000E+00  0.00000000E+00  0.00000000E+00
  0.00000000E+00  0.00000000E+00  0.00000000E+00
  0.00000000E+00  0.00000000E+00  0.00000000E+00
  0.00000000E+00  0.00000000E+00  0.00000000E+00
  0.00000000E+00  0.00000000E+00  0.00000000E+00
  0.00000000E+00  0.00000000E+00  0.00000000E+00
  0.00000000E+00  0.00000000E+00  0.00000000E+00
  0.00000000E+00  0.00000000E+00  0.00000000E+00
  0.00000000E+00  0.00000000E+00  0.00000000E+00
  0.00000000E+00  0.00000000E+00  0.00000000E+00
  0.00000000E+00  0.00000000E+00  0.00000000E+00
  0.00000000E+00  0.00000000E+00  0.00000000E+00
  0.00000000E+00  0.00000000E+00  0.00000000E+00
  0.00000000E+00  0.00000000E+00  0.00000000E+00
  0.00000000E+00  0.00000000E+00  0.00000000E+00
  0.00000000E+00  0.00000000E+00  0.00000000E+00
  0.00000000E+00  0.00000000E+00  0.00000000E+00
  0.00000000E+00  0.00000000E+00  0.00000000E+00
  0.00000000E+00  0.00000000E+00  0.00000000E+00
