Ag48 C6 F2 H4                           
    1.000000000000000     
    11.7702790000000004    0.0000000000000000    0.0000000000000000
     0.0000000000000000   11.7702790000000004    0.0000000000000000
     0.0000000000000000    0.0000000000000000   16.8002514599999984
   Ag   C    F    H 
    48     6     2     4
Selective dynamics
Direct
  0.9999682066788935  0.2498956213312411  0.4104289715892264   T   T   T
  0.0000009864969499  0.4999993767390976  0.4103429406694232   T   T   T
  0.0000331911239329  0.7501049479474702  0.4104293941286343   T   T   T
  0.0000006623188114  0.0000006634533278  0.4104069164995039   T   T   T
  0.2496425437219258  0.2496422918746717  0.4102935758659783   T   T   T
  0.2499758372400862  0.5003505889330881  0.4103875006360838   T   T   T
  0.2500595796419063  0.7499400860119536  0.4105852660843325   T   T   T
  0.2498955023252876  0.9999686520218987  0.4104293990167207   T   T   T
  0.5003517027979285  0.2499767009589391  0.4103870327875114   T   T   T
  0.4999979569891693  0.4999958618259086  0.4102613868116549   T   T   T
  0.4996457893068822  0.7500263999689238  0.4103873603672810   T   T   T
  0.4999993139145715  0.0000018880046397  0.4103435626768075   T   T   T
  0.7499390443109846  0.2500609012274211  0.4105843943240046   T   T   T
  0.7500257461587481  0.4996448582080149  0.4103863917903752   T   T   T
  0.7503608857904709  0.7503602483155376  0.4102936345924491   T   T   T
  0.7501051208543501  0.0000336643529408  0.4104295479864888   T   T   T
  0.1247894592984053  0.1247897523709582  0.5232540442597085   T   T   T
  0.1246867609162337  0.3751465882039611  0.5230404717447072   T   T   T
  0.1249847799862138  0.6250236494933930  0.5231939034032891   T   T   T
  0.1249921275662089  0.8750089464063819  0.5233555343286369   T   T   T
  0.3751468065042474  0.1246873592283961  0.5230403126038610   T   T   T
  0.3747706361770611  0.3747702088375817  0.5216048204938133   T   T   T
  0.3748671457699544  0.6251307683431691  0.5237431442900728   T   T   T
  0.3749755048387442  0.8750165708652560  0.5231939669696857   T   T   T
  0.6250239292020652  0.1249853927548870  0.5231937465860028   T   T   T
  0.6251309144702759  0.3748674137922805  0.5237450671981563   T   T   T
  0.6252281945124665  0.6252279440411357  0.5215932595195341   T   T   T
  0.6248529472714850  0.8753157685614639  0.5230395547030398   T   T   T
  0.8750086540156161  0.1249926499303129  0.5233551238580176   T   T   T
  0.8750161919599222  0.3749754363921696  0.5231936236648593   T   T   T
  0.8753155189997770  0.6248524579867265  0.5230392492538343   T   T   T
  0.8752121854018498  0.8752122904889674  0.5232539318540290   T   T   T
  0.1249999995752020  0.1249999995752020  0.2976145929663332   F   F   F
  0.1249999995752020  0.3749999987256061  0.2976145929663332   F   F   F
  0.1249999995752020  0.6249999978760030  0.2976145929663332   F   F   F
  0.1249999995752020  0.8749999970264071  0.2976145929663332   F   F   F
  0.3749999987256061  0.1249999995752020  0.2976145929663332   F   F   F
  0.3749999987256061  0.3749999987256061  0.2976145929663332   F   F   F
  0.3749999987256061  0.6249999978760030  0.2976145929663332   F   F   F
  0.3749999987256061  0.8749999970264071  0.2976145929663332   F   F   F
  0.6249999978760030  0.1249999995752020  0.2976145929663332   F   F   F
  0.6249999978760030  0.3749999987256061  0.2976145929663332   F   F   F
  0.6249999978760030  0.6249999978760030  0.2976145929663332   F   F   F
  0.6249999978760030  0.8749999970264071  0.2976145929663332   F   F   F
  0.8749999970264071  0.1249999995752020  0.2976145929663332   F   F   F
  0.8749999970264071  0.3749999987256061  0.2976145929663332   F   F   F
  0.8749999970264071  0.6249999978760030  0.2976145929663332   F   F   F
  0.8749999970264071  0.8749999970264071  0.2976145929663332   F   F   F
  0.5821179077441485  0.5821194839438064  0.7021078878152949   T   T   T
  0.6154767327345922  0.4686348225612775  0.7014228147594181   T   T   T
  0.5313681340768426  0.3845191764551359  0.7014460558420339   T   T   T
  0.4178223256110556  0.4178430356051379  0.7021592300038293   T   T   T
  0.3845126468939668  0.5313770883664404  0.7014418595829923   T   T   T
  0.4686340487182434  0.6154705852064666  0.7014190161753220   T   T   T
  0.6641569843506971  0.6641721853110312  0.7039652525650411   T   T   T
  0.3357499648812805  0.3357564271110363  0.7040679579820122   T   T   T
  0.7053646344169096  0.4468061594908832  0.7020804986476961   T   T   T
  0.5531628070821029  0.2945508909480807  0.7021313750194906   T   T   T
  0.2945776259841466  0.5531743819670822  0.7021214915306686   T   T   T
  0.4468270281005360  0.7053556784092265  0.7020717442977400   T   T   T
 
  0.00000000E+00  0.00000000E+00  0.00000000E+00
  0.00000000E+00  0.00000000E+00  0.00000000E+00
  0.00000000E+00  0.00000000E+00  0.00000000E+00
  0.00000000E+00  0.00000000E+00  0.00000000E+00
  0.00000000E+00  0.00000000E+00  0.00000000E+00
  0.00000000E+00  0.00000000E+00  0.00000000E+00
  0.00000000E+00  0.00000000E+00  0.00000000E+00
  0.00000000E+00  0.00000000E+00  0.00000000E+00
  0.00000000E+00  0.00000000E+00  0.00000000E+00
  0.00000000E+00  0.00000000E+00  0.00000000E+00
  0.00000000E+00  0.00000000E+00  0.00000000E+00
  0.00000000E+00  0.00000000E+00  0.00000000E+00
  0.00000000E+00  0.00000000E+00  0.00000000E+00
  0.00000000E+00  0.00000000E+00  0.00000000E+00
  0.00000000E+00  0.00000000E+00  0.00000000E+00
  0.00000000E+00  0.00000000E+00  0.00000000E+00
  0.00000000E+00  0.00000000E+00  0.00000000E+00
  0.00000000E+00  0.00000000E+00  0.00000000E+00
  0.00000000E+00  0.00000000E+00  0.00000000E+00
  0.00000000E+00  0.00000000E+00  0.00000000E+00
  0.00000000E+00  0.00000000E+00  0.00000000E+00
  0.00000000E+00  0.00000000E+00  0.00000000E+00
  0.00000000E+00  0.00000000E+00  0.00000000E+00
  0.00000000E+00  0.00000000E+00  0.00000000E+00
  0.00000000E+00  0.00000000E+00  0.00000000E+00
  0.00000000E+00  0.00000000E+00  0.00000000E+00
  0.00000000E+00  0.00000000E+00  0.00000000E+00
  0.00000000E+00  0.00000000E+00  0.00000000E+00
  0.00000000E+00  0.00000000E+00  0.00000000E+00
  0.00000000E+00  0.00000000E+00  0.00000000E+00
  0.00000000E+00  0.00000000E+00  0.00000000E+00
  0.00000000E+00  0.00000000E+00  0.00000000E+00
  0.00000000E+00  0.00000000E+00  0.00000000E+00
  0.00000000E+00  0.00000000E+00  0.00000000E+00
  0.00000000E+00  0.00000000E+00  0.00000000E+00
  0.00000000E+00  0.00000000E+00  0.00000000E+00
  0.00000000E+00  0.00000000E+00  0.00000000E+00
  0.00000000E+00  0.00000000E+00  0.00000000E+00
  0.00000000E+00  0.00000000E+00  0.00000000E+00
  0.00000000E+00  0.00000000E+00  0.00000000E+00
  0.00000000E+00  0.00000000E+00  0.00000000E+00
  0.00000000E+00  0.00000000E+00  0.00000000E+00
  0.00000000E+00  0.00000000E+00  0.00000000E+00
  0.00000000E+00  0.00000000E+00  0.00000000E+00
  0.00000000E+00  0.00000000E+00  0.00000000E+00
  0.00000000E+00  0.00000000E+00  0.00000000E+00
  0.00000000E+00  0.00000000E+00  0.00000000E+00
  0.00000000E+00  0.00000000E+00  0.00000000E+00
  0.00000000E+00  0.00000000E+00  0.00000000E+00
  0.00000000E+00  0.00000000E+00  0.00000000E+00
  0.00000000E+00  0.00000000E+00  0.00000000E+00
  0.00000000E+00  0.00000000E+00  0.00000000E+00
  0.00000000E+00  0.00000000E+00  0.00000000E+00
  0.00000000E+00  0.00000000E+00  0.00000000E+00
  0.00000000E+00  0.00000000E+00  0.00000000E+00
  0.00000000E+00  0.00000000E+00  0.00000000E+00
  0.00000000E+00  0.00000000E+00  0.00000000E+00
  0.00000000E+00  0.00000000E+00  0.00000000E+00
  0.00000000E+00  0.00000000E+00  0.00000000E+00
  0.00000000E+00  0.00000000E+00  0.00000000E+00
