Au48 C6 H2 F4                           
    1.000000000000000     
    11.7981856999999994    0.0000000000000000    0.0000000000000000
     0.0000000000000000   16.6851543000000007    0.0000000000000000
     0.0000000000000000    0.0000000000000000   15.8898988299999999
   Au   C    H    F 
    48     6     2     4
Selective dynamics
Direct
  0.0000527640603494  0.2501040814937383  0.4055913067294767   T   T   T
  0.9999935606779928  0.4999969862796263  0.4056368650304165   T   T   T
  0.9999393263098426  0.7498967982613465  0.4055967752044154   T   T   T
  0.9999984909728212  0.0000021285747209  0.4053997760190242   T   T   T
  0.2499753726033802  0.2500516452507782  0.4058418184972012   T   T   T
  0.2496811505079890  0.4997621917687596  0.4055818181608615   T   T   T
  0.2496261169863558  0.7503072555654597  0.4054722715796757   T   T   T
  0.2500199297481274  0.0000000441649775  0.4056489828973895   T   T   T
  0.4997811900956748  0.2497533407302797  0.4055073839136725   T   T   T
  0.5000106106205706  0.4999940299051957  0.4052887526479765   T   T   T
  0.5002317417082196  0.7502491376018696  0.4055157464559329   T   T   T
  0.5000010882476076  0.0000038560732278  0.4056056902045597   T   T   T
  0.7503676399530548  0.2497024685682092  0.4054578763690984   T   T   T
  0.7503141055558942  0.5002275774533373  0.4055650545637803   T   T   T
  0.7500258009757914  0.7499432175027465  0.4058400932871535   T   T   T
  0.7499812082152886  0.0000060202225569  0.4056468537816400   T   T   T
  0.1250320179530959  0.1249849379692591  0.4964490364221064   T   T   T
  0.1251703278389087  0.3750843140118079  0.4966847710518110   T   T   T
  0.1246495776658421  0.6248949405178976  0.4965706431733778   T   T   T
  0.1250029024118362  0.8750049115797509  0.4964359786512702   T   T   T
  0.3749800173693103  0.1250858695254990  0.4964977318479029   T   T   T
  0.3748624887793071  0.3751606319460805  0.4961497337572567   T   T   T
  0.3741348932174944  0.6250281953966592  0.4939546816969838   T   T   T
  0.3750104399607253  0.8749139199158193  0.4964648047221019   T   T   T
  0.6249920591152360  0.1250887431875185  0.4964614102033877   T   T   T
  0.6258549791682881  0.3749741061033802  0.4939809512869431   T   T   T
  0.6251366466688495  0.6248333232323233  0.4961567773227245   T   T   T
  0.6250219571791291  0.8749161132888261  0.4964994513798402   T   T   T
  0.8749957494300986  0.1249983659699438  0.4964325753528129   T   T   T
  0.8753463046373682  0.3751039330259331  0.4965662579240444   T   T   T
  0.8748309234695455  0.6249126569780685  0.4966803059874678   T   T   T
  0.8749666989130702  0.8750159293025277  0.4964488737496922   T   T   T
  0.1250000006356942  0.1249999995504965  0.3146653136997983   F   F   F
  0.1250000006356942  0.3749999992508322  0.3146653136997983   F   F   F
  0.1250000006356942  0.6249999983518251  0.3146653136997983   F   F   F
  0.1250000006356942  0.8749999974528251  0.3146653136997983   F   F   F
  0.3750000002118981  0.1249999995504965  0.3146653136997983   F   F   F
  0.3750000002118981  0.3749999992508322  0.3146653136997983   F   F   F
  0.3750000010594832  0.6249999983518251  0.3146653136997983   F   F   F
  0.3750000010594832  0.8749999974528251  0.3146653136997983   F   F   F
  0.6250000006356942  0.1249999995504965  0.3146653136997983   F   F   F
  0.6250000006356942  0.3749999992508322  0.3146653136997983   F   F   F
  0.6250000014832793  0.6249999983518251  0.3146653136997983   F   F   F
  0.6250000006356942  0.8749999974528251  0.3146653136997983   F   F   F
  0.8750000010594832  0.1249999995504965  0.3146653136997983   F   F   F
  0.8750000010594832  0.3749999992508322  0.3146653136997983   F   F   F
  0.8750000019070754  0.6249999983518251  0.3146653136997983   F   F   F
  0.8750000010594832  0.8749999974528251  0.3146653136997983   F   F   F
  0.5689504365488531  0.5688245574506681  0.6846643487305002   T   T   T
  0.6172097416001776  0.4926779796109457  0.6847054728366189   T   T   T
  0.5487113050951677  0.4245325237293187  0.6854194155888251   T   T   T
  0.4310864607250764  0.4312034638219870  0.6846828698799072   T   T   T
  0.3828179159121774  0.5073559373433199  0.6846784194669411   T   T   T
  0.4513270386283850  0.5754979267749576  0.6853702305211868   T   T   T
  0.6221379448475730  0.6221715276814805  0.6864577293627931   T   T   T
  0.3778879433107463  0.3778515219737315  0.6864823886270770   T   T   T
  0.7311434502567451  0.4846067557129743  0.6855464224339585   T   T   T
  0.5973115199967367  0.3510269221334141  0.6882972716138269   T   T   T
  0.2688662155149970  0.5154009801884598  0.6854942110293507   T   T   T
  0.4026912784115098  0.6489940613032203  0.6882214646493026   T   T   T
 
  0.00000000E+00  0.00000000E+00  0.00000000E+00
  0.00000000E+00  0.00000000E+00  0.00000000E+00
  0.00000000E+00  0.00000000E+00  0.00000000E+00
  0.00000000E+00  0.00000000E+00  0.00000000E+00
  0.00000000E+00  0.00000000E+00  0.00000000E+00
  0.00000000E+00  0.00000000E+00  0.00000000E+00
  0.00000000E+00  0.00000000E+00  0.00000000E+00
  0.00000000E+00  0.00000000E+00  0.00000000E+00
  0.00000000E+00  0.00000000E+00  0.00000000E+00
  0.00000000E+00  0.00000000E+00  0.00000000E+00
  0.00000000E+00  0.00000000E+00  0.00000000E+00
  0.00000000E+00  0.00000000E+00  0.00000000E+00
  0.00000000E+00  0.00000000E+00  0.00000000E+00
  0.00000000E+00  0.00000000E+00  0.00000000E+00
  0.00000000E+00  0.00000000E+00  0.00000000E+00
  0.00000000E+00  0.00000000E+00  0.00000000E+00
  0.00000000E+00  0.00000000E+00  0.00000000E+00
  0.00000000E+00  0.00000000E+00  0.00000000E+00
  0.00000000E+00  0.00000000E+00  0.00000000E+00
  0.00000000E+00  0.00000000E+00  0.00000000E+00
  0.00000000E+00  0.00000000E+00  0.00000000E+00
  0.00000000E+00  0.00000000E+00  0.00000000E+00
  0.00000000E+00  0.00000000E+00  0.00000000E+00
  0.00000000E+00  0.00000000E+00  0.00000000E+00
  0.00000000E+00  0.00000000E+00  0.00000000E+00
  0.00000000E+00  0.00000000E+00  0.00000000E+00
  0.00000000E+00  0.00000000E+00  0.00000000E+00
  0.00000000E+00  0.00000000E+00  0.00000000E+00
  0.00000000E+00  0.00000000E+00  0.00000000E+00
  0.00000000E+00  0.00000000E+00  0.00000000E+00
  0.00000000E+00  0.00000000E+00  0.00000000E+00
  0.00000000E+00  0.00000000E+00  0.00000000E+00
  0.00000000E+00  0.00000000E+00  0.00000000E+00
  0.00000000E+00  0.00000000E+00  0.00000000E+00
  0.00000000E+00  0.00000000E+00  0.00000000E+00
  0.00000000E+00  0.00000000E+00  0.00000000E+00
  0.00000000E+00  0.00000000E+00  0.00000000E+00
  0.00000000E+00  0.00000000E+00  0.00000000E+00
  0.00000000E+00  0.00000000E+00  0.00000000E+00
  0.00000000E+00  0.00000000E+00  0.00000000E+00
  0.00000000E+00  0.00000000E+00  0.00000000E+00
  0.00000000E+00  0.00000000E+00  0.00000000E+00
  0.00000000E+00  0.00000000E+00  0.00000000E+00
  0.00000000E+00  0.00000000E+00  0.00000000E+00
  0.00000000E+00  0.00000000E+00  0.00000000E+00
  0.00000000E+00  0.00000000E+00  0.00000000E+00
  0.00000000E+00  0.00000000E+00  0.00000000E+00
  0.00000000E+00  0.00000000E+00  0.00000000E+00
  0.00000000E+00  0.00000000E+00  0.00000000E+00
  0.00000000E+00  0.00000000E+00  0.00000000E+00
  0.00000000E+00  0.00000000E+00  0.00000000E+00
  0.00000000E+00  0.00000000E+00  0.00000000E+00
  0.00000000E+00  0.00000000E+00  0.00000000E+00
  0.00000000E+00  0.00000000E+00  0.00000000E+00
  0.00000000E+00  0.00000000E+00  0.00000000E+00
  0.00000000E+00  0.00000000E+00  0.00000000E+00
  0.00000000E+00  0.00000000E+00  0.00000000E+00
  0.00000000E+00  0.00000000E+00  0.00000000E+00
  0.00000000E+00  0.00000000E+00  0.00000000E+00
  0.00000000E+00  0.00000000E+00  0.00000000E+00
