Pd48 C6 F6                              
    1.000000000000000     
    11.1817229999999999    0.0000000000000000    0.0000000000000000
     0.0000000000000000   15.8133443000000007    0.0000000000000000
     0.0000000000000000    0.0000000000000000   15.6556714100000001
   Pd   C    F 
    48     6     6
Selective dynamics
Direct
  0.2500112511894272  0.9999970151633519  0.4039992854299967   T   T   T
  0.2498094098149934  0.2499355297430768  0.4038823725214726   T   T   T
  0.2498583525426312  0.5000548928398914  0.4040275402625468   T   T   T
  0.2498220625196268  0.7500332752728411  0.4039072078314589   T   T   T
  0.4999999982113650  0.0000000000000000  0.4040879518106806   T   T   T
  0.5000267268569516  0.2497578117115609  0.4036743065693997   T   T   T
  0.4999999982113650  0.4999999987352481  0.4041752055292278   T   T   T
  0.4999732695657784  0.7502421863913042  0.4036743065693997   T   T   T
  0.7499887452333027  0.0000029848366481  0.4039992854299967   T   T   T
  0.7501779339031032  0.2499667228300240  0.4039072078314589   T   T   T
  0.7501416438800987  0.4999451046306049  0.4040275402625468   T   T   T
  0.7501905866077365  0.7500644683597883  0.4038823725214726   T   T   T
  0.0000000000000000  0.0000000000000000  0.4039487813842655   T   T   T
  0.9999692443729273  0.2501383010581932  0.4041254519235977   T   T   T
  0.9999999964227371  0.4999999987352481  0.4040343211362512   T   T   T
  0.0000307484725468  0.7498616970446719  0.4041254519235977   T   T   T
  0.1249866808424400  0.1250756041281491  0.4884869338233742   T   T   T
  0.1249381383268684  0.3751988302844040  0.4886100249581844   T   T   T
  0.1250353894806224  0.6247899432906152  0.4887153211434025   T   T   T
  0.1249987046386067  0.8749233728345942  0.4884869498459636   T   T   T
  0.3749955272595926  0.1251080802184319  0.4885265522764115   T   T   T
  0.3749033849003922  0.3751374497356039  0.4876356672351321   T   T   T
  0.3748546852613117  0.6249201795741754  0.4878125718377717   T   T   T
  0.3750051779279033  0.8748838457635557  0.4885346581732577   T   T   T
  0.6249948184948266  0.1251161517069406  0.4885346581732577   T   T   T
  0.6251453111614182  0.3750798178963137  0.4878125718377717   T   T   T
  0.6250966115223378  0.6248625477348853  0.4876356672351321   T   T   T
  0.6250044691631373  0.8748919172520644  0.4885265522764115   T   T   T
  0.8750012917841232  0.1250766246359021  0.4884869498459636   T   T   T
  0.8749646069421075  0.3752100541798740  0.4887153211434025   T   T   T
  0.8750618580958616  0.6248011671860851  0.4886100249581844   T   T   T
  0.8750133155802899  0.8749243933423472  0.4884869338233742   T   T   T
  0.1249999995528412  0.1249999995257198  0.3193730801482104   F   F   F
  0.1249999995528412  0.3749999992095283  0.3193730801482104   F   F   F
  0.1249999995528412  0.6249999982609609  0.3193730801482104   F   F   F
  0.1249999995528412  0.8749999979447765  0.3193730801482104   F   F   F
  0.3749999986585237  0.1249999995257198  0.3193730801482104   F   F   F
  0.3749999986585237  0.3749999992095283  0.3193730801482104   F   F   F
  0.3749999986585237  0.6249999982609609  0.3193730801482104   F   F   F
  0.3749999986585237  0.8749999979447765  0.3193730801482104   F   F   F
  0.6249999977642062  0.1249999995257198  0.3193730801482104   F   F   F
  0.6249999977642062  0.3749999992095283  0.3193730801482104   F   F   F
  0.6249999977642062  0.6249999982609609  0.3193730801482104   F   F   F
  0.6249999977642062  0.8749999979447765  0.3193730801482104   F   F   F
  0.8749999968698887  0.1249999995257198  0.3193730801482104   F   F   F
  0.8749999968698887  0.3749999992095283  0.3193730801482104   F   F   F
  0.8749999968698887  0.6249999982609609  0.3193730801482104   F   F   F
  0.8749999968698887  0.8749999979447765  0.3193730801482104   F   F   F
  0.3755554728601638  0.5079578058894896  0.6788342559168399   T   T   T
  0.4475066138200319  0.5800967928450831  0.6793318946247098   T   T   T
  0.5719379301261611  0.5720796355658777  0.6793166473373091   T   T   T
  0.6244444985217044  0.4920421789334526  0.6788342559168399   T   T   T
  0.5524934076435670  0.4199032172729531  0.6793318946247098   T   T   T
  0.4280620662965759  0.4279203619046115  0.6793166473373091   T   T   T
  0.2557042657384159  0.5154322160081719  0.6804572592087439   T   T   T
  0.3970029387854837  0.6574598453677609  0.6835291430203867   T   T   T
  0.6414224042457946  0.6417619734546207  0.6834929147645781   T   T   T
  0.7442957306843212  0.4845677814623173  0.6804572592087439   T   T   T
  0.6029971238166780  0.3425401723388006  0.6835291430203867   T   T   T
  0.3585776181121219  0.3582380366634155  0.6834929147645781   T   T   T
 
  0.00000000E+00  0.00000000E+00  0.00000000E+00
  0.00000000E+00  0.00000000E+00  0.00000000E+00
  0.00000000E+00  0.00000000E+00  0.00000000E+00
  0.00000000E+00  0.00000000E+00  0.00000000E+00
  0.00000000E+00  0.00000000E+00  0.00000000E+00
  0.00000000E+00  0.00000000E+00  0.00000000E+00
  0.00000000E+00  0.00000000E+00  0.00000000E+00
  0.00000000E+00  0.00000000E+00  0.00000000E+00
  0.00000000E+00  0.00000000E+00  0.00000000E+00
  0.00000000E+00  0.00000000E+00  0.00000000E+00
  0.00000000E+00  0.00000000E+00  0.00000000E+00
  0.00000000E+00  0.00000000E+00  0.00000000E+00
  0.00000000E+00  0.00000000E+00  0.00000000E+00
  0.00000000E+00  0.00000000E+00  0.00000000E+00
  0.00000000E+00  0.00000000E+00  0.00000000E+00
  0.00000000E+00  0.00000000E+00  0.00000000E+00
  0.00000000E+00  0.00000000E+00  0.00000000E+00
  0.00000000E+00  0.00000000E+00  0.00000000E+00
  0.00000000E+00  0.00000000E+00  0.00000000E+00
  0.00000000E+00  0.00000000E+00  0.00000000E+00
  0.00000000E+00  0.00000000E+00  0.00000000E+00
  0.00000000E+00  0.00000000E+00  0.00000000E+00
  0.00000000E+00  0.00000000E+00  0.00000000E+00
  0.00000000E+00  0.00000000E+00  0.00000000E+00
  0.00000000E+00  0.00000000E+00  0.00000000E+00
  0.00000000E+00  0.00000000E+00  0.00000000E+00
  0.00000000E+00  0.00000000E+00  0.00000000E+00
  0.00000000E+00  0.00000000E+00  0.00000000E+00
  0.00000000E+00  0.00000000E+00  0.00000000E+00
  0.00000000E+00  0.00000000E+00  0.00000000E+00
  0.00000000E+00  0.00000000E+00  0.00000000E+00
  0.00000000E+00  0.00000000E+00  0.00000000E+00
  0.00000000E+00  0.00000000E+00  0.00000000E+00
  0.00000000E+00  0.00000000E+00  0.00000000E+00
  0.00000000E+00  0.00000000E+00  0.00000000E+00
  0.00000000E+00  0.00000000E+00  0.00000000E+00
  0.00000000E+00  0.00000000E+00  0.00000000E+00
  0.00000000E+00  0.00000000E+00  0.00000000E+00
  0.00000000E+00  0.00000000E+00  0.00000000E+00
  0.00000000E+00  0.00000000E+00  0.00000000E+00
  0.00000000E+00  0.00000000E+00  0.00000000E+00
  0.00000000E+00  0.00000000E+00  0.00000000E+00
  0.00000000E+00  0.00000000E+00  0.00000000E+00
  0.00000000E+00  0.00000000E+00  0.00000000E+00
  0.00000000E+00  0.00000000E+00  0.00000000E+00
  0.00000000E+00  0.00000000E+00  0.00000000E+00
  0.00000000E+00  0.00000000E+00  0.00000000E+00
  0.00000000E+00  0.00000000E+00  0.00000000E+00
  0.00000000E+00  0.00000000E+00  0.00000000E+00
  0.00000000E+00  0.00000000E+00  0.00000000E+00
  0.00000000E+00  0.00000000E+00  0.00000000E+00
  0.00000000E+00  0.00000000E+00  0.00000000E+00
  0.00000000E+00  0.00000000E+00  0.00000000E+00
  0.00000000E+00  0.00000000E+00  0.00000000E+00
  0.00000000E+00  0.00000000E+00  0.00000000E+00
  0.00000000E+00  0.00000000E+00  0.00000000E+00
  0.00000000E+00  0.00000000E+00  0.00000000E+00
  0.00000000E+00  0.00000000E+00  0.00000000E+00
  0.00000000E+00  0.00000000E+00  0.00000000E+00
  0.00000000E+00  0.00000000E+00  0.00000000E+00
