Pd48 C6 F2 H4                           
    1.000000000000000     
    11.1817229999999999    0.0000000000000000    0.0000000000000000
     0.0000000000000000   15.8133443000000007    0.0000000000000000
     0.0000000000000000    0.0000000000000000   15.6568967600000004
   Pd   C    F    H 
    48     6     2     4
Selective dynamics
Direct
  0.2496007315588216  0.9998365695168019  0.4034392368068325   T   T   T
  0.2523387381130746  0.2529054440434422  0.4051368509867288   T   T   T
  0.2449761711226159  0.5004257725227745  0.3970491381836254   T   T   T
  0.2529714025099423  0.7464836653555906  0.4059728825958189   T   T   T
  0.4999969936637285  0.9999560989225529  0.4043797481819738   T   T   T
  0.5002962743825492  0.2535021042512895  0.4062200536368081   T   T   T
  0.4999935500638699  0.4999988125260089  0.3860963343486219   T   T   T
  0.4996387718145101  0.7465547302258031  0.4062101676043781   T   T   T
  0.7504207147279587  0.0001233100652840  0.4033943796049400   T   T   T
  0.7470537504299060  0.2535369841133175  0.4059390694293796   T   T   T
  0.7550246965577188  0.4995418419632287  0.3970236611738187   T   T   T
  0.7476114082822889  0.7471658267075654  0.4051736574348155   T   T   T
  0.9999768051562299  0.9999977980681649  0.4031479093541890   T   T   T
  0.9998716712756490  0.2520651658763740  0.4045107032559798   T   T   T
  0.0000241000231256  0.4999722064339807  0.4046845305624771   T   T   T
  0.0001295672580781  0.7479524164153517  0.4045848621941062   T   T   T
  0.1255314288104614  0.1266917904753484  0.4871771805616234   T   T   T
  0.1266928132721006  0.3762815144059033  0.4892673353856338   T   T   T
  0.1277205852982704  0.6238490726160961  0.4895271019252831   T   T   T
  0.1258603702002503  0.8729653426148118  0.4872446258808267   T   T   T
  0.3755999950397779  0.1261200456898166  0.4876772682260651   T   T   T
  0.3759834592846474  0.3916426965696473  0.4902569689021732   T   T   T
  0.3777861939082143  0.6075881540605579  0.4946316463686813   T   T   T
  0.3756461139123672  0.8740003636343801  0.4881477718373901   T   T   T
  0.6243044789061614  0.1260064655808435  0.4880380752600431   T   T   T
  0.6221697244977946  0.3923640351271800  0.4946156621055451   T   T   T
  0.6239592030621282  0.6083603647774893  0.4902515765091380   T   T   T
  0.6243747384594016  0.8738858041505040  0.4877364368505468   T   T   T
  0.8741231756974486  0.1270483750250051  0.4872115341088374   T   T   T
  0.8723605983657166  0.3761641784420107  0.4895808052539294   T   T   T
  0.8733042130487192  0.6237033731355339  0.4891788122456404   T   T   T
  0.8744846642816739  0.8732891689217155  0.4872995270588376   T   T   T
  0.1249999995528412  0.1249999995257198  0.3193480851693380   F   F   F
  0.1249999995528412  0.3749999992095283  0.3193480851693380   F   F   F
  0.1249999995528412  0.6249999982609609  0.3193480851693380   F   F   F
  0.1249999995528412  0.8749999979447765  0.3193480851693380   F   F   F
  0.3749999986585237  0.1249999995257198  0.3193480851693380   F   F   F
  0.3749999986585237  0.3749999992095283  0.3193480851693380   F   F   F
  0.3749999986585237  0.6249999982609609  0.3193480851693380   F   F   F
  0.3749999986585237  0.8749999979447765  0.3193480851693380   F   F   F
  0.6249999977642062  0.1249999995257198  0.3193480851693380   F   F   F
  0.6249999977642062  0.3749999992095283  0.3193480851693380   F   F   F
  0.6249999977642062  0.6249999982609609  0.3193480851693380   F   F   F
  0.6249999977642062  0.8749999979447765  0.3193480851693380   F   F   F
  0.8749999968698887  0.1249999995257198  0.3193480851693380   F   F   F
  0.8749999968698887  0.3749999992095283  0.3193480851693380   F   F   F
  0.8749999968698887  0.6249999982609609  0.3193480851693380   F   F   F
  0.8749999968698887  0.8749999979447765  0.3193480851693380   F   F   F
  0.6028678207634215  0.5562982361324700  0.6095538476447544   T   T   T
  0.6199291097042163  0.4637481448960514  0.6121209218813775   T   T   T
  0.5179209186130009  0.4091903503663445  0.6167304722577285   T   T   T
  0.3972295177522298  0.4436590575561326  0.6095342871875999   T   T   T
  0.3800720490602956  0.5361006526168168  0.6121334021382978   T   T   T
  0.4820388855344930  0.5907342373606355  0.6167155224787848   T   T   T
  0.6865059862731968  0.5979942679534389  0.6616957760367228   T   T   T
  0.3135747917435054  0.4019437350531945  0.6617159783118112   T   T   T
  0.7036526496060205  0.4439745540094435  0.6423843682642598   T   T   T
  0.5258865359065652  0.3475446503933597  0.6476831545291617   T   T   T
  0.2964403193575862  0.5559697816011777  0.6424172277640992   T   T   T
  0.4741989793956662  0.6524003734966612  0.6477165150381694   T   T   T
 
  0.00000000E+00  0.00000000E+00  0.00000000E+00
  0.00000000E+00  0.00000000E+00  0.00000000E+00
  0.00000000E+00  0.00000000E+00  0.00000000E+00
  0.00000000E+00  0.00000000E+00  0.00000000E+00
  0.00000000E+00  0.00000000E+00  0.00000000E+00
  0.00000000E+00  0.00000000E+00  0.00000000E+00
  0.00000000E+00  0.00000000E+00  0.00000000E+00
  0.00000000E+00  0.00000000E+00  0.00000000E+00
  0.00000000E+00  0.00000000E+00  0.00000000E+00
  0.00000000E+00  0.00000000E+00  0.00000000E+00
  0.00000000E+00  0.00000000E+00  0.00000000E+00
  0.00000000E+00  0.00000000E+00  0.00000000E+00
  0.00000000E+00  0.00000000E+00  0.00000000E+00
  0.00000000E+00  0.00000000E+00  0.00000000E+00
  0.00000000E+00  0.00000000E+00  0.00000000E+00
  0.00000000E+00  0.00000000E+00  0.00000000E+00
  0.00000000E+00  0.00000000E+00  0.00000000E+00
  0.00000000E+00  0.00000000E+00  0.00000000E+00
  0.00000000E+00  0.00000000E+00  0.00000000E+00
  0.00000000E+00  0.00000000E+00  0.00000000E+00
  0.00000000E+00  0.00000000E+00  0.00000000E+00
  0.00000000E+00  0.00000000E+00  0.00000000E+00
  0.00000000E+00  0.00000000E+00  0.00000000E+00
  0.00000000E+00  0.00000000E+00  0.00000000E+00
  0.00000000E+00  0.00000000E+00  0.00000000E+00
  0.00000000E+00  0.00000000E+00  0.00000000E+00
  0.00000000E+00  0.00000000E+00  0.00000000E+00
  0.00000000E+00  0.00000000E+00  0.00000000E+00
  0.00000000E+00  0.00000000E+00  0.00000000E+00
  0.00000000E+00  0.00000000E+00  0.00000000E+00
  0.00000000E+00  0.00000000E+00  0.00000000E+00
  0.00000000E+00  0.00000000E+00  0.00000000E+00
  0.00000000E+00  0.00000000E+00  0.00000000E+00
  0.00000000E+00  0.00000000E+00  0.00000000E+00
  0.00000000E+00  0.00000000E+00  0.00000000E+00
  0.00000000E+00  0.00000000E+00  0.00000000E+00
  0.00000000E+00  0.00000000E+00  0.00000000E+00
  0.00000000E+00  0.00000000E+00  0.00000000E+00
  0.00000000E+00  0.00000000E+00  0.00000000E+00
  0.00000000E+00  0.00000000E+00  0.00000000E+00
  0.00000000E+00  0.00000000E+00  0.00000000E+00
  0.00000000E+00  0.00000000E+00  0.00000000E+00
  0.00000000E+00  0.00000000E+00  0.00000000E+00
  0.00000000E+00  0.00000000E+00  0.00000000E+00
  0.00000000E+00  0.00000000E+00  0.00000000E+00
  0.00000000E+00  0.00000000E+00  0.00000000E+00
  0.00000000E+00  0.00000000E+00  0.00000000E+00
  0.00000000E+00  0.00000000E+00  0.00000000E+00
  0.00000000E+00  0.00000000E+00  0.00000000E+00
  0.00000000E+00  0.00000000E+00  0.00000000E+00
  0.00000000E+00  0.00000000E+00  0.00000000E+00
  0.00000000E+00  0.00000000E+00  0.00000000E+00
  0.00000000E+00  0.00000000E+00  0.00000000E+00
  0.00000000E+00  0.00000000E+00  0.00000000E+00
  0.00000000E+00  0.00000000E+00  0.00000000E+00
  0.00000000E+00  0.00000000E+00  0.00000000E+00
  0.00000000E+00  0.00000000E+00  0.00000000E+00
  0.00000000E+00  0.00000000E+00  0.00000000E+00
  0.00000000E+00  0.00000000E+00  0.00000000E+00
  0.00000000E+00  0.00000000E+00  0.00000000E+00
