H4 Ir48 C6 F2                           
    1.000000000000000     
    10.9622130000000002    0.0000000000000000    0.0000000000000000
    -5.4811069999999997    9.4935550000000006    0.0000000000000000
     0.0000000000000000    0.0000000000000000   16.4826590000000017
   H    Ir   C    F 
     4    48     6     2
Selective dynamics
Direct
  0.5022138844181612  0.6348526740363241  0.7825927572788913   T   T   T
  0.6341185297282195  0.5029985443093565  0.7829208266086169   T   T   T
  0.2471145472025995  0.1159595509655986  0.7829340458153027   T   T   T
  0.1152186201877825  0.2478100100661749  0.7826037369918950   T   T   T
  0.0833330000000032  0.1666669999999968  0.3640189999999990   F   F   F
  0.0833330000000032  0.4166669999999968  0.3640189999999990   F   F   F
  0.0833330000000032  0.6666669999999968  0.3640189999999990   F   F   F
  0.0833330000000032  0.9166669999999968  0.3640189999999990   F   F   F
  0.3333330000000032  0.1666669999999968  0.3640189999999990   F   F   F
  0.3333330000000032  0.4166669999999968  0.3640189999999990   F   F   F
  0.3333330000000032  0.6666669999999968  0.3640189999999990   F   F   F
  0.3333330000000032  0.9166669999999968  0.3640189999999990   F   F   F
  0.5833330000000032  0.1666669999999968  0.3640189999999990   F   F   F
  0.5833330000000032  0.4166669999999968  0.3640189999999990   F   F   F
  0.5833330000000032  0.6666669999999968  0.3640189999999990   F   F   F
  0.5833330000000032  0.9166669999999968  0.3640189999999990   F   F   F
  0.8333330000000032  0.1666669999999968  0.3640189999999990   F   F   F
  0.8333330000000032  0.4166669999999968  0.3640189999999990   F   F   F
  0.8333330000000032  0.6666669999999968  0.3640189999999990   F   F   F
  0.8333330000000032  0.9166669999999968  0.3640189999999990   F   F   F
  0.9963020185871727  0.9959436399439667  0.6259401421782655   T   T   T
  0.9935492259276231  0.2477068278294610  0.6260179550469473   T   T   T
  0.0007766702744405  0.4993234459084732  0.6269155118233627   T   T   T
  0.0011470735995900  0.7489380026815979  0.6261662053868733   T   T   T
  0.2476286457372652  0.9931203467008132  0.6257167448694716   T   T   T
  0.2416296356692911  0.2403300529877441  0.6352980347137205   T   T   T
  0.2511122644611419  0.4989757400670385  0.6343263284309302   T   T   T
  0.2507651028479856  0.7493106239514162  0.6269097680595905   T   T   T
  0.5005484059514416  0.0011023241301942  0.6269002429731998   T   T   T
  0.4997719295649361  0.2503203735140147  0.6358922172262425   T   T   T
  0.5097370816757589  0.5084472589083759  0.6353110769550270   T   T   T
  0.5023859886856670  0.7565474399813183  0.6260167929928926   T   T   T
  0.7501791569903773  0.9999113489767737  0.6265073334486289   T   T   T
  0.7489821070963174  0.2495399501341140  0.6268937829529762   T   T   T
  0.7569460954300595  0.5024445012372425  0.6257218858660849   T   T   T
  0.7541411055000111  0.7537971777029213  0.6259453407532689   T   T   T
  0.1686065249642681  0.0868907667720222  0.4962570555219799   T   T   T
  0.1690830677193276  0.3348508581982159  0.4969349567258377   T   T   T
  0.1689261092562617  0.5811338939372774  0.4966842552021262   T   T   T
  0.1681464160158654  0.8334655098349799  0.4945860485959059   T   T   T
  0.4177530238525193  0.0872003856062094  0.4965059540759427   T   T   T
  0.4156681935919622  0.3343743365821652  0.4989299499013171   T   T   T
  0.4151994928602960  0.5809747180682976  0.4969334930823663   T   T   T
  0.4167370057303472  0.8334144103932957  0.4953716594715090   T   T   T
  0.6662197650393011  0.0838371652851109  0.4951884862515499   T   T   T
  0.6628473021375001  0.3323055959851828  0.4965019115041969   T   T   T
  0.6631709988252581  0.5814591467083829  0.4962582791606422   T   T   T
  0.6660623646733370  0.8322970770611349  0.4949620624296998   T   T   T
  0.9177727802456204  0.0840065255730025  0.4949665329925708   T   T   T
  0.9166535867012016  0.3333231959870560  0.4953661135013334   T   T   T
  0.9165903906997741  0.5819125679947277  0.4945886281411163   T   T   T
  0.9172639301808232  0.8327955945174281  0.4941642246441447   T   T   T
  0.2940848198125181  0.4558066497131819  0.7551375982071775   T   T   T
  0.4505002011746484  0.5267165408649959  0.7593684456443768   T   T   T
  0.5260878317330722  0.4510498177275224  0.7593857679736900   T   T   T
  0.4556224646968872  0.2943558943568405  0.7558456293285900   T   T   T
  0.2989214056554061  0.2238999392164800  0.7593798572666728   T   T   T
  0.2233083341930993  0.2994322481495644  0.7593508712536021   T   T   T
  0.2410918446779107  0.5085047131565332  0.8150685989151398   T   T   T
  0.5069280453010947  0.2428351033370433  0.8173746269389142   T   T   T
 
  0.00000000E+00  0.00000000E+00  0.00000000E+00
  0.00000000E+00  0.00000000E+00  0.00000000E+00
  0.00000000E+00  0.00000000E+00  0.00000000E+00
  0.00000000E+00  0.00000000E+00  0.00000000E+00
  0.00000000E+00  0.00000000E+00  0.00000000E+00
  0.00000000E+00  0.00000000E+00  0.00000000E+00
  0.00000000E+00  0.00000000E+00  0.00000000E+00
  0.00000000E+00  0.00000000E+00  0.00000000E+00
  0.00000000E+00  0.00000000E+00  0.00000000E+00
  0.00000000E+00  0.00000000E+00  0.00000000E+00
  0.00000000E+00  0.00000000E+00  0.00000000E+00
  0.00000000E+00  0.00000000E+00  0.00000000E+00
  0.00000000E+00  0.00000000E+00  0.00000000E+00
  0.00000000E+00  0.00000000E+00  0.00000000E+00
  0.00000000E+00  0.00000000E+00  0.00000000E+00
  0.00000000E+00  0.00000000E+00  0.00000000E+00
  0.00000000E+00  0.00000000E+00  0.00000000E+00
  0.00000000E+00  0.00000000E+00  0.00000000E+00
  0.00000000E+00  0.00000000E+00  0.00000000E+00
  0.00000000E+00  0.00000000E+00  0.00000000E+00
  0.00000000E+00  0.00000000E+00  0.00000000E+00
  0.00000000E+00  0.00000000E+00  0.00000000E+00
  0.00000000E+00  0.00000000E+00  0.00000000E+00
  0.00000000E+00  0.00000000E+00  0.00000000E+00
  0.00000000E+00  0.00000000E+00  0.00000000E+00
  0.00000000E+00  0.00000000E+00  0.00000000E+00
  0.00000000E+00  0.00000000E+00  0.00000000E+00
  0.00000000E+00  0.00000000E+00  0.00000000E+00
  0.00000000E+00  0.00000000E+00  0.00000000E+00
  0.00000000E+00  0.00000000E+00  0.00000000E+00
  0.00000000E+00  0.00000000E+00  0.00000000E+00
  0.00000000E+00  0.00000000E+00  0.00000000E+00
  0.00000000E+00  0.00000000E+00  0.00000000E+00
  0.00000000E+00  0.00000000E+00  0.00000000E+00
  0.00000000E+00  0.00000000E+00  0.00000000E+00
  0.00000000E+00  0.00000000E+00  0.00000000E+00
  0.00000000E+00  0.00000000E+00  0.00000000E+00
  0.00000000E+00  0.00000000E+00  0.00000000E+00
  0.00000000E+00  0.00000000E+00  0.00000000E+00
  0.00000000E+00  0.00000000E+00  0.00000000E+00
  0.00000000E+00  0.00000000E+00  0.00000000E+00
  0.00000000E+00  0.00000000E+00  0.00000000E+00
  0.00000000E+00  0.00000000E+00  0.00000000E+00
  0.00000000E+00  0.00000000E+00  0.00000000E+00
  0.00000000E+00  0.00000000E+00  0.00000000E+00
  0.00000000E+00  0.00000000E+00  0.00000000E+00
  0.00000000E+00  0.00000000E+00  0.00000000E+00
  0.00000000E+00  0.00000000E+00  0.00000000E+00
  0.00000000E+00  0.00000000E+00  0.00000000E+00
  0.00000000E+00  0.00000000E+00  0.00000000E+00
  0.00000000E+00  0.00000000E+00  0.00000000E+00
  0.00000000E+00  0.00000000E+00  0.00000000E+00
  0.00000000E+00  0.00000000E+00  0.00000000E+00
  0.00000000E+00  0.00000000E+00  0.00000000E+00
  0.00000000E+00  0.00000000E+00  0.00000000E+00
  0.00000000E+00  0.00000000E+00  0.00000000E+00
  0.00000000E+00  0.00000000E+00  0.00000000E+00
  0.00000000E+00  0.00000000E+00  0.00000000E+00
  0.00000000E+00  0.00000000E+00  0.00000000E+00
  0.00000000E+00  0.00000000E+00  0.00000000E+00
