Au48 C6 Br2 H4                          
    1.000000000000000     
    11.7981856999999994    0.0000000000000000    0.0000000000000000
     0.0000000000000000   16.6851543000000007    0.0000000000000000
     0.0000000000000000    0.0000000000000000   15.8925878300000001
   Au   C    Br   H 
    48     6     2     4
Selective dynamics
Direct
  0.9999123884719481  0.2499308904858211  0.4054820132866084   T   T   T
  0.0000014549266680  0.5000000025469333  0.4054165237508087   T   T   T
  0.0000883804357485  0.7500680951753793  0.4054815028867651   T   T   T
  0.9999991412111200  0.0000008977270980  0.4054532988810990   T   T   T
  0.2495231381026883  0.2497202336279045  0.4048643100369205   T   T   T
  0.2498967941494712  0.4999437730581207  0.4055995961955716   T   T   T
  0.2500329031035520  0.7499618571133126  0.4057816259699010   T   T   T
  0.2499916279625793  0.9999756280001151  0.4055089184885574   T   T   T
  0.5003092379879774  0.2498160149645443  0.4054268893844437   T   T   T
  0.4999917483540983  0.5000203653453923  0.4058245158674580   T   T   T
  0.4996853428766741  0.7501614017595770  0.4054132780044029   T   T   T
  0.5000035204122355  0.0000036100636862  0.4055668585613930   T   T   T
  0.7499778585620263  0.2500191506965521  0.4057902322285543   T   T   T
  0.7501108849761806  0.5000762914468453  0.4056078289286091   T   T   T
  0.7504714263701899  0.7502749562798101  0.4048583277956936   T   T   T
  0.7500056587885453  0.0000287919106583  0.4055048406566399   T   T   T
  0.1252624207144848  0.1251395470829380  0.4964635832623472   T   T   T
  0.1231765822838327  0.3750798742738155  0.4963229222854508   T   T   T
  0.1252038047721982  0.6248276308534173  0.4967833991990105   T   T   T
  0.1249871719060778  0.8750923789568930  0.4964576796431714   T   T   T
  0.3749233142080541  0.1252323322790758  0.4965209872408636   T   T   T
  0.3743785441974836  0.3744866804530673  0.4945415874981691   T   T   T
  0.3740096994471500  0.6246092642288943  0.4963320377966269   T   T   T
  0.3751943452430169  0.8749148161788725  0.4964876810339334   T   T   T
  0.6248068859994902  0.1250860139607397  0.4964839274847748   T   T   T
  0.6259919914477123  0.3753881958433283  0.4963305859220526   T   T   T
  0.6256243268612494  0.6255114530263626  0.4945357105435306   T   T   T
  0.6250757901368544  0.8747679267619475  0.4965211319447107   T   T   T
  0.8750135349929238  0.1249078513915265  0.4964555470109460   T   T   T
  0.8747927680201499  0.3751724466349629  0.4967838405041505   T   T   T
  0.8768306103076426  0.6249195801030609  0.4963211107966643   T   T   T
  0.8747364107245090  0.8748606846350242  0.4964646254839380   T   T   T
  0.1250000006356942  0.1249999995504965  0.3146120728407524   F   F   F
  0.1250000006356942  0.3749999992508322  0.3146120728407524   F   F   F
  0.1250000006356942  0.6249999983518251  0.3146120728407524   F   F   F
  0.1250000006356942  0.8749999974528251  0.3146120728407524   F   F   F
  0.3750000002118981  0.1249999995504965  0.3146120728407524   F   F   F
  0.3750000002118981  0.3749999992508322  0.3146120728407524   F   F   F
  0.3750000010594832  0.6249999983518251  0.3146120728407524   F   F   F
  0.3750000010594832  0.8749999974528251  0.3146120728407524   F   F   F
  0.6250000006356942  0.1249999995504965  0.3146120728407524   F   F   F
  0.6250000006356942  0.3749999992508322  0.3146120728407524   F   F   F
  0.6250000014832793  0.6249999983518251  0.3146120728407524   F   F   F
  0.6250000006356942  0.8749999974528251  0.3146120728407524   F   F   F
  0.8750000010594832  0.1249999995504965  0.3146120728407524   F   F   F
  0.8750000010594832  0.3749999992508322  0.3146120728407524   F   F   F
  0.8750000019070754  0.6249999983518251  0.3146120728407524   F   F   F
  0.8750000010594832  0.8749999974528251  0.3146120728407524   F   F   F
  0.5674826830088691  0.5672278521784051  0.6862695099036316   T   T   T
  0.6185847230411525  0.4919946168338072  0.6856774871215521   T   T   T
  0.5501529331649877  0.4236833268731601  0.6857187319582465   T   T   T
  0.4325197149101072  0.4327750802977590  0.6863034481285197   T   T   T
  0.3814151474566359  0.5080066978610276  0.6856982197127479   T   T   T
  0.4498442834255485  0.5763189244230347  0.6857007780338336   T   T   T
  0.6607470984150865  0.6606588686195565  0.6844969365852052   T   T   T
  0.3392576271023273  0.3393437425744139  0.6845746987011552   T   T   T
  0.7106080870215692  0.4859821977565062  0.6844209043755001   T   T   T
  0.5886024021149083  0.3642676705594710  0.6855589789593282   T   T   T
  0.2893924627978990  0.5140172323757426  0.6844585146597524   T   T   T
  0.4113956836295571  0.6357322411259858  0.6855298904071816   T   T   T
 
  0.00000000E+00  0.00000000E+00  0.00000000E+00
  0.00000000E+00  0.00000000E+00  0.00000000E+00
  0.00000000E+00  0.00000000E+00  0.00000000E+00
  0.00000000E+00  0.00000000E+00  0.00000000E+00
  0.00000000E+00  0.00000000E+00  0.00000000E+00
  0.00000000E+00  0.00000000E+00  0.00000000E+00
  0.00000000E+00  0.00000000E+00  0.00000000E+00
  0.00000000E+00  0.00000000E+00  0.00000000E+00
  0.00000000E+00  0.00000000E+00  0.00000000E+00
  0.00000000E+00  0.00000000E+00  0.00000000E+00
  0.00000000E+00  0.00000000E+00  0.00000000E+00
  0.00000000E+00  0.00000000E+00  0.00000000E+00
  0.00000000E+00  0.00000000E+00  0.00000000E+00
  0.00000000E+00  0.00000000E+00  0.00000000E+00
  0.00000000E+00  0.00000000E+00  0.00000000E+00
  0.00000000E+00  0.00000000E+00  0.00000000E+00
  0.00000000E+00  0.00000000E+00  0.00000000E+00
  0.00000000E+00  0.00000000E+00  0.00000000E+00
  0.00000000E+00  0.00000000E+00  0.00000000E+00
  0.00000000E+00  0.00000000E+00  0.00000000E+00
  0.00000000E+00  0.00000000E+00  0.00000000E+00
  0.00000000E+00  0.00000000E+00  0.00000000E+00
  0.00000000E+00  0.00000000E+00  0.00000000E+00
  0.00000000E+00  0.00000000E+00  0.00000000E+00
  0.00000000E+00  0.00000000E+00  0.00000000E+00
  0.00000000E+00  0.00000000E+00  0.00000000E+00
  0.00000000E+00  0.00000000E+00  0.00000000E+00
  0.00000000E+00  0.00000000E+00  0.00000000E+00
  0.00000000E+00  0.00000000E+00  0.00000000E+00
  0.00000000E+00  0.00000000E+00  0.00000000E+00
  0.00000000E+00  0.00000000E+00  0.00000000E+00
  0.00000000E+00  0.00000000E+00  0.00000000E+00
  0.00000000E+00  0.00000000E+00  0.00000000E+00
  0.00000000E+00  0.00000000E+00  0.00000000E+00
  0.00000000E+00  0.00000000E+00  0.00000000E+00
  0.00000000E+00  0.00000000E+00  0.00000000E+00
  0.00000000E+00  0.00000000E+00  0.00000000E+00
  0.00000000E+00  0.00000000E+00  0.00000000E+00
  0.00000000E+00  0.00000000E+00  0.00000000E+00
  0.00000000E+00  0.00000000E+00  0.00000000E+00
  0.00000000E+00  0.00000000E+00  0.00000000E+00
  0.00000000E+00  0.00000000E+00  0.00000000E+00
  0.00000000E+00  0.00000000E+00  0.00000000E+00
  0.00000000E+00  0.00000000E+00  0.00000000E+00
  0.00000000E+00  0.00000000E+00  0.00000000E+00
  0.00000000E+00  0.00000000E+00  0.00000000E+00
  0.00000000E+00  0.00000000E+00  0.00000000E+00
  0.00000000E+00  0.00000000E+00  0.00000000E+00
  0.00000000E+00  0.00000000E+00  0.00000000E+00
  0.00000000E+00  0.00000000E+00  0.00000000E+00
  0.00000000E+00  0.00000000E+00  0.00000000E+00
  0.00000000E+00  0.00000000E+00  0.00000000E+00
  0.00000000E+00  0.00000000E+00  0.00000000E+00
  0.00000000E+00  0.00000000E+00  0.00000000E+00
  0.00000000E+00  0.00000000E+00  0.00000000E+00
  0.00000000E+00  0.00000000E+00  0.00000000E+00
  0.00000000E+00  0.00000000E+00  0.00000000E+00
  0.00000000E+00  0.00000000E+00  0.00000000E+00
  0.00000000E+00  0.00000000E+00  0.00000000E+00
  0.00000000E+00  0.00000000E+00  0.00000000E+00
