Ir  C  H Cl                             
   1.00000000000000     
    10.9622130000000002    0.0000000000000000    0.0000000000000000
    -5.4811069999999997    9.4935550000000006    0.0000000000000000
     0.0000000000000000    0.0000000000000000   24.7129573799999989
   Ir   C    H    Cl
    64     6     4     2
Selective dynamics
Direct
  0.7500000643925233  0.7500000284403470  0.3034845196661777   F   F   F
  0.0000000000000000  0.0000000000000000  0.3034845196661777   F   F   F
  0.0000000102134052  0.2500000094801180  0.3034845196661777   F   F   F
  0.0000000213390337  0.5000000189602289  0.3034845196661777   F   F   F
  0.0000000753392229  0.7500000284403470  0.3034845196661777   F   F   F
  0.2500000109466924  0.0000000000000000  0.3034845196661777   F   F   F
  0.2500000211600977  0.2500000094801180  0.3034845196661777   F   F   F
  0.2500000322857332  0.5000000189602289  0.3034845196661777   F   F   F
  0.5000000218933920  0.0000000000000000  0.3034845196661777   F   F   F
  0.5000000321067972  0.2500000094801180  0.3034845196661777   F   F   F
  0.5000000432324256  0.5000000189602289  0.3034845196661777   F   F   F
  0.5000000534458309  0.7500000284403470  0.3034845196661777   F   F   F
  0.7500000328400844  0.0000000000000000  0.3034845196661777   F   F   F
  0.7500000430534897  0.2500000094801180  0.3034845196661777   F   F   F
  0.7500000541791181  0.5000000189602289  0.3034845196661777   F   F   F
  0.2500000424991384  0.7500000284403470  0.3034845196661777   F   F   F
  0.0833330000000032  0.1666669999999968  0.3940302372665698   F   F   F
  0.0833330000000032  0.4166669999999968  0.3940302372665698   F   F   F
  0.0833330000000032  0.6666669999999968  0.3940302372665698   F   F   F
  0.0833330000000032  0.9166669999999968  0.3940302372665698   F   F   F
  0.3333330000000032  0.1666669999999968  0.3940302372665698   F   F   F
  0.3333330000000032  0.4166669999999968  0.3940302372665698   F   F   F
  0.3333330000000032  0.6666669999999968  0.3940302372665698   F   F   F
  0.3333330000000032  0.9166669999999968  0.3940302372665698   F   F   F
  0.5833330000000032  0.1666669999999968  0.3940302372665698   F   F   F
  0.5833330000000032  0.4166669999999968  0.3940302372665698   F   F   F
  0.5833330000000032  0.6666669999999968  0.3940302372665698   F   F   F
  0.5833330000000032  0.9166669999999968  0.3940302372665698   F   F   F
  0.8333330000000032  0.1666669999999968  0.3940302372665698   F   F   F
  0.8333330000000032  0.4166669999999968  0.3940302372665698   F   F   F
  0.8333330000000032  0.6666669999999968  0.3940302372665698   F   F   F
  0.8333330000000032  0.9166669999999968  0.3940302372665698   F   F   F
  0.9994910261119292 -0.0000497760798986  0.5729885535122929   T   T   T
  0.9993357794041738  0.2498576687398061  0.5728789572673465   T   T   T
  0.9993920695758062  0.5001053881716877  0.5725738453176268   T   T   T
 -0.0000848769148823  0.7501171257304188  0.5729901749715097   T   T   T
  0.2499646710966381 -0.0001215886656771  0.5728951614282881   T   T   T
  0.2494786281283284  0.2495778711724348  0.5735326810089338   T   T   T
  0.2494392986382606  0.5007881862499368  0.5723970582708080   T   T   T
  0.2502073668043419  0.7504019839694952  0.5728349829053823   T   T   T
  0.4999279873024255 -0.0000026604882561  0.5727071530295806   T   T   T
  0.5004760410545457  0.2495603359518444  0.5724905332255622   T   T   T
  0.5002358625661709  0.5004524152501076  0.5735906075015794   T   T   T
  0.5001756600855549  0.7508671997669558  0.5729191354555224   T   T   T
  0.7501046678726869  0.0001714643812943  0.5730746055235898   T   T   T
  0.7502467827009116  0.2501404768280756  0.5729537918283719   T   T   T
  0.7504605995122042  0.5003433497200300  0.5728838640508079   T   T   T
  0.7502123172609687  0.7502066922390905  0.5730975608571377   T   T   T
  0.1665099462770545  0.0832625270837788  0.4834763025200339   T   T   T
  0.1667222133746676  0.3333112314078577  0.4836862714262128   T   T   T
  0.1666613377783827  0.5835820060728767  0.4831463815948157   T   T   T
  0.1665077858132961  0.8333151713844784  0.4835231065530157   T   T   T
  0.4166078061867974  0.0834021136807143  0.4832228454701751   T   T   T
  0.4164760127111349  0.3334940722798397  0.4838223361883580   T   T   T
  0.4168270686731030  0.5833518524047793  0.4835884162227450   T   T   T
  0.4167357392307121  0.8333907940063321  0.4832655647170764   T   T   T
  0.6668011908475399  0.0835369420748499  0.4834669984375641   T   T   T
  0.6669503746531955  0.3336964066947289  0.4834367986789032   T   T   T
  0.6667710786745997  0.5835116857116271  0.4835355553625478   T   T   T
  0.6669941526994848  0.8335149546758130  0.4836402902607529   T   T   T
  0.9167454330904224  0.0833718084435658  0.4833573070493197   T   T   T
  0.9168436184640161  0.3334695213537915  0.4832647974650826   T   T   T
  0.9167395311445783  0.5836122566335642  0.4832394780283673   T   T   T
  0.9167920958391760  0.8334196361814723  0.4833299585712773   T   T   T
  0.3011618703360069  0.4472110576480171  0.7004612454179239   T   T   T
  0.4483109090210538  0.5217373554738166  0.6977722681438981   T   T   T
  0.5220955576902578  0.4479682909785692  0.6979149568273585   T   T   T
  0.4476787221342545  0.3008543333974933  0.7007125687871962   T   T   T
  0.3005911311915547  0.2263625589447078  0.6978501941657617   T   T   T
  0.2267469508770311  0.3000772707680353  0.6977370034061400   T   T   T
  0.5055285741999013  0.6364607705719911  0.6966624708148202   T   T   T
  0.6368398568822626  0.5052610637044771  0.6968485812788001   T   T   T
  0.2434737513925052  0.1116500442441141  0.6967825541488957   T   T   T
  0.1119636868725806  0.2430771860089580  0.6965937838652372   T   T   T
  0.2099251898966847  0.5375398513139678  0.7051321191991178   T   T   T
  0.5382368212200815  0.2100269850528527  0.7062172889592652   T   T   T
 
  0.00000000E+00  0.00000000E+00  0.00000000E+00
  0.00000000E+00  0.00000000E+00  0.00000000E+00
  0.00000000E+00  0.00000000E+00  0.00000000E+00
  0.00000000E+00  0.00000000E+00  0.00000000E+00
  0.00000000E+00  0.00000000E+00  0.00000000E+00
  0.00000000E+00  0.00000000E+00  0.00000000E+00
  0.00000000E+00  0.00000000E+00  0.00000000E+00
  0.00000000E+00  0.00000000E+00  0.00000000E+00
  0.00000000E+00  0.00000000E+00  0.00000000E+00
  0.00000000E+00  0.00000000E+00  0.00000000E+00
  0.00000000E+00  0.00000000E+00  0.00000000E+00
  0.00000000E+00  0.00000000E+00  0.00000000E+00
  0.00000000E+00  0.00000000E+00  0.00000000E+00
  0.00000000E+00  0.00000000E+00  0.00000000E+00
  0.00000000E+00  0.00000000E+00  0.00000000E+00
  0.00000000E+00  0.00000000E+00  0.00000000E+00
  0.00000000E+00  0.00000000E+00  0.00000000E+00
  0.00000000E+00  0.00000000E+00  0.00000000E+00
  0.00000000E+00  0.00000000E+00  0.00000000E+00
  0.00000000E+00  0.00000000E+00  0.00000000E+00
  0.00000000E+00  0.00000000E+00  0.00000000E+00
  0.00000000E+00  0.00000000E+00  0.00000000E+00
  0.00000000E+00  0.00000000E+00  0.00000000E+00
  0.00000000E+00  0.00000000E+00  0.00000000E+00
  0.00000000E+00  0.00000000E+00  0.00000000E+00
  0.00000000E+00  0.00000000E+00  0.00000000E+00
  0.00000000E+00  0.00000000E+00  0.00000000E+00
  0.00000000E+00  0.00000000E+00  0.00000000E+00
  0.00000000E+00  0.00000000E+00  0.00000000E+00
  0.00000000E+00  0.00000000E+00  0.00000000E+00
  0.00000000E+00  0.00000000E+00  0.00000000E+00
  0.00000000E+00  0.00000000E+00  0.00000000E+00
  0.00000000E+00  0.00000000E+00  0.00000000E+00
  0.00000000E+00  0.00000000E+00  0.00000000E+00
  0.00000000E+00  0.00000000E+00  0.00000000E+00
  0.00000000E+00  0.00000000E+00  0.00000000E+00
  0.00000000E+00  0.00000000E+00  0.00000000E+00
  0.00000000E+00  0.00000000E+00  0.00000000E+00
  0.00000000E+00  0.00000000E+00  0.00000000E+00
  0.00000000E+00  0.00000000E+00  0.00000000E+00
  0.00000000E+00  0.00000000E+00  0.00000000E+00
  0.00000000E+00  0.00000000E+00  0.00000000E+00
  0.00000000E+00  0.00000000E+00  0.00000000E+00
  0.00000000E+00  0.00000000E+00  0.00000000E+00
  0.00000000E+00  0.00000000E+00  0.00000000E+00
  0.00000000E+00  0.00000000E+00  0.00000000E+00
  0.00000000E+00  0.00000000E+00  0.00000000E+00
  0.00000000E+00  0.00000000E+00  0.00000000E+00
  0.00000000E+00  0.00000000E+00  0.00000000E+00
  0.00000000E+00  0.00000000E+00  0.00000000E+00
  0.00000000E+00  0.00000000E+00  0.00000000E+00
  0.00000000E+00  0.00000000E+00  0.00000000E+00
  0.00000000E+00  0.00000000E+00  0.00000000E+00
  0.00000000E+00  0.00000000E+00  0.00000000E+00
  0.00000000E+00  0.00000000E+00  0.00000000E+00
  0.00000000E+00  0.00000000E+00  0.00000000E+00
  0.00000000E+00  0.00000000E+00  0.00000000E+00
  0.00000000E+00  0.00000000E+00  0.00000000E+00
  0.00000000E+00  0.00000000E+00  0.00000000E+00
  0.00000000E+00  0.00000000E+00  0.00000000E+00
  0.00000000E+00  0.00000000E+00  0.00000000E+00
  0.00000000E+00  0.00000000E+00  0.00000000E+00
  0.00000000E+00  0.00000000E+00  0.00000000E+00
  0.00000000E+00  0.00000000E+00  0.00000000E+00
  0.00000000E+00  0.00000000E+00  0.00000000E+00
  0.00000000E+00  0.00000000E+00  0.00000000E+00
  0.00000000E+00  0.00000000E+00  0.00000000E+00
  0.00000000E+00  0.00000000E+00  0.00000000E+00
  0.00000000E+00  0.00000000E+00  0.00000000E+00
  0.00000000E+00  0.00000000E+00  0.00000000E+00
  0.00000000E+00  0.00000000E+00  0.00000000E+00
  0.00000000E+00  0.00000000E+00  0.00000000E+00
  0.00000000E+00  0.00000000E+00  0.00000000E+00
  0.00000000E+00  0.00000000E+00  0.00000000E+00
  0.00000000E+00  0.00000000E+00  0.00000000E+00
  0.00000000E+00  0.00000000E+00  0.00000000E+00
