Au  C  H  F                             
   1.00000000000000     
    11.7981859999999994    0.0000000000000000    0.0000000000000000
    -5.8990929999999997   10.2175279999999997    0.0000000000000000
     0.0000000000000000    0.0000000000000000   25.2248836799999978
   Au   C    H    F 
    64     6     4     2
Selective dynamics
Direct
  0.9999999981222629  0.7500000352335690  0.2973254543071064   F   F   F
  0.2499999923717056  0.0000000000000000  0.2973254543071064   F   F   F
  0.2500000016343193  0.2500000117445254  0.2973254543071064   F   F   F
  0.2500000117445254  0.5000000234890507  0.2973254543071064   F   F   F
  0.2500000210071391  0.7500000352335690  0.2973254543071064   F   F   F
  0.4999999847434182  0.0000000000000000  0.2973254543071064   F   F   F
  0.4999999940060320  0.2500000117445254  0.2973254543071064   F   F   F
  0.5000000041162309  0.5000000234890507  0.2973254543071064   F   F   F
  0.7499999771151238  0.0000000000000000  0.2973254543071064   F   F   F
  0.7499999863777376  0.2500000117445254  0.2973254543071064   F   F   F
  0.7499999964879436  0.5000000234890507  0.2973254543071064   F   F   F
  0.7500000057505574  0.7500000352335690  0.2973254543071064   F   F   F
  0.9999999694868364  0.0000000000000000  0.2973254543071064   F   F   F
  0.0000000092626138  0.2500000117445254  0.2973254543071064   F   F   F
  0.9999999888596491  0.5000000234890507  0.2973254543071064   F   F   F
  0.5000000133788447  0.7500000352335690  0.2973254543071064   F   F   F
  0.0833330000000032  0.1666669999999968  0.3927984241947584   F   F   F
  0.0833330000000032  0.4166669999999968  0.3927984241947584   F   F   F
  0.0833330000000032  0.6666669999999968  0.3927984241947584   F   F   F
  0.0833330000000032  0.9166669999999968  0.3927984241947584   F   F   F
  0.3333330000000032  0.1666669999999968  0.3927984241947584   F   F   F
  0.3333330000000032  0.4166669999999968  0.3927984241947584   F   F   F
  0.3333330000000032  0.6666669999999968  0.3927984241947584   F   F   F
  0.3333330000000032  0.9166669999999968  0.3927984241947584   F   F   F
  0.5833330000000032  0.1666669999999968  0.3927984241947584   F   F   F
  0.5833330000000032  0.4166669999999968  0.3927984241947584   F   F   F
  0.5833330000000032  0.6666669999999968  0.3927984241947584   F   F   F
  0.5833330000000032  0.9166669999999968  0.3927984241947584   F   F   F
  0.8333330000000032  0.1666669999999968  0.3927984241947584   F   F   F
  0.8333330000000032  0.4166669999999968  0.3927984241947584   F   F   F
  0.8333330000000032  0.6666669999999968  0.3927984241947584   F   F   F
  0.8333330000000032  0.9166669999999968  0.3927984241947584   F   F   F
  0.2490420333440697  0.2483908502678262  0.5833133661111314   T   T   T
  0.2484730985344968  0.4991457828492822  0.5832406349908547   T   T   T
  0.2499881188870521  0.7500194977857827  0.5849574592138559   T   T   T
  0.2499794191635982  0.0000122397127166  0.5849608408519966   T   T   T
  0.5000612364984213  0.2499058485811082  0.5843620273112359   T   T   T
  0.4994030685002655  0.4994692577904442  0.5810367061525074   T   T   T
  0.4998381129876852  0.7501013304361974  0.5808511329207942   T   T   T
  0.5000655190498501  0.0000320697742135  0.5844362939447133   T   T   T
  0.7499776921900932  0.2500306831708593  0.5849293079727923   T   T   T
  0.7501791048923303  0.4998379299971565  0.5808417843605700   T   T   T
  0.7502363486428177  0.7503017451078269  0.5809883846577749   T   T   T
  0.7500224256116818  0.0000777155401533  0.5843652621144769   T   T   T
 -0.0000722893460028  0.2499576911879206  0.5849993915559001   T   T   T
 -0.0000490487354113  0.5000853577344994  0.5844056316871574   T   T   T
  0.0000939594252025  0.7499356674438666  0.5843663509674342   T   T   T
  0.0000924771005257  0.0000883965991761  0.5844270528226868   T   T   T
  0.1667130838547982  0.0832314969550655  0.4864259142915676   T   T   T
  0.1664039872285129  0.3320998043064304  0.4878238262079171   T   T   T
  0.1674848161769934  0.5849027105661068  0.4879375820906894   T   T   T
  0.1671643078029353  0.8347729309349019  0.4879729495413532   T   T   T
  0.4174681429049814  0.0828520445277854  0.4879275867593140   T   T   T
  0.4163967211398666  0.3316638337799440  0.4874223516019300   T   T   T
  0.4161590159732279  0.5830443656393743  0.4862478143423888   T   T   T
  0.4164617291587518  0.8348281940955555  0.4871651388542492   T   T   T
  0.6681111420919567  0.0847236815249911  0.4879452601234406   T   T   T
  0.6666184232562506  0.3330680169842635  0.4863983423842536   T   T   T
  0.6668701871112809  0.5836202305443963  0.4862027160545894   T   T   T
  0.6669913381902826  0.8339297137652096  0.4861885681510788   T   T   T
  0.9174517921373970  0.0848331791754049  0.4879852135578577   T   T   T
  0.9180654192096848  0.3347217473279437  0.4879695619260057   T   T   T
  0.9172063481936350  0.5837264501065047  0.4862959911389897   T   T   T
  0.9181930003293017  0.8348051270084472  0.4878550394763300   T   T   T
  0.6909374323353269  0.5536548938743647  0.6980243457036808   T   T   T
  0.5548539710113137  0.4840750728119751  0.6961796464907605   T   T   T
  0.4873698068474785  0.5537725251676084  0.6960592609558556   T   T   T
  0.5593027435805943  0.6898265689498135  0.6978754614712112   T   T   T
  0.6953931307939684  0.7594319002151592  0.6961735419957944   T   T   T
  0.7628403567956462  0.6897079114071694  0.6963075234030350   T   T   T
  0.5026396619564039  0.3775293689996742  0.6942844385180075   T   T   T
  0.3808437560405650  0.5032190418696445  0.6941674904952385   T   T   T
  0.7476767391951193  0.8660139077607145  0.6943871728187966   T   T   T
  0.8693456455574230  0.7402432836038741  0.6944331451219532   T   T   T
  0.7564370740734360  0.4858000970806473  0.6995540585486975   T   T   T
  0.4938576650057199  0.7577504397646017  0.6992853177926575   T   T   T
 
  0.00000000E+00  0.00000000E+00  0.00000000E+00
  0.00000000E+00  0.00000000E+00  0.00000000E+00
  0.00000000E+00  0.00000000E+00  0.00000000E+00
  0.00000000E+00  0.00000000E+00  0.00000000E+00
  0.00000000E+00  0.00000000E+00  0.00000000E+00
  0.00000000E+00  0.00000000E+00  0.00000000E+00
  0.00000000E+00  0.00000000E+00  0.00000000E+00
  0.00000000E+00  0.00000000E+00  0.00000000E+00
  0.00000000E+00  0.00000000E+00  0.00000000E+00
  0.00000000E+00  0.00000000E+00  0.00000000E+00
  0.00000000E+00  0.00000000E+00  0.00000000E+00
  0.00000000E+00  0.00000000E+00  0.00000000E+00
  0.00000000E+00  0.00000000E+00  0.00000000E+00
  0.00000000E+00  0.00000000E+00  0.00000000E+00
  0.00000000E+00  0.00000000E+00  0.00000000E+00
  0.00000000E+00  0.00000000E+00  0.00000000E+00
  0.00000000E+00  0.00000000E+00  0.00000000E+00
  0.00000000E+00  0.00000000E+00  0.00000000E+00
  0.00000000E+00  0.00000000E+00  0.00000000E+00
  0.00000000E+00  0.00000000E+00  0.00000000E+00
  0.00000000E+00  0.00000000E+00  0.00000000E+00
  0.00000000E+00  0.00000000E+00  0.00000000E+00
  0.00000000E+00  0.00000000E+00  0.00000000E+00
  0.00000000E+00  0.00000000E+00  0.00000000E+00
  0.00000000E+00  0.00000000E+00  0.00000000E+00
  0.00000000E+00  0.00000000E+00  0.00000000E+00
  0.00000000E+00  0.00000000E+00  0.00000000E+00
  0.00000000E+00  0.00000000E+00  0.00000000E+00
  0.00000000E+00  0.00000000E+00  0.00000000E+00
  0.00000000E+00  0.00000000E+00  0.00000000E+00
  0.00000000E+00  0.00000000E+00  0.00000000E+00
  0.00000000E+00  0.00000000E+00  0.00000000E+00
  0.00000000E+00  0.00000000E+00  0.00000000E+00
  0.00000000E+00  0.00000000E+00  0.00000000E+00
  0.00000000E+00  0.00000000E+00  0.00000000E+00
  0.00000000E+00  0.00000000E+00  0.00000000E+00
  0.00000000E+00  0.00000000E+00  0.00000000E+00
  0.00000000E+00  0.00000000E+00  0.00000000E+00
  0.00000000E+00  0.00000000E+00  0.00000000E+00
  0.00000000E+00  0.00000000E+00  0.00000000E+00
  0.00000000E+00  0.00000000E+00  0.00000000E+00
  0.00000000E+00  0.00000000E+00  0.00000000E+00
  0.00000000E+00  0.00000000E+00  0.00000000E+00
  0.00000000E+00  0.00000000E+00  0.00000000E+00
  0.00000000E+00  0.00000000E+00  0.00000000E+00
  0.00000000E+00  0.00000000E+00  0.00000000E+00
  0.00000000E+00  0.00000000E+00  0.00000000E+00
  0.00000000E+00  0.00000000E+00  0.00000000E+00
  0.00000000E+00  0.00000000E+00  0.00000000E+00
  0.00000000E+00  0.00000000E+00  0.00000000E+00
  0.00000000E+00  0.00000000E+00  0.00000000E+00
  0.00000000E+00  0.00000000E+00  0.00000000E+00
  0.00000000E+00  0.00000000E+00  0.00000000E+00
  0.00000000E+00  0.00000000E+00  0.00000000E+00
  0.00000000E+00  0.00000000E+00  0.00000000E+00
  0.00000000E+00  0.00000000E+00  0.00000000E+00
  0.00000000E+00  0.00000000E+00  0.00000000E+00
  0.00000000E+00  0.00000000E+00  0.00000000E+00
  0.00000000E+00  0.00000000E+00  0.00000000E+00
  0.00000000E+00  0.00000000E+00  0.00000000E+00
  0.00000000E+00  0.00000000E+00  0.00000000E+00
  0.00000000E+00  0.00000000E+00  0.00000000E+00
  0.00000000E+00  0.00000000E+00  0.00000000E+00
  0.00000000E+00  0.00000000E+00  0.00000000E+00
  0.00000000E+00  0.00000000E+00  0.00000000E+00
  0.00000000E+00  0.00000000E+00  0.00000000E+00
  0.00000000E+00  0.00000000E+00  0.00000000E+00
  0.00000000E+00  0.00000000E+00  0.00000000E+00
  0.00000000E+00  0.00000000E+00  0.00000000E+00
  0.00000000E+00  0.00000000E+00  0.00000000E+00
  0.00000000E+00  0.00000000E+00  0.00000000E+00
  0.00000000E+00  0.00000000E+00  0.00000000E+00
  0.00000000E+00  0.00000000E+00  0.00000000E+00
  0.00000000E+00  0.00000000E+00  0.00000000E+00
  0.00000000E+00  0.00000000E+00  0.00000000E+00
  0.00000000E+00  0.00000000E+00  0.00000000E+00
