Pt  C  H  F                             
    1.000000000000000     
    11.2480068000000006    0.0000000000000000    0.0000000000000000
     0.0000000000000000   11.2480068000000006    0.0000000000000000
     0.0000000000000000    0.0000000000000000   23.9651564400000012
   Pt   C    H    F 
    64     6     2     4
Selective dynamics
Direct
  0.2500000008890453  0.0000000000000000  0.3129543518222917   F   F   F
  0.0000000000000000  0.5000000017780906  0.3129543518222917   F   F   F
  0.2500000008890453  0.2500000008890453  0.3129543518222917   F   F   F
  0.2500000008890453  0.5000000017780906  0.3129543518222917   F   F   F
  0.2500000008890453  0.7500000026671358  0.3129543518222917   F   F   F
  0.5000000017780906  0.0000000000000000  0.3129543518222917   F   F   F
  0.5000000017780906  0.2500000008890453  0.3129543518222917   F   F   F
  0.0000000000000000  0.7500000026671358  0.3129543518222917   F   F   F
  0.5000000017780906  0.5000000017780906  0.3129543518222917   F   F   F
  0.5000000017780906  0.7500000026671358  0.3129543518222917   F   F   F
  0.7500000026671358  0.0000000000000000  0.3129543518222917   F   F   F
  0.7500000026671358  0.2500000008890453  0.3129543518222917   F   F   F
  0.7500000026671358  0.5000000017780906  0.3129543518222917   F   F   F
  0.7500000026671358  0.7500000026671358  0.3129543518222917   F   F   F
  0.0000000000000000  0.0000000000000000  0.3129543518222917   F   F   F
  0.0000000000000000  0.2500000008890453  0.3129543518222917   F   F   F
  0.2498394732042369  0.9982553793273919  0.4775675288073939   T   T   T
  0.2507849249664569  0.2507804907699948  0.4774988248055753   T   T   T
  0.2537085337044955  0.5010265660598986  0.4795008508100835   T   T   T
  0.2537286064805050  0.7462681396181238  0.4799946040636844   T   T   T
  0.4999891647283470 -0.0000027853497315  0.4775504960720212   T   T   T
  0.5010258799425225  0.2537148026844087  0.4795028436872233   T   T   T
  0.4999996602292212  0.4999957065662921  0.4806353163294953   T   T   T
  0.4989603945428821  0.7462861139141571  0.4795046035417497   T   T   T
  0.7501584504910385  0.0017441115753794  0.4775594786006175   T   T   T
  0.7462605605259822  0.2537361831427370  0.4799920899931120   T   T   T
  0.7462843334345803  0.4989709073416368  0.4794977785517779   T   T   T
  0.7492097189595767  0.7492144340822422  0.4774959378265811   T   T   T
  0.0000055503461940 -0.0000025104719166  0.4776331096111181   T   T   T
  0.9982577135611990  0.2498375106207664  0.4775618628531426   T   T   T
  0.0000033808839779  0.4999975982286929  0.4775460695982851   T   T   T
  0.0017413239760869  0.7501576492847700  0.4775602392052666   T   T   T
  0.1243806118204226  0.1243825550586809  0.5589995900481345   T   T   T
  0.1226282147449719  0.3740033742320715  0.5592953586149911   T   T   T
  0.1238711307340030  0.6240355503636611  0.5600488599785978   T   T   T
  0.1251056019632166  0.8748778830196415  0.5598566384444709   T   T   T
  0.3740061906961056  0.1226246299774999  0.5593021769647671   T   T   T
  0.3669402292657009  0.3669358244699911  0.5629873025170379   T   T   T
  0.3748960125272455  0.6250955405274631  0.5704321506096086   T   T   T
  0.3759573684738315  0.8761196461121524  0.5600630247315751   T   T   T
  0.6240342093029788  0.1238640506229064  0.5600492204931603   T   T   T
  0.6251029956664710  0.3748959096891386  0.5704330754764799   T   T   T
  0.6330482923837617  0.6330486886460082  0.5629884985873996   T   T   T
  0.6259953739948133  0.8773645536742599  0.5592986299062620   T   T   T
  0.8748815990470536  0.1251091651569070  0.5598526672452726   T   T   T
  0.8761251980869671  0.3759637546414445  0.5600456396436352   T   T   T
  0.8773612705806659  0.6259945569194455  0.5592920978455889   T   T   T
  0.8756109852859806  0.8756158726918976  0.5589943049656658   T   T   T
  0.1250000008890453  0.1250000000000000  0.3959242036977884   F   F   F
  0.1250000008890453  0.3750000008890453  0.3959242036977884   F   F   F
  0.1250000008890453  0.6250000026671358  0.3959242036977884   F   F   F
  0.1250000008890453  0.8750000026671358  0.3959242036977884   F   F   F
  0.3750000017780906  0.1250000000000000  0.3959242036977884   F   F   F
  0.3750000017780906  0.3750000008890453  0.3959242036977884   F   F   F
  0.3750000017780906  0.6250000026671358  0.3959242036977884   F   F   F
  0.3750000017780906  0.8750000026671358  0.3959242036977884   F   F   F
  0.6250000026671358  0.1250000000000000  0.3959242036977884   F   F   F
  0.6250000026671358  0.3750000008890453  0.3959242036977884   F   F   F
  0.6250000026671358  0.6250000026671358  0.3959242036977884   F   F   F
  0.6250000026671358  0.8750000026671358  0.3959242036977884   F   F   F
  0.8750000035561882  0.1250000000000000  0.3959242036977884   F   F   F
  0.8750000026671358  0.3750000008890453  0.3959242036977884   F   F   F
  0.8750000035561882  0.6250000026671358  0.3959242036977884   F   F   F
  0.8750000035561882  0.8750000026671358  0.3959242036977884   F   F   F
  0.4062218904354102  0.4062105838343957  0.6453225808169392   T   T   T
  0.3749106857509183  0.5339914350272820  0.6494123987780651   T   T   T
  0.4659857685691758  0.6250860495741443  0.6494168774193684   T   T   T
  0.5937680382476178  0.5937694662732651  0.6453246385968245   T   T   T
  0.6250853632923484  0.4660131456398884  0.6494185283327047   T   T   T
  0.5339877213716013  0.3749101620389206  0.6494140381998201   T   T   T
  0.3501143209793789  0.3501068736474056  0.6720306515880397   T   T   T
  0.6498704519009185  0.6498778206042284  0.6720391263223345   T   T   T
  0.2746088677678529  0.5551692235381825  0.6799852933819249   T   T   T
  0.4447987406898489  0.7253739417396818  0.6799880880653442   T   T   T
  0.7253798793919707  0.4448156701960480  0.6799877003075834   T   T   T
  0.5551780605530231  0.2746123494158009  0.6799879774340093   T   T   T
 
  0.00000000E+00  0.00000000E+00  0.00000000E+00
  0.00000000E+00  0.00000000E+00  0.00000000E+00
  0.00000000E+00  0.00000000E+00  0.00000000E+00
  0.00000000E+00  0.00000000E+00  0.00000000E+00
  0.00000000E+00  0.00000000E+00  0.00000000E+00
  0.00000000E+00  0.00000000E+00  0.00000000E+00
  0.00000000E+00  0.00000000E+00  0.00000000E+00
  0.00000000E+00  0.00000000E+00  0.00000000E+00
  0.00000000E+00  0.00000000E+00  0.00000000E+00
  0.00000000E+00  0.00000000E+00  0.00000000E+00
  0.00000000E+00  0.00000000E+00  0.00000000E+00
  0.00000000E+00  0.00000000E+00  0.00000000E+00
  0.00000000E+00  0.00000000E+00  0.00000000E+00
  0.00000000E+00  0.00000000E+00  0.00000000E+00
  0.00000000E+00  0.00000000E+00  0.00000000E+00
  0.00000000E+00  0.00000000E+00  0.00000000E+00
  0.00000000E+00  0.00000000E+00  0.00000000E+00
  0.00000000E+00  0.00000000E+00  0.00000000E+00
  0.00000000E+00  0.00000000E+00  0.00000000E+00
  0.00000000E+00  0.00000000E+00  0.00000000E+00
  0.00000000E+00  0.00000000E+00  0.00000000E+00
  0.00000000E+00  0.00000000E+00  0.00000000E+00
  0.00000000E+00  0.00000000E+00  0.00000000E+00
  0.00000000E+00  0.00000000E+00  0.00000000E+00
  0.00000000E+00  0.00000000E+00  0.00000000E+00
  0.00000000E+00  0.00000000E+00  0.00000000E+00
  0.00000000E+00  0.00000000E+00  0.00000000E+00
  0.00000000E+00  0.00000000E+00  0.00000000E+00
  0.00000000E+00  0.00000000E+00  0.00000000E+00
  0.00000000E+00  0.00000000E+00  0.00000000E+00
  0.00000000E+00  0.00000000E+00  0.00000000E+00
  0.00000000E+00  0.00000000E+00  0.00000000E+00
  0.00000000E+00  0.00000000E+00  0.00000000E+00
  0.00000000E+00  0.00000000E+00  0.00000000E+00
  0.00000000E+00  0.00000000E+00  0.00000000E+00
  0.00000000E+00  0.00000000E+00  0.00000000E+00
  0.00000000E+00  0.00000000E+00  0.00000000E+00
  0.00000000E+00  0.00000000E+00  0.00000000E+00
  0.00000000E+00  0.00000000E+00  0.00000000E+00
  0.00000000E+00  0.00000000E+00  0.00000000E+00
  0.00000000E+00  0.00000000E+00  0.00000000E+00
  0.00000000E+00  0.00000000E+00  0.00000000E+00
  0.00000000E+00  0.00000000E+00  0.00000000E+00
  0.00000000E+00  0.00000000E+00  0.00000000E+00
  0.00000000E+00  0.00000000E+00  0.00000000E+00
  0.00000000E+00  0.00000000E+00  0.00000000E+00
  0.00000000E+00  0.00000000E+00  0.00000000E+00
  0.00000000E+00  0.00000000E+00  0.00000000E+00
  0.00000000E+00  0.00000000E+00  0.00000000E+00
  0.00000000E+00  0.00000000E+00  0.00000000E+00
  0.00000000E+00  0.00000000E+00  0.00000000E+00
  0.00000000E+00  0.00000000E+00  0.00000000E+00
  0.00000000E+00  0.00000000E+00  0.00000000E+00
  0.00000000E+00  0.00000000E+00  0.00000000E+00
  0.00000000E+00  0.00000000E+00  0.00000000E+00
  0.00000000E+00  0.00000000E+00  0.00000000E+00
  0.00000000E+00  0.00000000E+00  0.00000000E+00
  0.00000000E+00  0.00000000E+00  0.00000000E+00
  0.00000000E+00  0.00000000E+00  0.00000000E+00
  0.00000000E+00  0.00000000E+00  0.00000000E+00
  0.00000000E+00  0.00000000E+00  0.00000000E+00
  0.00000000E+00  0.00000000E+00  0.00000000E+00
  0.00000000E+00  0.00000000E+00  0.00000000E+00
  0.00000000E+00  0.00000000E+00  0.00000000E+00
  0.00000000E+00  0.00000000E+00  0.00000000E+00
  0.00000000E+00  0.00000000E+00  0.00000000E+00
  0.00000000E+00  0.00000000E+00  0.00000000E+00
  0.00000000E+00  0.00000000E+00  0.00000000E+00
  0.00000000E+00  0.00000000E+00  0.00000000E+00
  0.00000000E+00  0.00000000E+00  0.00000000E+00
  0.00000000E+00  0.00000000E+00  0.00000000E+00
  0.00000000E+00  0.00000000E+00  0.00000000E+00
  0.00000000E+00  0.00000000E+00  0.00000000E+00
  0.00000000E+00  0.00000000E+00  0.00000000E+00
  0.00000000E+00  0.00000000E+00  0.00000000E+00
  0.00000000E+00  0.00000000E+00  0.00000000E+00
