Au48 C6 Br6                             
    1.000000000000000     
    11.7981859999999994    0.0000000000000000    0.0000000000000000
    -5.8990929999999997   10.2175279999999997    0.0000000000000000
     0.0000000000000000    0.0000000000000000   17.8179930000000013
   Au   C    Br
    48     6     6
Selective dynamics
Direct
  0.0833330000000032  0.1666669999999968  0.3367379999999969   F   F   F
  0.0833330000000032  0.4166669999999968  0.3367379999999969   F   F   F
  0.0833330000000032  0.6666669999999968  0.3367379999999969   F   F   F
  0.0833330000000032  0.9166669999999968  0.3367379999999969   F   F   F
  0.3333330000000032  0.1666669999999968  0.3367379999999969   F   F   F
  0.3333330000000032  0.4166669999999968  0.3367379999999969   F   F   F
  0.3333330000000032  0.6666669999999968  0.3367379999999969   F   F   F
  0.3333330000000032  0.9166669999999968  0.3367379999999969   F   F   F
  0.5833330000000032  0.1666669999999968  0.3367379999999969   F   F   F
  0.5833330000000032  0.4166669999999968  0.3367379999999969   F   F   F
  0.5833330000000032  0.6666669999999968  0.3367379999999969   F   F   F
  0.5833330000000032  0.9166669999999968  0.3367379999999969   F   F   F
  0.8333330000000032  0.1666669999999968  0.3367379999999969   F   F   F
  0.8333330000000032  0.4166669999999968  0.3367379999999969   F   F   F
  0.8333330000000032  0.6666669999999968  0.3367379999999969   F   F   F
  0.8333330000000032  0.9166669999999968  0.3367379999999969   F   F   F
  0.2499459181044230  0.2498502395955740  0.6124510318254650   T   T   T
  0.2500709046030423  0.5000648139117558  0.6119539177041631   T   T   T
  0.2499054916119547  0.7500654130603124  0.6123785323467104   T   T   T
  0.2501904710549212  0.9999495783108685  0.6127096836478856   T   T   T
  0.5002575203913651  0.2498276332694189  0.6119742623006204   T   T   T
  0.5005890010842506  0.5004073036149990  0.6109306347887511   T   T   T
  0.5002133747999622  0.7499458276596798  0.6104461413181426   T   T   T
  0.5000864177213273  0.0002507994153618  0.6123863930155409   T   T   T
  0.7503712096261594  0.2498470874281793  0.6124327726579821   T   T   T
  0.7500791323758733  0.5000854883502939  0.6103955411934336   T   T   T
  0.7497626240678059  0.7495804943881978  0.6109123088553403   T   T   T
  0.7500847462268396  0.0000855443344108  0.6119478275867891   T   T   T
  0.0000949071462344  0.2500438837695214  0.6127543734596728   T   T   T
  0.0003034202866274  0.4997757246272769  0.6124361522466444   T   T   T
  0.0003306501242477  0.7498966751613310  0.6119682262682247   T   T   T
  0.0003002567877530  0.0002071193704936  0.6124507300583417   T   T   T
  0.1668121994265164  0.0832842915824443  0.4746797722141665   T   T   T
  0.1666073193719342  0.3332158772702130  0.4745931468512623   T   T   T
  0.1668632609426055  0.5833203196355043  0.4745784960606088   T   T   T
  0.1668527389925671  0.8335629213841074  0.4745050208758457   T   T   T
  0.4165333043207369  0.0832467149285421  0.4745032592978689   T   T   T
  0.4164942969408969  0.3330980664310701  0.4744375352263148   T   T   T
  0.4164174086517960  0.5830358559295306  0.4739439916773520   T   T   T
  0.4164575003983941  0.8336435297560669  0.4742217311710917   T   T   T
  0.6667817824906521  0.0832438306313108  0.4745794662372589   T   T   T
  0.6667603638067874  0.3329614231125078  0.4742675714231197   T   T   T
  0.6666789830508364  0.5833965621934567  0.4735496401267127   T   T   T
  0.6670451668222128  0.8336745056084496  0.4739441168196947   T   T   T
  0.9168764205084159  0.0834906171688417  0.4745922844985628   T   T   T
  0.9167231442864718  0.3333760127355774  0.4745473902926989   T   T   T
  0.9171330011917078  0.5833356472724347  0.4742593958804946   T   T   T
  0.9169842575988056  0.8335903693898103  0.4744324681060519   T   T   T
  0.6932863096890713  0.7624263660774204  0.8011718341688976   T   T   T
  0.7622572224437221  0.6936399335552821  0.8011387561650096   T   T   T
  0.6933446495556836  0.5559532290559375  0.8011402397306284   T   T   T
  0.5556488684865215  0.4870388297976191  0.8011212449831646   T   T   T
  0.4868415368824728  0.5559762469628353  0.8011531748045115   T   T   T
  0.5557049453860330  0.6936767383577020  0.8011978792643930   T   T   T
  0.7856863002334720  0.9470415611403311  0.8013364176229771   T   T   T
  0.9467249162557678  0.7858300123423163  0.8012230370726101   T   T   T
  0.7856030344034863  0.4636302709969797  0.8003892644252417   T   T   T
  0.4633363818748677  0.3025165436470445  0.8011881012563933   T   T   T
  0.3022011065322232  0.4636893374408189  0.8013130749113131   T   T   T
  0.4634626440214475  0.7859692045039139  0.8005577385758613   T   T   T
 
  0.00000000E+00  0.00000000E+00  0.00000000E+00
  0.00000000E+00  0.00000000E+00  0.00000000E+00
  0.00000000E+00  0.00000000E+00  0.00000000E+00
  0.00000000E+00  0.00000000E+00  0.00000000E+00
  0.00000000E+00  0.00000000E+00  0.00000000E+00
  0.00000000E+00  0.00000000E+00  0.00000000E+00
  0.00000000E+00  0.00000000E+00  0.00000000E+00
  0.00000000E+00  0.00000000E+00  0.00000000E+00
  0.00000000E+00  0.00000000E+00  0.00000000E+00
  0.00000000E+00  0.00000000E+00  0.00000000E+00
  0.00000000E+00  0.00000000E+00  0.00000000E+00
  0.00000000E+00  0.00000000E+00  0.00000000E+00
  0.00000000E+00  0.00000000E+00  0.00000000E+00
  0.00000000E+00  0.00000000E+00  0.00000000E+00
  0.00000000E+00  0.00000000E+00  0.00000000E+00
  0.00000000E+00  0.00000000E+00  0.00000000E+00
  0.00000000E+00  0.00000000E+00  0.00000000E+00
  0.00000000E+00  0.00000000E+00  0.00000000E+00
  0.00000000E+00  0.00000000E+00  0.00000000E+00
  0.00000000E+00  0.00000000E+00  0.00000000E+00
  0.00000000E+00  0.00000000E+00  0.00000000E+00
  0.00000000E+00  0.00000000E+00  0.00000000E+00
  0.00000000E+00  0.00000000E+00  0.00000000E+00
  0.00000000E+00  0.00000000E+00  0.00000000E+00
  0.00000000E+00  0.00000000E+00  0.00000000E+00
  0.00000000E+00  0.00000000E+00  0.00000000E+00
  0.00000000E+00  0.00000000E+00  0.00000000E+00
  0.00000000E+00  0.00000000E+00  0.00000000E+00
  0.00000000E+00  0.00000000E+00  0.00000000E+00
  0.00000000E+00  0.00000000E+00  0.00000000E+00
  0.00000000E+00  0.00000000E+00  0.00000000E+00
  0.00000000E+00  0.00000000E+00  0.00000000E+00
  0.00000000E+00  0.00000000E+00  0.00000000E+00
  0.00000000E+00  0.00000000E+00  0.00000000E+00
  0.00000000E+00  0.00000000E+00  0.00000000E+00
  0.00000000E+00  0.00000000E+00  0.00000000E+00
  0.00000000E+00  0.00000000E+00  0.00000000E+00
  0.00000000E+00  0.00000000E+00  0.00000000E+00
  0.00000000E+00  0.00000000E+00  0.00000000E+00
  0.00000000E+00  0.00000000E+00  0.00000000E+00
  0.00000000E+00  0.00000000E+00  0.00000000E+00
  0.00000000E+00  0.00000000E+00  0.00000000E+00
  0.00000000E+00  0.00000000E+00  0.00000000E+00
  0.00000000E+00  0.00000000E+00  0.00000000E+00
  0.00000000E+00  0.00000000E+00  0.00000000E+00
  0.00000000E+00  0.00000000E+00  0.00000000E+00
  0.00000000E+00  0.00000000E+00  0.00000000E+00
  0.00000000E+00  0.00000000E+00  0.00000000E+00
  0.00000000E+00  0.00000000E+00  0.00000000E+00
  0.00000000E+00  0.00000000E+00  0.00000000E+00
  0.00000000E+00  0.00000000E+00  0.00000000E+00
  0.00000000E+00  0.00000000E+00  0.00000000E+00
  0.00000000E+00  0.00000000E+00  0.00000000E+00
  0.00000000E+00  0.00000000E+00  0.00000000E+00
  0.00000000E+00  0.00000000E+00  0.00000000E+00
  0.00000000E+00  0.00000000E+00  0.00000000E+00
  0.00000000E+00  0.00000000E+00  0.00000000E+00
  0.00000000E+00  0.00000000E+00  0.00000000E+00
  0.00000000E+00  0.00000000E+00  0.00000000E+00
  0.00000000E+00  0.00000000E+00  0.00000000E+00
