Ir  C Br                                
   1.00000000000000     
    10.9622001648000005    0.0000000000000000    0.0000000000000000
     0.0000000000000000   10.9622001648000005    0.0000000000000000
     0.0000000000000000    0.0000000000000000   23.8136005401999995
   Ir   C    Br
    64     6     6
Selective dynamics
Direct
  0.0000000000000000  0.2499999999817533  0.3149499893281131   F   F   F
  0.7500000000364864  0.7500000000364864  0.3149499893281131   F   F   F
  0.0000000000000000  0.4999999999635136  0.3149499893281131   F   F   F
  0.0000000000000000  0.7500000000364864  0.3149499893281131   F   F   F
  0.0000000000000000  0.0000000000000000  0.3149499893281131   F   F   F
  0.2499999999817533  0.2499999999817533  0.3149499893281131   F   F   F
  0.2499999999817533  0.4999999999635136  0.3149499893281131   F   F   F
  0.7500000000364864  0.0000000000000000  0.3149499893281131   F   F   F
  0.2499999999817533  0.7500000000364864  0.3149499893281131   F   F   F
  0.2499999999817533  0.0000000000000000  0.3149499893281131   F   F   F
  0.4999999999635136  0.2499999999817533  0.3149499893281131   F   F   F
  0.4999999999635136  0.4999999999635136  0.3149499893281131   F   F   F
  0.4999999999635136  0.7500000000364864  0.3149499893281131   F   F   F
  0.4999999999635136  0.0000000000000000  0.3149499893281131   F   F   F
  0.7500000000364864  0.2499999999817533  0.3149499893281131   F   F   F
  0.7500000000364864  0.4999999999635136  0.3149499893281131   F   F   F
  0.0007755087839903  0.2503142488766028  0.4786456285074400   T   T   T
 -0.0000846486430148  0.5000507114167502  0.4787497353996463   T   T   T
 -0.0008211906292284  0.7496348152186328  0.4786805150430138   T   T   T
  0.0000249237955695 -0.0000186687866013  0.4782231482758116   T   T   T
  0.2500017253287791  0.2500390700774042  0.4786699013382225   T   T   T
  0.2489488429949158  0.5000526885810680  0.4780385590834376   T   T   T
  0.2496436316403941  0.7503854144386022  0.4784026699246519   T   T   T
  0.2503534257269939  0.0008443888769188  0.4786770435363276   T   T   T
  0.5000038687275368  0.2490913055512161  0.4780692716248949   T   T   T
  0.4999693576729860  0.5000774180292309  0.4774931840701845   T   T   T
  0.5000305047423901  0.7510887834787989  0.4780075410806083   T   T   T
  0.4999685193118450  0.0001760317027607  0.4787229522712000   T   T   T
  0.7503160910072249  0.2497123379025573  0.4784196945084973   T   T   T
  0.7509548284364034  0.5000321896899014  0.4780512880097346   T   T   T
  0.7499951754033259  0.7500179716638168  0.4786544498863236   T   T   T
  0.7496923052889062 -0.0007220065412628  0.4786277898747801   T   T   T
  0.1244289101550005  0.1245450669803514  0.5570216140036539   T   T   T
  0.1248929005670439  0.3749620250602580  0.5577329896528681   T   T   T
  0.1253265515136878  0.6257895545727267  0.5569098782478754   T   T   T
  0.1247792670543318  0.8752776355262034  0.5567481329750140   T   T   T
  0.3748733171696257  0.1250039235135433  0.5578134120282759   T   T   T
  0.3761339186075264  0.3762884895193058  0.5553392640185830   T   T   T
  0.3752654705643501  0.6248386256378167  0.5559267470304543   T   T   T
  0.3743061431830838  0.8746960029892198  0.5569030040559431   T   T   T
  0.6258833514033543  0.1254010590230927  0.5568880272812021   T   T   T
  0.6247190960458197  0.3753481629784551  0.5559526914265008   T   T   T
  0.6237690592499970  0.6239882040678523  0.5553808693772944   T   T   T
  0.6250265709439636  0.8751419631179639  0.5576606837076191   T   T   T
  0.8752924307509310  0.1246920319504079  0.5567454685437149   T   T   T
  0.8746104450600231  0.3741411192151686  0.5569036742286482   T   T   T
  0.8750094012477022  0.6251126289613100  0.5578064729114324   T   T   T
  0.8754343328911894  0.8755672951430596  0.5570250835025343   T   T   T
  0.1250000000364864  0.1250000000364864  0.3963199853826396   F   F   F
  0.1250000000364864  0.3750000000182467  0.3963199853826396   F   F   F
  0.1250000000364864  0.6250000000000000  0.3963199853826396   F   F   F
  0.1250000000364864  0.8749999999817533  0.3963199853826396   F   F   F
  0.3750000000182467  0.1250000000364864  0.3963199853826396   F   F   F
  0.3750000000182467  0.3750000000182467  0.3963199853826396   F   F   F
  0.3750000000182467  0.6250000000000000  0.3963199853826396   F   F   F
  0.3750000000182467  0.8749999999817533  0.3963199853826396   F   F   F
  0.6250000000000000  0.1250000000364864  0.3963199853826396   F   F   F
  0.6250000000000000  0.3750000000182467  0.3963199853826396   F   F   F
  0.6250000000000000  0.6250000000000000  0.3963199853826396   F   F   F
  0.6250000000000000  0.8749999999817533  0.3963199853826396   F   F   F
  0.8749999999817533  0.1250000000364864  0.3963199853826396   F   F   F
  0.8749999999817533  0.3750000000182467  0.3963199853826396   F   F   F
  0.8749999999817533  0.6250000000000000  0.3963199853826396   F   F   F
  0.8749999999817533  0.8749999999817533  0.3963199853826396   F   F   F
  0.5353899829759809  0.6217618933058642  0.6881249008998387   T   T   T
  0.6262650082676451  0.5307938188769574  0.6877416261254130   T   T   T
  0.5931479753436485  0.4063580996152182  0.6881670575768047   T   T   T
  0.4687723774235283  0.3733388436672436  0.6874614709242696   T   T   T
  0.3778118275111130  0.4641904113816242  0.6876692008244669   T   T   T
  0.4110024804112906  0.5886183624543044  0.6885648370782033   T   T   T
  0.5814136152276390  0.7883570643589574  0.6882591639528954   T   T   T
  0.7934622707764858  0.5752922929849902  0.6861844822055563   T   T   T
  0.7150128413695720  0.2847230358723170  0.6924006289460977   T   T   T
  0.4242666814448097  0.2061240979372099  0.6859917245367978   T   T   T
  0.2113565400446008  0.4182516522104610  0.6871957373466655   T   T   T
  0.2889967476426307  0.7105370100167402  0.6924075459846448   T   T   T
 
  0.00000000E+00  0.00000000E+00  0.00000000E+00
  0.00000000E+00  0.00000000E+00  0.00000000E+00
  0.00000000E+00  0.00000000E+00  0.00000000E+00
  0.00000000E+00  0.00000000E+00  0.00000000E+00
  0.00000000E+00  0.00000000E+00  0.00000000E+00
  0.00000000E+00  0.00000000E+00  0.00000000E+00
  0.00000000E+00  0.00000000E+00  0.00000000E+00
  0.00000000E+00  0.00000000E+00  0.00000000E+00
  0.00000000E+00  0.00000000E+00  0.00000000E+00
  0.00000000E+00  0.00000000E+00  0.00000000E+00
  0.00000000E+00  0.00000000E+00  0.00000000E+00
  0.00000000E+00  0.00000000E+00  0.00000000E+00
  0.00000000E+00  0.00000000E+00  0.00000000E+00
  0.00000000E+00  0.00000000E+00  0.00000000E+00
  0.00000000E+00  0.00000000E+00  0.00000000E+00
  0.00000000E+00  0.00000000E+00  0.00000000E+00
  0.00000000E+00  0.00000000E+00  0.00000000E+00
  0.00000000E+00  0.00000000E+00  0.00000000E+00
  0.00000000E+00  0.00000000E+00  0.00000000E+00
  0.00000000E+00  0.00000000E+00  0.00000000E+00
  0.00000000E+00  0.00000000E+00  0.00000000E+00
  0.00000000E+00  0.00000000E+00  0.00000000E+00
  0.00000000E+00  0.00000000E+00  0.00000000E+00
  0.00000000E+00  0.00000000E+00  0.00000000E+00
  0.00000000E+00  0.00000000E+00  0.00000000E+00
  0.00000000E+00  0.00000000E+00  0.00000000E+00
  0.00000000E+00  0.00000000E+00  0.00000000E+00
  0.00000000E+00  0.00000000E+00  0.00000000E+00
  0.00000000E+00  0.00000000E+00  0.00000000E+00
  0.00000000E+00  0.00000000E+00  0.00000000E+00
  0.00000000E+00  0.00000000E+00  0.00000000E+00
  0.00000000E+00  0.00000000E+00  0.00000000E+00
  0.00000000E+00  0.00000000E+00  0.00000000E+00
  0.00000000E+00  0.00000000E+00  0.00000000E+00
  0.00000000E+00  0.00000000E+00  0.00000000E+00
  0.00000000E+00  0.00000000E+00  0.00000000E+00
  0.00000000E+00  0.00000000E+00  0.00000000E+00
  0.00000000E+00  0.00000000E+00  0.00000000E+00
  0.00000000E+00  0.00000000E+00  0.00000000E+00
  0.00000000E+00  0.00000000E+00  0.00000000E+00
  0.00000000E+00  0.00000000E+00  0.00000000E+00
  0.00000000E+00  0.00000000E+00  0.00000000E+00
  0.00000000E+00  0.00000000E+00  0.00000000E+00
  0.00000000E+00  0.00000000E+00  0.00000000E+00
  0.00000000E+00  0.00000000E+00  0.00000000E+00
  0.00000000E+00  0.00000000E+00  0.00000000E+00
  0.00000000E+00  0.00000000E+00  0.00000000E+00
  0.00000000E+00  0.00000000E+00  0.00000000E+00
  0.00000000E+00  0.00000000E+00  0.00000000E+00
  0.00000000E+00  0.00000000E+00  0.00000000E+00
  0.00000000E+00  0.00000000E+00  0.00000000E+00
  0.00000000E+00  0.00000000E+00  0.00000000E+00
  0.00000000E+00  0.00000000E+00  0.00000000E+00
  0.00000000E+00  0.00000000E+00  0.00000000E+00
  0.00000000E+00  0.00000000E+00  0.00000000E+00
  0.00000000E+00  0.00000000E+00  0.00000000E+00
  0.00000000E+00  0.00000000E+00  0.00000000E+00
  0.00000000E+00  0.00000000E+00  0.00000000E+00
  0.00000000E+00  0.00000000E+00  0.00000000E+00
  0.00000000E+00  0.00000000E+00  0.00000000E+00
  0.00000000E+00  0.00000000E+00  0.00000000E+00
  0.00000000E+00  0.00000000E+00  0.00000000E+00
  0.00000000E+00  0.00000000E+00  0.00000000E+00
  0.00000000E+00  0.00000000E+00  0.00000000E+00
  0.00000000E+00  0.00000000E+00  0.00000000E+00
  0.00000000E+00  0.00000000E+00  0.00000000E+00
  0.00000000E+00  0.00000000E+00  0.00000000E+00
  0.00000000E+00  0.00000000E+00  0.00000000E+00
  0.00000000E+00  0.00000000E+00  0.00000000E+00
  0.00000000E+00  0.00000000E+00  0.00000000E+00
  0.00000000E+00  0.00000000E+00  0.00000000E+00
  0.00000000E+00  0.00000000E+00  0.00000000E+00
  0.00000000E+00  0.00000000E+00  0.00000000E+00
  0.00000000E+00  0.00000000E+00  0.00000000E+00
  0.00000000E+00  0.00000000E+00  0.00000000E+00
  0.00000000E+00  0.00000000E+00  0.00000000E+00
