Ag48 C6 Br6                             
    1.000000000000000     
    11.7702790000000004    0.0000000000000000    0.0000000000000000
     0.0000000000000000   16.6456881000000010    0.0000000000000000
     0.0000000000000000    0.0000000000000000   15.7065589200000009
   Ag   C    Br
    48     6     6
Selective dynamics
Direct
  0.9999149190294219  0.2501180396544740  0.4049171108789480   T   T   T
  0.9999997775918814  0.4999999232253245  0.4041673339421266   T   T   T
  0.0000850276163789  0.7498818669917071  0.4049183768891282   T   T   T
  0.0000000063641750  0.9999998985566450  0.4047613787084359   T   T   T
  0.2495558893573175  0.2501511892233950  0.4041941719905822   T   T   T
  0.2497962146708801  0.4999094886843025  0.4033055991652361   T   T   T
  0.2495999033821619  0.7498567534132974  0.4043065025020312   T   T   T
  0.2500931743802681  0.0000488719059675  0.4047229416196529   T   T   T
  0.5000913433697178  0.2500660986688246  0.4036437953420418   T   T   T
  0.4999996053719116  0.4999994268665446  0.4043130115580169   T   T   T
  0.4999073725759686  0.7499343591406031  0.4036448434430469   T   T   T
  0.4999995704230784  0.9999997938430596  0.4047119138211741   T   T   T
  0.7504004272066567  0.2501430597494334  0.4043062082546669   T   T   T
  0.7502032718462601  0.5000895049003944  0.4033068787348455   T   T   T
  0.7504439878769773  0.7498497042911865  0.4041961362176565   T   T   T
  0.7499071893061000  0.9999507568894472  0.4047236670292236   T   T   T
  0.1251926080707833  0.1251201138555871  0.4906879006339793   T   T   T
  0.1238723915340358  0.3756445366816692  0.4909692362336955   T   T   T
  0.1241284770993403  0.6243072506602516  0.4910069588997032   T   T   T
  0.1253246833352506  0.8749526270009085  0.4907050006266331   T   T   T
  0.3751934904050742  0.1256408397013615  0.4905898859776201   T   T   T
  0.3748961834113871  0.3753691002359005  0.4895932252711859   T   T   T
  0.3744920902314846  0.6243646006478869  0.4897057121146418   T   T   T
  0.3751211419428131  0.8745188270246445  0.4906127262419133   T   T   T
  0.6248786322958821  0.1254812256553279  0.4906134161488751   T   T   T
  0.6255067788035547  0.3756339332076593  0.4897046966948011   T   T   T
  0.6251040552083822  0.6246308567873271  0.4895949716495522   T   T   T
  0.6248058069828986  0.8743595598617731  0.4905908025142267   T   T   T
  0.8746757700494499  0.1250472437058221  0.4907048865580634   T   T   T
  0.8758700304865243  0.3756919555201819  0.4910068789660187   T   T   T
  0.8761273711845377  0.6243549983464405  0.4909726509632364   T   T   T
  0.8748077121870352  0.8748800718746992  0.4906888611380822   T   T   T
  0.1249999995752020  0.1250000004505694  0.3183383467675540   F   F   F
  0.1249999995752020  0.3750000007509442  0.3183383467675540   F   F   F
  0.1249999995752020  0.6250000016520829  0.3183383467675540   F   F   F
  0.1249999995752020  0.8750000019524578  0.3183383467675540   F   F   F
  0.3749999987256061  0.1250000004505694  0.3183383467675540   F   F   F
  0.3749999987256061  0.3750000007509442  0.3183383467675540   F   F   F
  0.3749999987256061  0.6250000016520829  0.3183383467675540   F   F   F
  0.3749999987256061  0.8750000019524578  0.3183383467675540   F   F   F
  0.6249999978760030  0.1250000004505694  0.3183383467675540   F   F   F
  0.6249999978760030  0.3750000007509442  0.3183383467675540   F   F   F
  0.6249999978760030  0.6250000016520829  0.3183383467675540   F   F   F
  0.6249999978760030  0.8750000019524578  0.3183383467675540   F   F   F
  0.8749999970264071  0.1250000004505694  0.3183383467675540   F   F   F
  0.8749999970264071  0.3750000007509442  0.3183383467675540   F   F   F
  0.8749999970264071  0.6250000016520829  0.3183383467675540   F   F   F
  0.8749999970264071  0.8750000019524578  0.3183383467675540   F   F   F
  0.6192689374259359  0.4920295811631306  0.6848186275698609   T   T   T
  0.5497973322060545  0.4233248209997527  0.6862673016117640   T   T   T
  0.4308604939806671  0.4313391642970217  0.6864893040914382   T   T   T
  0.3807328553264924  0.5079648572102613  0.6848223807049081   T   T   T
  0.4501986092092949  0.5766746671095149  0.6862700153683789   T   T   T
  0.5691496121847948  0.5686653884368269  0.6864887374381112   T   T   T
  0.7786754193692715  0.4815031572953217  0.6756150160030430   T   T   T
  0.6166184996285153  0.3198284512883802  0.6862270368495089   T   T   T
  0.3378646211719385  0.3384131905345882  0.6873477025288821   T   T   T
  0.2213238156246078  0.5184983578820876  0.6756212625423856   T   T   T
  0.3833857854752765  0.6801670961817337  0.6862343472788481   T   T   T
  0.6621314697960443  0.6615820650137749  0.6873423801129022   T   T   T
 
  0.00000000E+00  0.00000000E+00  0.00000000E+00
  0.00000000E+00  0.00000000E+00  0.00000000E+00
  0.00000000E+00  0.00000000E+00  0.00000000E+00
  0.00000000E+00  0.00000000E+00  0.00000000E+00
  0.00000000E+00  0.00000000E+00  0.00000000E+00
  0.00000000E+00  0.00000000E+00  0.00000000E+00
  0.00000000E+00  0.00000000E+00  0.00000000E+00
  0.00000000E+00  0.00000000E+00  0.00000000E+00
  0.00000000E+00  0.00000000E+00  0.00000000E+00
  0.00000000E+00  0.00000000E+00  0.00000000E+00
  0.00000000E+00  0.00000000E+00  0.00000000E+00
  0.00000000E+00  0.00000000E+00  0.00000000E+00
  0.00000000E+00  0.00000000E+00  0.00000000E+00
  0.00000000E+00  0.00000000E+00  0.00000000E+00
  0.00000000E+00  0.00000000E+00  0.00000000E+00
  0.00000000E+00  0.00000000E+00  0.00000000E+00
  0.00000000E+00  0.00000000E+00  0.00000000E+00
  0.00000000E+00  0.00000000E+00  0.00000000E+00
  0.00000000E+00  0.00000000E+00  0.00000000E+00
  0.00000000E+00  0.00000000E+00  0.00000000E+00
  0.00000000E+00  0.00000000E+00  0.00000000E+00
  0.00000000E+00  0.00000000E+00  0.00000000E+00
  0.00000000E+00  0.00000000E+00  0.00000000E+00
  0.00000000E+00  0.00000000E+00  0.00000000E+00
  0.00000000E+00  0.00000000E+00  0.00000000E+00
  0.00000000E+00  0.00000000E+00  0.00000000E+00
  0.00000000E+00  0.00000000E+00  0.00000000E+00
  0.00000000E+00  0.00000000E+00  0.00000000E+00
  0.00000000E+00  0.00000000E+00  0.00000000E+00
  0.00000000E+00  0.00000000E+00  0.00000000E+00
  0.00000000E+00  0.00000000E+00  0.00000000E+00
  0.00000000E+00  0.00000000E+00  0.00000000E+00
  0.00000000E+00  0.00000000E+00  0.00000000E+00
  0.00000000E+00  0.00000000E+00  0.00000000E+00
  0.00000000E+00  0.00000000E+00  0.00000000E+00
  0.00000000E+00  0.00000000E+00  0.00000000E+00
  0.00000000E+00  0.00000000E+00  0.00000000E+00
  0.00000000E+00  0.00000000E+00  0.00000000E+00
  0.00000000E+00  0.00000000E+00  0.00000000E+00
  0.00000000E+00  0.00000000E+00  0.00000000E+00
  0.00000000E+00  0.00000000E+00  0.00000000E+00
  0.00000000E+00  0.00000000E+00  0.00000000E+00
  0.00000000E+00  0.00000000E+00  0.00000000E+00
  0.00000000E+00  0.00000000E+00  0.00000000E+00
  0.00000000E+00  0.00000000E+00  0.00000000E+00
  0.00000000E+00  0.00000000E+00  0.00000000E+00
  0.00000000E+00  0.00000000E+00  0.00000000E+00
  0.00000000E+00  0.00000000E+00  0.00000000E+00
  0.00000000E+00  0.00000000E+00  0.00000000E+00
  0.00000000E+00  0.00000000E+00  0.00000000E+00
  0.00000000E+00  0.00000000E+00  0.00000000E+00
  0.00000000E+00  0.00000000E+00  0.00000000E+00
  0.00000000E+00  0.00000000E+00  0.00000000E+00
  0.00000000E+00  0.00000000E+00  0.00000000E+00
  0.00000000E+00  0.00000000E+00  0.00000000E+00
  0.00000000E+00  0.00000000E+00  0.00000000E+00
  0.00000000E+00  0.00000000E+00  0.00000000E+00
  0.00000000E+00  0.00000000E+00  0.00000000E+00
  0.00000000E+00  0.00000000E+00  0.00000000E+00
  0.00000000E+00  0.00000000E+00  0.00000000E+00
