Pt48 C6 F6                              
    1.000000000000000     
    11.2480068000000006    0.0000000000000000    0.0000000000000000
     0.0000000000000000   15.9070838000000006    0.0000000000000000
     0.0000000000000000    0.0000000000000000   15.6744472600000009
   Pt   C    F 
    48     6     6
Selective dynamics
Direct
  0.2497621624058297  0.2497159427958877  0.4040333067540587   T   T   T
  0.2496063013720828  0.5000747121722142  0.4039113369469263   T   T   T
  0.2498148174597219  0.7502372842134406  0.4040620317177073   T   T   T
  0.2499938778814652  0.0000065721188349  0.4042659461194660   T   T   T
  0.5000294615917653  0.2495910740160951  0.4038863416675795   T   T   T
  0.5000000017780906  0.5000000006286527  0.4036552683328551   T   T   T
  0.4999705419644158  0.7504089278698558  0.4038863410295974   T   T   T
  0.5000000017780906  0.0000000000000000  0.4042936908731321   T   T   T
  0.7501851860964592  0.2497627176725103  0.4040620323556894   T   T   T
  0.7503937021840983  0.4999252890850912  0.4039113375849084   T   T   T
  0.7502378411503514  0.7502840590900632  0.4040333073920408   T   T   T
  0.7500061256747159  0.9999934278811651  0.4042659461194660   T   T   T
  0.9999567857744722  0.2498089247832098  0.4042496922055534   T   T   T
  0.0000000035561882  0.5000000006286527  0.4038504020580476   T   T   T
  0.0000432213379042  0.7501910771027411  0.4042496922055534   T   T   T
  0.0000000035561882  0.0000000000000000  0.4044730735857627   T   T   T
  0.1249356282804044  0.1248743324799122  0.4899663524189890   T   T   T
  0.1244793052380757  0.3749263426254927  0.4896558209007793   T   T   T
  0.1245961297050542  0.6251090340518601  0.4897847982191408   T   T   T
  0.1249951957954565  0.8751234783653459  0.4899565742192564   T   T   T
  0.3749520785028437  0.1249252528521225  0.4898967102730509   T   T   T
  0.3743236969274122  0.3749953023817270  0.4884514870272696   T   T   T
  0.3743974870314872  0.6250044045360568  0.4886665324670147   T   T   T
  0.3749470721687089  0.8750935987035362  0.4899020026989547   T   T   T
  0.6250529313874722  0.1249064025537621  0.4899020026989547   T   T   T
  0.6256025165246939  0.3749955967212415  0.4886665324670147   T   T   T
  0.6256763066287689  0.6250046988755713  0.4884514870272696   T   T   T
  0.6250479250533374  0.8750747484051757  0.4898967102730509   T   T   T
  0.8750048077607246  0.1248765228919524  0.4899565742192564   T   T   T
  0.8754038738511269  0.3748909672054381  0.4897847982191408   T   T   T
  0.8755206983181125  0.6250736586318055  0.4896558209007793   T   T   T
  0.8750643743867315  0.8751256687773861  0.4899663524189890   T   T   T
  0.1250000000000000  0.1250000003143228  0.3189905147570755   F   F   F
  0.1250000000000000  0.3750000003143228  0.3189905147570755   F   F   F
  0.1250000008890453  0.6250000009429755  0.3189905147570755   F   F   F
  0.1250000008890453  0.8750000009429755  0.3189905147570755   F   F   F
  0.3750000008890453  0.1250000003143228  0.3189905147570755   F   F   F
  0.3750000008890453  0.3750000003143228  0.3189905147570755   F   F   F
  0.3750000008890453  0.6250000009429755  0.3189905147570755   F   F   F
  0.3750000008890453  0.8750000009429755  0.3189905147570755   F   F   F
  0.6250000017780906  0.1250000003143228  0.3189905147570755   F   F   F
  0.6250000017780906  0.3750000003143228  0.3189905147570755   F   F   F
  0.6250000017780906  0.6250000009429755  0.3189905147570755   F   F   F
  0.6250000026671358  0.8750000009429755  0.3189905147570755   F   F   F
  0.8750000026671358  0.1250000003143228  0.3189905147570755   F   F   F
  0.8750000026671358  0.3750000003143228  0.3189905147570755   F   F   F
  0.8750000035561882  0.6250000009429755  0.3189905147570755   F   F   F
  0.8750000026671358  0.8750000009429755  0.3189905147570755   F   F   F
  0.6239749415169200  0.4921875151408059  0.6800063675047667   T   T   T
  0.5524020735840267  0.4203390572700343  0.6804022412279380   T   T   T
  0.4284947050920991  0.4282290159121374  0.6804811278563037   T   T   T
  0.3760250869325645  0.5078124986895105  0.6800063675047667   T   T   T
  0.4475979041898128  0.5796609314142529  0.6804022412279380   T   T   T
  0.5715052984640820  0.5717709853451680  0.6804811278563037   T   T   T
  0.7429573279771091  0.4848086366654343  0.6813119366560585   T   T   T
  0.6023640188796051  0.3434208660470972  0.6854975673635266   T   T   T
  0.3597871506514423  0.3588453789104449  0.6856750007499528   T   T   T
  0.2570426755790791  0.5151913645918711  0.6813119366560585   T   T   T
  0.3976359188871470  0.6565791150933791  0.6854975673635266   T   T   T
  0.6402128280114425  0.6411546097738423  0.6856750007499528   T   T   T
 
  0.00000000E+00  0.00000000E+00  0.00000000E+00
  0.00000000E+00  0.00000000E+00  0.00000000E+00
  0.00000000E+00  0.00000000E+00  0.00000000E+00
  0.00000000E+00  0.00000000E+00  0.00000000E+00
  0.00000000E+00  0.00000000E+00  0.00000000E+00
  0.00000000E+00  0.00000000E+00  0.00000000E+00
  0.00000000E+00  0.00000000E+00  0.00000000E+00
  0.00000000E+00  0.00000000E+00  0.00000000E+00
  0.00000000E+00  0.00000000E+00  0.00000000E+00
  0.00000000E+00  0.00000000E+00  0.00000000E+00
  0.00000000E+00  0.00000000E+00  0.00000000E+00
  0.00000000E+00  0.00000000E+00  0.00000000E+00
  0.00000000E+00  0.00000000E+00  0.00000000E+00
  0.00000000E+00  0.00000000E+00  0.00000000E+00
  0.00000000E+00  0.00000000E+00  0.00000000E+00
  0.00000000E+00  0.00000000E+00  0.00000000E+00
  0.00000000E+00  0.00000000E+00  0.00000000E+00
  0.00000000E+00  0.00000000E+00  0.00000000E+00
  0.00000000E+00  0.00000000E+00  0.00000000E+00
  0.00000000E+00  0.00000000E+00  0.00000000E+00
  0.00000000E+00  0.00000000E+00  0.00000000E+00
  0.00000000E+00  0.00000000E+00  0.00000000E+00
  0.00000000E+00  0.00000000E+00  0.00000000E+00
  0.00000000E+00  0.00000000E+00  0.00000000E+00
  0.00000000E+00  0.00000000E+00  0.00000000E+00
  0.00000000E+00  0.00000000E+00  0.00000000E+00
  0.00000000E+00  0.00000000E+00  0.00000000E+00
  0.00000000E+00  0.00000000E+00  0.00000000E+00
  0.00000000E+00  0.00000000E+00  0.00000000E+00
  0.00000000E+00  0.00000000E+00  0.00000000E+00
  0.00000000E+00  0.00000000E+00  0.00000000E+00
  0.00000000E+00  0.00000000E+00  0.00000000E+00
  0.00000000E+00  0.00000000E+00  0.00000000E+00
  0.00000000E+00  0.00000000E+00  0.00000000E+00
  0.00000000E+00  0.00000000E+00  0.00000000E+00
  0.00000000E+00  0.00000000E+00  0.00000000E+00
  0.00000000E+00  0.00000000E+00  0.00000000E+00
  0.00000000E+00  0.00000000E+00  0.00000000E+00
  0.00000000E+00  0.00000000E+00  0.00000000E+00
  0.00000000E+00  0.00000000E+00  0.00000000E+00
  0.00000000E+00  0.00000000E+00  0.00000000E+00
  0.00000000E+00  0.00000000E+00  0.00000000E+00
  0.00000000E+00  0.00000000E+00  0.00000000E+00
  0.00000000E+00  0.00000000E+00  0.00000000E+00
  0.00000000E+00  0.00000000E+00  0.00000000E+00
  0.00000000E+00  0.00000000E+00  0.00000000E+00
  0.00000000E+00  0.00000000E+00  0.00000000E+00
  0.00000000E+00  0.00000000E+00  0.00000000E+00
  0.00000000E+00  0.00000000E+00  0.00000000E+00
  0.00000000E+00  0.00000000E+00  0.00000000E+00
  0.00000000E+00  0.00000000E+00  0.00000000E+00
  0.00000000E+00  0.00000000E+00  0.00000000E+00
  0.00000000E+00  0.00000000E+00  0.00000000E+00
  0.00000000E+00  0.00000000E+00  0.00000000E+00
  0.00000000E+00  0.00000000E+00  0.00000000E+00
  0.00000000E+00  0.00000000E+00  0.00000000E+00
  0.00000000E+00  0.00000000E+00  0.00000000E+00
  0.00000000E+00  0.00000000E+00  0.00000000E+00
  0.00000000E+00  0.00000000E+00  0.00000000E+00
  0.00000000E+00  0.00000000E+00  0.00000000E+00
