Ir  C  N Br                             
   1.00000000000000     
    10.9622130000000002    0.0000000000000000    0.0000000000000000
    -5.4811069999999997    9.4935550000000006    0.0000000000000000
     0.0000000000000000    0.0000000000000000   24.7129573799999989
   Ir   C    N    Br
    64     4     2     4
Selective dynamics
Direct
  0.7500000643925233  0.7500000284403470  0.3034845196661777   F   F   F
  0.0000000000000000  0.0000000000000000  0.3034845196661777   F   F   F
  0.0000000102134052  0.2500000094801180  0.3034845196661777   F   F   F
  0.0000000213390337  0.5000000189602289  0.3034845196661777   F   F   F
  0.0000000753392229  0.7500000284403470  0.3034845196661777   F   F   F
  0.2500000109466924  0.0000000000000000  0.3034845196661777   F   F   F
  0.2500000211600977  0.2500000094801180  0.3034845196661777   F   F   F
  0.2500000322857332  0.5000000189602289  0.3034845196661777   F   F   F
  0.5000000218933920  0.0000000000000000  0.3034845196661777   F   F   F
  0.5000000321067972  0.2500000094801180  0.3034845196661777   F   F   F
  0.5000000432324256  0.5000000189602289  0.3034845196661777   F   F   F
  0.5000000534458309  0.7500000284403470  0.3034845196661777   F   F   F
  0.7500000328400844  0.0000000000000000  0.3034845196661777   F   F   F
  0.7500000430534897  0.2500000094801180  0.3034845196661777   F   F   F
  0.7500000541791181  0.5000000189602289  0.3034845196661777   F   F   F
  0.2500000424991384  0.7500000284403470  0.3034845196661777   F   F   F
  0.0833330000000032  0.1666669999999968  0.3940302372665698   F   F   F
  0.0833330000000032  0.4166669999999968  0.3940302372665698   F   F   F
  0.0833330000000032  0.6666669999999968  0.3940302372665698   F   F   F
  0.0833330000000032  0.9166669999999968  0.3940302372665698   F   F   F
  0.3333330000000032  0.1666669999999968  0.3940302372665698   F   F   F
  0.3333330000000032  0.4166669999999968  0.3940302372665698   F   F   F
  0.3333330000000032  0.6666669999999968  0.3940302372665698   F   F   F
  0.3333330000000032  0.9166669999999968  0.3940302372665698   F   F   F
  0.5833330000000032  0.1666669999999968  0.3940302372665698   F   F   F
  0.5833330000000032  0.4166669999999968  0.3940302372665698   F   F   F
  0.5833330000000032  0.6666669999999968  0.3940302372665698   F   F   F
  0.5833330000000032  0.9166669999999968  0.3940302372665698   F   F   F
  0.8333330000000032  0.1666669999999968  0.3940302372665698   F   F   F
  0.8333330000000032  0.4166669999999968  0.3940302372665698   F   F   F
  0.8333330000000032  0.6666669999999968  0.3940302372665698   F   F   F
  0.8333330000000032  0.9166669999999968  0.3940302372665698   F   F   F
  0.9964741681526693  0.9953869346182423  0.5715038874967650   T   T   T
  0.9944184896366346  0.2473625345537825  0.5741013114738965   T   T   T
  0.0015776682356581  0.5006113830614596  0.5722389858578295   T   T   T
  0.0004858184464729  0.7493564068516916  0.5718875944679385   T   T   T
  0.2472323000785617  0.9937544386390602  0.5740740796805419   T   T   T
  0.2443728742056711  0.2435323201894155  0.5767323929282179   T   T   T
  0.2495165116153778  0.5006781732558455  0.5763637507279514   T   T   T
  0.2494793089108454  0.7487328862003260  0.5723979034922041   T   T   T
  0.5020182991193685  0.0015756771567465  0.5725616783416556   T   T   T
  0.5002585693317753  0.2501176385138820  0.5761573537470086   T   T   T
  0.5067577737769410  0.5059799895897484  0.5767325647409994   T   T   T
  0.5026538956440691  0.7557264019769673  0.5741457624778245   T   T   T
  0.7497413821394285  0.0003923990177786  0.5719510728782112   T   T   T
  0.7487546862879267  0.2483948589599037  0.5726346811201631   T   T   T
  0.7563057779065629  0.5029426393813544  0.5739978195321901   T   T   T
  0.7549093187836289  0.7538246703828392  0.5714790174791095   T   T   T
  0.1673325318727316  0.0842849185625827  0.4834215666734858   T   T   T
  0.1675830803707367  0.3331568195071394  0.4839470789412237   T   T   T
  0.1688368526154288  0.5809973670261109  0.4842442957258446   T   T   T
  0.1682641396723631  0.8337939768825430  0.4832390807555153   T   T   T
  0.4162745017820969  0.0846298051506040  0.4847200921529130   T   T   T
  0.4163607760716244  0.3335933176515850  0.4837472455785855   T   T   T
  0.4165628114631136  0.5824363520553359  0.4839008997561723   T   T   T
  0.4173597448365739  0.8328580310384361  0.4840416879953177   T   T   T
  0.6663404251213311  0.0837869685509383  0.4830476463234270   T   T   T
  0.6653896767920745  0.3339864257929345  0.4846343844423261   T   T   T
  0.6655707893409615  0.5827076541176465  0.4833746299641547   T   T   T
  0.6657354831582420  0.8325990485786884  0.4832823239811540   T   T   T
  0.9172171519574794  0.0839626028039612  0.4831069568148610   T   T   T
  0.9172537723642934  0.3326642287891203  0.4839987703963093   T   T   T
  0.9162654817559754  0.5820698848300875  0.4830564264088995   T   T   T
  0.9170712852719993  0.8329947422943165  0.4822301265651005   T   T   T
  0.5192172582825866  0.4418277194861969  0.6559153440006090   T   T   T
  0.4428873790175886  0.5180279410989288  0.6561919190729865   T   T   T
  0.2324798534621676  0.3075045876071922  0.6560904105227586   T   T   T
  0.3088176169112300  0.2313271473709615  0.6559318807008445   T   T   T
  0.2961761807402015  0.4542052892520583  0.6575223467235414   T   T   T
  0.4556105316753561  0.2950861506860766  0.6574619535997298   T   T   T
  0.2271019993502650  0.0310489438506205  0.6799170370545697   T   T   T
  0.0320672821178831  0.2241254238199528  0.6800398734844292   T   T   T
  0.7202272498840793  0.5239187872498263  0.6799246814991481   T   T   T
  0.5263648278001475  0.7183160796999107  0.6800347211293097   T   T   T
 
  0.00000000E+00  0.00000000E+00  0.00000000E+00
  0.00000000E+00  0.00000000E+00  0.00000000E+00
  0.00000000E+00  0.00000000E+00  0.00000000E+00
  0.00000000E+00  0.00000000E+00  0.00000000E+00
  0.00000000E+00  0.00000000E+00  0.00000000E+00
  0.00000000E+00  0.00000000E+00  0.00000000E+00
  0.00000000E+00  0.00000000E+00  0.00000000E+00
  0.00000000E+00  0.00000000E+00  0.00000000E+00
  0.00000000E+00  0.00000000E+00  0.00000000E+00
  0.00000000E+00  0.00000000E+00  0.00000000E+00
  0.00000000E+00  0.00000000E+00  0.00000000E+00
  0.00000000E+00  0.00000000E+00  0.00000000E+00
  0.00000000E+00  0.00000000E+00  0.00000000E+00
  0.00000000E+00  0.00000000E+00  0.00000000E+00
  0.00000000E+00  0.00000000E+00  0.00000000E+00
  0.00000000E+00  0.00000000E+00  0.00000000E+00
  0.00000000E+00  0.00000000E+00  0.00000000E+00
  0.00000000E+00  0.00000000E+00  0.00000000E+00
  0.00000000E+00  0.00000000E+00  0.00000000E+00
  0.00000000E+00  0.00000000E+00  0.00000000E+00
  0.00000000E+00  0.00000000E+00  0.00000000E+00
  0.00000000E+00  0.00000000E+00  0.00000000E+00
  0.00000000E+00  0.00000000E+00  0.00000000E+00
  0.00000000E+00  0.00000000E+00  0.00000000E+00
  0.00000000E+00  0.00000000E+00  0.00000000E+00
  0.00000000E+00  0.00000000E+00  0.00000000E+00
  0.00000000E+00  0.00000000E+00  0.00000000E+00
  0.00000000E+00  0.00000000E+00  0.00000000E+00
  0.00000000E+00  0.00000000E+00  0.00000000E+00
  0.00000000E+00  0.00000000E+00  0.00000000E+00
  0.00000000E+00  0.00000000E+00  0.00000000E+00
  0.00000000E+00  0.00000000E+00  0.00000000E+00
  0.00000000E+00  0.00000000E+00  0.00000000E+00
  0.00000000E+00  0.00000000E+00  0.00000000E+00
  0.00000000E+00  0.00000000E+00  0.00000000E+00
  0.00000000E+00  0.00000000E+00  0.00000000E+00
  0.00000000E+00  0.00000000E+00  0.00000000E+00
  0.00000000E+00  0.00000000E+00  0.00000000E+00
  0.00000000E+00  0.00000000E+00  0.00000000E+00
  0.00000000E+00  0.00000000E+00  0.00000000E+00
  0.00000000E+00  0.00000000E+00  0.00000000E+00
  0.00000000E+00  0.00000000E+00  0.00000000E+00
  0.00000000E+00  0.00000000E+00  0.00000000E+00
  0.00000000E+00  0.00000000E+00  0.00000000E+00
  0.00000000E+00  0.00000000E+00  0.00000000E+00
  0.00000000E+00  0.00000000E+00  0.00000000E+00
  0.00000000E+00  0.00000000E+00  0.00000000E+00
  0.00000000E+00  0.00000000E+00  0.00000000E+00
  0.00000000E+00  0.00000000E+00  0.00000000E+00
  0.00000000E+00  0.00000000E+00  0.00000000E+00
  0.00000000E+00  0.00000000E+00  0.00000000E+00
  0.00000000E+00  0.00000000E+00  0.00000000E+00
  0.00000000E+00  0.00000000E+00  0.00000000E+00
  0.00000000E+00  0.00000000E+00  0.00000000E+00
  0.00000000E+00  0.00000000E+00  0.00000000E+00
  0.00000000E+00  0.00000000E+00  0.00000000E+00
  0.00000000E+00  0.00000000E+00  0.00000000E+00
  0.00000000E+00  0.00000000E+00  0.00000000E+00
  0.00000000E+00  0.00000000E+00  0.00000000E+00
  0.00000000E+00  0.00000000E+00  0.00000000E+00
  0.00000000E+00  0.00000000E+00  0.00000000E+00
  0.00000000E+00  0.00000000E+00  0.00000000E+00
  0.00000000E+00  0.00000000E+00  0.00000000E+00
  0.00000000E+00  0.00000000E+00  0.00000000E+00
  0.00000000E+00  0.00000000E+00  0.00000000E+00
  0.00000000E+00  0.00000000E+00  0.00000000E+00
  0.00000000E+00  0.00000000E+00  0.00000000E+00
  0.00000000E+00  0.00000000E+00  0.00000000E+00
  0.00000000E+00  0.00000000E+00  0.00000000E+00
  0.00000000E+00  0.00000000E+00  0.00000000E+00
  0.00000000E+00  0.00000000E+00  0.00000000E+00
  0.00000000E+00  0.00000000E+00  0.00000000E+00
  0.00000000E+00  0.00000000E+00  0.00000000E+00
  0.00000000E+00  0.00000000E+00  0.00000000E+00
