Ir48 C6 F6                              
    1.000000000000000     
    10.9622135000000007    0.0000000000000000    0.0000000000000000
     0.0000000000000000   10.9622135000000007    0.0000000000000000
     0.0000000000000000    0.0000000000000000   16.7325000400000015
   Ir   C    F 
    48     6     6
Selective dynamics
Direct
  0.9987898718875385  0.2496240045678775  0.4094780849831920   T   T   T
  0.0000000000000000  0.4999999990877768  0.4096658600538845   T   T   T
  0.0012101281124615  0.7503759936076762  0.4094780849831920   T   T   T
  0.0000000000000000  0.0000000000000000  0.4094966029201643   T   T   T
  0.2500895716848177  0.2500933580131743  0.4098228935968322   T   T   T
  0.2508578741528353  0.4999713060758282  0.4104349594880219   T   T   T
  0.2527295524927027  0.7472720560199875  0.4121239660162956   T   T   T
  0.2496241867195224  0.9987877947451622  0.4094759207796272   T   T   T
  0.4999737847122248  0.2508575614200126  0.4104359338169346   T   T   T
  0.4999999990877768  0.4999999990877768  0.4107245757087981   T   T   T
  0.5000262134633289  0.7491424367555410  0.4104359338169346   T   T   T
  0.4999999990877768  0.0000000000000000  0.4096649343246668   T   T   T
  0.7472704456828509  0.2527279421555662  0.4121239660162956   T   T   T
  0.7491421240227183  0.5000286920997254  0.4104349594880219   T   T   T
  0.7499104264907359  0.7499066401623793  0.4098228935968322   T   T   T
  0.7503758114560313  0.0012122052548378  0.4094759207796272   T   T   T
  0.1248070332737825  0.1248088584427052  0.5210999099851676   T   T   T
  0.1231176122685937  0.3743518066370797  0.5211278664447292   T   T   T
  0.1232676744588588  0.6246757836076000  0.5219366866094077   T   T   T
  0.1248554167319611  0.8751446701477761  0.5212143920016103   T   T   T
  0.3743537104585783  0.1231168743993649  0.5211286328244285   T   T   T
  0.3724106957736169  0.3724111222495381  0.5218619273211118   T   T   T
  0.3743811120614993  0.6256212709139817  0.5315570701793888   T   T   T
  0.3753240731579766  0.8767307702257767  0.5219384253666703   T   T   T
  0.6246759259298003  0.1232692288620001  0.5219384253666703   T   T   T
  0.6256188870262775  0.3743787281737951  0.5315570701793888   T   T   T
  0.6275893033141600  0.6275888768382387  0.5218619273211118   T   T   T
  0.6256462886291985  0.8768831246884119  0.5211286328244285   T   T   T
  0.8751445823558157  0.1248553289400007  0.5212143920016103   T   T   T
  0.8767323246289180  0.3753242154801768  0.5219366866094077   T   T   T
  0.8768823868191831  0.6256481924506971  0.5211278664447292   T   T   T
  0.8751929658139943  0.8751911406450716  0.5210999099851676   T   T   T
  0.1250000002280558  0.1250000002280558  0.2988196616194330   F   F   F
  0.1250000002280558  0.3749999997719442  0.2988196616194330   F   F   F
  0.1250000002280558  0.6249999993158326  0.2988196616194330   F   F   F
  0.1250000002280558  0.8749999988597210  0.2988196616194330   F   F   F
  0.3749999997719442  0.1250000002280558  0.2988196616194330   F   F   F
  0.3749999997719442  0.3749999997719442  0.2988196616194330   F   F   F
  0.3749999997719442  0.6249999993158326  0.2988196616194330   F   F   F
  0.3749999997719442  0.8749999988597210  0.2988196616194330   F   F   F
  0.6249999993158326  0.1250000002280558  0.2988196616194330   F   F   F
  0.6249999993158326  0.3749999997719442  0.2988196616194330   F   F   F
  0.6249999993158326  0.6249999993158326  0.2988196616194330   F   F   F
  0.6249999993158326  0.8749999988597210  0.2988196616194330   F   F   F
  0.8749999988597210  0.1250000002280558  0.2988196616194330   F   F   F
  0.8749999988597210  0.3749999997719442  0.2988196616194330   F   F   F
  0.8749999988597210  0.6249999993158326  0.2988196616194330   F   F   F
  0.8749999988597210  0.8749999988597210  0.2988196616194330   F   F   F
  0.3706257671467910  0.5356935718784683  0.6469233841142739   T   T   T
  0.4643069991456912  0.6293741474024870  0.6469227355043756   T   T   T
  0.5979917453173442  0.5979939456520924  0.6427756407259793   T   T   T
  0.6293742027498013  0.4643064135259394  0.6469233841142739   T   T   T
  0.5356930291332702  0.3706258653686589  0.6469227355043756   T   T   T
  0.4020082537704326  0.4020060534356844  0.6427756407259793   T   T   T
  0.2682133083833023  0.5592192051981399  0.6908556835042106   T   T   T
  0.4407796647810969  0.7317867781583374  0.6908523149793879   T   T   T
  0.6664746523379748  0.6664756971258754  0.6954961118058023   T   T   T
  0.7317866907044746  0.4407807938896369  0.6908556835042106   T   T   T
  0.5592204054601879  0.2682132382617084  0.6908523149793879   T   T   T
  0.3335253759409866  0.3335243156452705  0.6954961118058023   T   T   T
 
  0.00000000E+00  0.00000000E+00  0.00000000E+00
  0.00000000E+00  0.00000000E+00  0.00000000E+00
  0.00000000E+00  0.00000000E+00  0.00000000E+00
  0.00000000E+00  0.00000000E+00  0.00000000E+00
  0.00000000E+00  0.00000000E+00  0.00000000E+00
  0.00000000E+00  0.00000000E+00  0.00000000E+00
  0.00000000E+00  0.00000000E+00  0.00000000E+00
  0.00000000E+00  0.00000000E+00  0.00000000E+00
  0.00000000E+00  0.00000000E+00  0.00000000E+00
  0.00000000E+00  0.00000000E+00  0.00000000E+00
  0.00000000E+00  0.00000000E+00  0.00000000E+00
  0.00000000E+00  0.00000000E+00  0.00000000E+00
  0.00000000E+00  0.00000000E+00  0.00000000E+00
  0.00000000E+00  0.00000000E+00  0.00000000E+00
  0.00000000E+00  0.00000000E+00  0.00000000E+00
  0.00000000E+00  0.00000000E+00  0.00000000E+00
  0.00000000E+00  0.00000000E+00  0.00000000E+00
  0.00000000E+00  0.00000000E+00  0.00000000E+00
  0.00000000E+00  0.00000000E+00  0.00000000E+00
  0.00000000E+00  0.00000000E+00  0.00000000E+00
  0.00000000E+00  0.00000000E+00  0.00000000E+00
  0.00000000E+00  0.00000000E+00  0.00000000E+00
  0.00000000E+00  0.00000000E+00  0.00000000E+00
  0.00000000E+00  0.00000000E+00  0.00000000E+00
  0.00000000E+00  0.00000000E+00  0.00000000E+00
  0.00000000E+00  0.00000000E+00  0.00000000E+00
  0.00000000E+00  0.00000000E+00  0.00000000E+00
  0.00000000E+00  0.00000000E+00  0.00000000E+00
  0.00000000E+00  0.00000000E+00  0.00000000E+00
  0.00000000E+00  0.00000000E+00  0.00000000E+00
  0.00000000E+00  0.00000000E+00  0.00000000E+00
  0.00000000E+00  0.00000000E+00  0.00000000E+00
  0.00000000E+00  0.00000000E+00  0.00000000E+00
  0.00000000E+00  0.00000000E+00  0.00000000E+00
  0.00000000E+00  0.00000000E+00  0.00000000E+00
  0.00000000E+00  0.00000000E+00  0.00000000E+00
  0.00000000E+00  0.00000000E+00  0.00000000E+00
  0.00000000E+00  0.00000000E+00  0.00000000E+00
  0.00000000E+00  0.00000000E+00  0.00000000E+00
  0.00000000E+00  0.00000000E+00  0.00000000E+00
  0.00000000E+00  0.00000000E+00  0.00000000E+00
  0.00000000E+00  0.00000000E+00  0.00000000E+00
  0.00000000E+00  0.00000000E+00  0.00000000E+00
  0.00000000E+00  0.00000000E+00  0.00000000E+00
  0.00000000E+00  0.00000000E+00  0.00000000E+00
  0.00000000E+00  0.00000000E+00  0.00000000E+00
  0.00000000E+00  0.00000000E+00  0.00000000E+00
  0.00000000E+00  0.00000000E+00  0.00000000E+00
  0.00000000E+00  0.00000000E+00  0.00000000E+00
  0.00000000E+00  0.00000000E+00  0.00000000E+00
  0.00000000E+00  0.00000000E+00  0.00000000E+00
  0.00000000E+00  0.00000000E+00  0.00000000E+00
  0.00000000E+00  0.00000000E+00  0.00000000E+00
  0.00000000E+00  0.00000000E+00  0.00000000E+00
  0.00000000E+00  0.00000000E+00  0.00000000E+00
  0.00000000E+00  0.00000000E+00  0.00000000E+00
  0.00000000E+00  0.00000000E+00  0.00000000E+00
  0.00000000E+00  0.00000000E+00  0.00000000E+00
  0.00000000E+00  0.00000000E+00  0.00000000E+00
  0.00000000E+00  0.00000000E+00  0.00000000E+00
