Cu48 C6 F6                              
    1.000000000000000     
    10.2424774999999997    0.0000000000000000    0.0000000000000000
     0.0000000000000000   10.2424774999999997    0.0000000000000000
     0.0000000000000000    0.0000000000000000   16.5484553599999984
   Cu   C    F 
    48     6     6
Selective dynamics
Direct
  0.2500096919019370  0.9999203246390351  0.4093727837630468   T   T   T
  0.2498213287749564  0.2498215156319148  0.4091922367237828   T   T   T
  0.2495694504542314  0.5000139108363371  0.4090554332006491   T   T   T
  0.2498401784447495  0.7501595353831547  0.4092499723218239   T   T   T
  0.4999999990236716  0.0000000000000000  0.4093900211162236   T   T   T
  0.5000138254903490  0.2495694949916043  0.4090551523431358   T   T   T
  0.4999999990236716  0.4999999990236716  0.4085021688118999   T   T   T
  0.4999861725569943  0.7504305030557390  0.4090551523431358   T   T   T
  0.7499903061454063  0.0000796753609649  0.4093727837630468   T   T   T
  0.7501598196025938  0.2498404626641886  0.4092499723218239   T   T   T
  0.7504305475931119  0.4999860872110062  0.4090554332006491   T   T   T
  0.7501786692723869  0.7501784824154285  0.4091922367237828   T   T   T
  0.0000000000000000  0.0000000000000000  0.4093104420897973   T   T   T
  0.9999202645298197  0.2500097917292479  0.4093730897992600   T   T   T
  0.0000000000000000  0.4999999990236716  0.4093906829350971   T   T   T
  0.0000797354701803  0.7499902063180954  0.4093730897992600   T   T   T
  0.1249439387063234  0.1249437034279737  0.5164599891389443   T   T   T
  0.1250562078887540  0.3749338408062926  0.5163622984121332   T   T   T
  0.1251723827084703  0.6249885366537526  0.5166356642425498   T   T   T
  0.1250089257158109  0.8749912428706423  0.5165249290352349   T   T   T
  0.3749340231695797  0.1250560280761306  0.5163616428140116   T   T   T
  0.3752441491647502  0.3752440826796501  0.5152313538647064   T   T   T
  0.3752363072593781  0.6247638424909994  0.5152226921879901   T   T   T
  0.3750116754841955  0.8748279278585755  0.5166355002922103   T   T   T
  0.6249883225631550  0.1251720701887749  0.5166355002922103   T   T   T
  0.6247636907879723  0.3752361555563510  0.5152226921879901   T   T   T
  0.6247558498589285  0.6247559153677003  0.5152313538647064   T   T   T
  0.6250659758540991  0.8749439699712198  0.5163616428140116   T   T   T
  0.8749910733078607  0.1250087551767081  0.5165249290352349   T   T   T
  0.8748276153388730  0.3750114613935978  0.5166356642425498   T   T   T
  0.8749437911349176  0.6250661572410579  0.5163622984121332   T   T   T
  0.8750560603173483  0.8750562946193767  0.5164599891389443   T   T   T
  0.1250000002440785  0.1249999992677573  0.3021430031521675   F   F   F
  0.1250000002440785  0.3749999997559215  0.3021430031521675   F   F   F
  0.1250000002440785  0.6249999982914289  0.3021430031521675   F   F   F
  0.1250000002440785  0.8749999987795931  0.3021430031521675   F   F   F
  0.3749999997559215  0.1249999992677573  0.3021430031521675   F   F   F
  0.3749999997559215  0.3749999997559215  0.3021430031521675   F   F   F
  0.3749999997559215  0.6249999982914289  0.3021430031521675   F   F   F
  0.3749999997559215  0.8749999987795931  0.3021430031521675   F   F   F
  0.6249999982914289  0.1249999992677573  0.3021430031521675   F   F   F
  0.6249999982914289  0.3749999997559215  0.3021430031521675   F   F   F
  0.6249999992677573  0.6249999982914289  0.3021430031521675   F   F   F
  0.6249999992677573  0.8749999987795931  0.3021430031521675   F   F   F
  0.8749999987795931  0.1249999992677573  0.3021430031521675   F   F   F
  0.8749999978032648  0.3749999997559215  0.3021430031521675   F   F   F
  0.8749999987795931  0.6249999982914289  0.3021430031521675   F   F   F
  0.8749999987795931  0.8749999987795931  0.3021430031521675   F   F   F
  0.3682029428073577  0.5352849782557740  0.6967609685231508   T   T   T
  0.4646887414088638  0.6318211041067485  0.6967619677053705   T   T   T
  0.5963865543684008  0.5963361323810474  0.6969089751882649   T   T   T
  0.6317970259502061  0.4647150051466795  0.6967609685231508   T   T   T
  0.5353112888572511  0.3681789085854916  0.6967619677053705   T   T   T
  0.4036134446552708  0.4036638656663030  0.6969089751882649   T   T   T
  0.2410835900112644  0.5688432151722438  0.6989767664305049   T   T   T
  0.4311564201601712  0.7589064563218102  0.6989766847199803   T   T   T
  0.6893733561103232  0.6893840923790719  0.6996258564214699   T   T   T
  0.7589164090124072  0.4311567828750995  0.6989767664305049   T   T   T
  0.5688436550169556  0.2410935612520646  0.6989766847199803   T   T   T
  0.3106266741557917  0.3106159193368399  0.6996258564214699   T   T   T
 
  0.00000000E+00  0.00000000E+00  0.00000000E+00
  0.00000000E+00  0.00000000E+00  0.00000000E+00
  0.00000000E+00  0.00000000E+00  0.00000000E+00
  0.00000000E+00  0.00000000E+00  0.00000000E+00
  0.00000000E+00  0.00000000E+00  0.00000000E+00
  0.00000000E+00  0.00000000E+00  0.00000000E+00
  0.00000000E+00  0.00000000E+00  0.00000000E+00
  0.00000000E+00  0.00000000E+00  0.00000000E+00
  0.00000000E+00  0.00000000E+00  0.00000000E+00
  0.00000000E+00  0.00000000E+00  0.00000000E+00
  0.00000000E+00  0.00000000E+00  0.00000000E+00
  0.00000000E+00  0.00000000E+00  0.00000000E+00
  0.00000000E+00  0.00000000E+00  0.00000000E+00
  0.00000000E+00  0.00000000E+00  0.00000000E+00
  0.00000000E+00  0.00000000E+00  0.00000000E+00
  0.00000000E+00  0.00000000E+00  0.00000000E+00
  0.00000000E+00  0.00000000E+00  0.00000000E+00
  0.00000000E+00  0.00000000E+00  0.00000000E+00
  0.00000000E+00  0.00000000E+00  0.00000000E+00
  0.00000000E+00  0.00000000E+00  0.00000000E+00
  0.00000000E+00  0.00000000E+00  0.00000000E+00
  0.00000000E+00  0.00000000E+00  0.00000000E+00
  0.00000000E+00  0.00000000E+00  0.00000000E+00
  0.00000000E+00  0.00000000E+00  0.00000000E+00
  0.00000000E+00  0.00000000E+00  0.00000000E+00
  0.00000000E+00  0.00000000E+00  0.00000000E+00
  0.00000000E+00  0.00000000E+00  0.00000000E+00
  0.00000000E+00  0.00000000E+00  0.00000000E+00
  0.00000000E+00  0.00000000E+00  0.00000000E+00
  0.00000000E+00  0.00000000E+00  0.00000000E+00
  0.00000000E+00  0.00000000E+00  0.00000000E+00
  0.00000000E+00  0.00000000E+00  0.00000000E+00
  0.00000000E+00  0.00000000E+00  0.00000000E+00
  0.00000000E+00  0.00000000E+00  0.00000000E+00
  0.00000000E+00  0.00000000E+00  0.00000000E+00
  0.00000000E+00  0.00000000E+00  0.00000000E+00
  0.00000000E+00  0.00000000E+00  0.00000000E+00
  0.00000000E+00  0.00000000E+00  0.00000000E+00
  0.00000000E+00  0.00000000E+00  0.00000000E+00
  0.00000000E+00  0.00000000E+00  0.00000000E+00
  0.00000000E+00  0.00000000E+00  0.00000000E+00
  0.00000000E+00  0.00000000E+00  0.00000000E+00
  0.00000000E+00  0.00000000E+00  0.00000000E+00
  0.00000000E+00  0.00000000E+00  0.00000000E+00
  0.00000000E+00  0.00000000E+00  0.00000000E+00
  0.00000000E+00  0.00000000E+00  0.00000000E+00
  0.00000000E+00  0.00000000E+00  0.00000000E+00
  0.00000000E+00  0.00000000E+00  0.00000000E+00
  0.00000000E+00  0.00000000E+00  0.00000000E+00
  0.00000000E+00  0.00000000E+00  0.00000000E+00
  0.00000000E+00  0.00000000E+00  0.00000000E+00
  0.00000000E+00  0.00000000E+00  0.00000000E+00
  0.00000000E+00  0.00000000E+00  0.00000000E+00
  0.00000000E+00  0.00000000E+00  0.00000000E+00
  0.00000000E+00  0.00000000E+00  0.00000000E+00
  0.00000000E+00  0.00000000E+00  0.00000000E+00
  0.00000000E+00  0.00000000E+00  0.00000000E+00
  0.00000000E+00  0.00000000E+00  0.00000000E+00
  0.00000000E+00  0.00000000E+00  0.00000000E+00
  0.00000000E+00  0.00000000E+00  0.00000000E+00
