Ir48 C6 H2 Br4                          
    1.000000000000000     
    10.9622135000000007    0.0000000000000000    0.0000000000000000
     0.0000000000000000   10.9622135000000007    0.0000000000000000
     0.0000000000000000    0.0000000000000000   16.7382112800000016
   Ir   C    H    Br
    48     6     2     4
Selective dynamics
Direct
  0.9996740065139420  0.2508847159906296  0.4079251837714892   T   T   T
  0.0000196633699758  0.5000111179389748  0.4091468321479539   T   T   T
  0.0003779688176380  0.7490879729889528  0.4079241440583985   T   T   T
  0.0000528676056391  0.9999761607390738  0.4066092247885109   T   T   T
  0.2516838309834384  0.2516870485212195  0.4097127782736081   T   T   T
  0.2496265474680257  0.5009059661225805  0.4121237583171862   T   T   T
  0.2532176136446793  0.7467919985167910  0.4113319157476880   T   T   T
  0.2509092676810596  0.9996459612734228  0.4079156546318785   T   T   T
  0.5008734303867968  0.2495994666671919  0.4120889234763681   T   T   T
  0.4999290529158316  0.5000684363331516  0.4100130240304836   T   T   T
  0.4990972647474692  0.7503540970966185  0.4121207507186213   T   T   T
  0.5000029924562028  0.9999798309715260  0.4091517025163824   T   T   T
  0.7467884966667810  0.2532123376538209  0.4111614070785095   T   T   T
  0.7503993427298496  0.4991356854535098  0.4120809126125593   T   T   T
  0.7483285763735310  0.7483106536085202  0.4096983549049114   T   T   T
  0.7491125455958070  0.0003509269938533  0.4079340603546555   T   T   T
  0.1228113967944537  0.1228116335222253  0.5182649870254252   T   T   T
  0.1267105423542034  0.3735785296768412  0.5224837317117164   T   T   T
  0.1246631401569758  0.6258554059967594  0.5226571218355218   T   T   T
  0.1228871286820095  0.8771650464097291  0.5184838907206881   T   T   T
  0.3736023445109069  0.1266615370129358  0.5224637037446769   T   T   T
  0.3716070786905163  0.3717806997494435  0.5241194844248369   T   T   T
  0.3702731286975549  0.6297546106585372  0.5356579914398694   T   T   T
  0.3741371309867745  0.8753513952273906  0.5226691472722820   T   T   T
  0.6259758172576397  0.1246758195111255  0.5226312203137198   T   T   T
  0.6300308700066353  0.3699853914502995  0.5354908263662992   T   T   T
  0.6282141719998506  0.6283939034693944  0.5241167853722146   T   T   T
  0.6263936423837109  0.8732727565483103  0.5224722745124595   T   T   T
  0.8772080030056060  0.1228517145769317  0.5184696824050050   T   T   T
  0.8753379434028048  0.3740152306498103  0.5226261174806766   T   T   T
  0.8733130012720878  0.6263713901382033  0.5224517152305950   T   T   T
  0.8771993847714867  0.8771872408923045  0.5182308987810273   T   T   T
  0.1250000002280558  0.1250000002280558  0.2987177014532207   F   F   F
  0.1250000002280558  0.3749999997719442  0.2987177014532207   F   F   F
  0.1250000002280558  0.6249999993158326  0.2987177014532207   F   F   F
  0.1250000002280558  0.8749999988597210  0.2987177014532207   F   F   F
  0.3749999997719442  0.1250000002280558  0.2987177014532207   F   F   F
  0.3749999997719442  0.3749999997719442  0.2987177014532207   F   F   F
  0.3749999997719442  0.6249999993158326  0.2987177014532207   F   F   F
  0.3749999997719442  0.8749999988597210  0.2987177014532207   F   F   F
  0.6249999993158326  0.1250000002280558  0.2987177014532207   F   F   F
  0.6249999993158326  0.3749999997719442  0.2987177014532207   F   F   F
  0.6249999993158326  0.6249999993158326  0.2987177014532207   F   F   F
  0.6249999993158326  0.8749999988597210  0.2987177014532207   F   F   F
  0.8749999988597210  0.1250000002280558  0.2987177014532207   F   F   F
  0.8749999988597210  0.3749999997719442  0.2987177014532207   F   F   F
  0.8749999988597210  0.6249999993158326  0.2987177014532207   F   F   F
  0.8749999988597210  0.8749999988597210  0.2987177014532207   F   F   F
  0.6014056064013360  0.6039546010853130  0.6486280114952763   T   T   T
  0.6156796905546216  0.4723351739022874  0.6362377044771677   T   T   T
  0.5277771785277494  0.3843364504793669  0.6362379045318747   T   T   T
  0.3960153913133198  0.3987375437500873  0.6486236269031664   T   T   T
  0.3815488266549636  0.5309242669984826  0.6384207213232358   T   T   T
  0.4690202419344871  0.6185023892596391  0.6384150064571372   T   T   T
  0.6589125067242136  0.6602779082204577  0.6867961740281672   T   T   T
  0.3397327352184902  0.3410930766793072  0.6867929504859660   T   T   T
  0.0016219775340005  0.3359875448101590  0.6476063668103720   T   T   T
  0.6646561887912057  0.9983195039735691  0.6475146905986904   T   T   T
  0.9983699347827724  0.6645862625704666  0.6475434870862600   T   T   T
  0.3359058818950587  0.0015799764903477  0.6476395183250148   T   T   T
 
  0.00000000E+00  0.00000000E+00  0.00000000E+00
  0.00000000E+00  0.00000000E+00  0.00000000E+00
  0.00000000E+00  0.00000000E+00  0.00000000E+00
  0.00000000E+00  0.00000000E+00  0.00000000E+00
  0.00000000E+00  0.00000000E+00  0.00000000E+00
  0.00000000E+00  0.00000000E+00  0.00000000E+00
  0.00000000E+00  0.00000000E+00  0.00000000E+00
  0.00000000E+00  0.00000000E+00  0.00000000E+00
  0.00000000E+00  0.00000000E+00  0.00000000E+00
  0.00000000E+00  0.00000000E+00  0.00000000E+00
  0.00000000E+00  0.00000000E+00  0.00000000E+00
  0.00000000E+00  0.00000000E+00  0.00000000E+00
  0.00000000E+00  0.00000000E+00  0.00000000E+00
  0.00000000E+00  0.00000000E+00  0.00000000E+00
  0.00000000E+00  0.00000000E+00  0.00000000E+00
  0.00000000E+00  0.00000000E+00  0.00000000E+00
  0.00000000E+00  0.00000000E+00  0.00000000E+00
  0.00000000E+00  0.00000000E+00  0.00000000E+00
  0.00000000E+00  0.00000000E+00  0.00000000E+00
  0.00000000E+00  0.00000000E+00  0.00000000E+00
  0.00000000E+00  0.00000000E+00  0.00000000E+00
  0.00000000E+00  0.00000000E+00  0.00000000E+00
  0.00000000E+00  0.00000000E+00  0.00000000E+00
  0.00000000E+00  0.00000000E+00  0.00000000E+00
  0.00000000E+00  0.00000000E+00  0.00000000E+00
  0.00000000E+00  0.00000000E+00  0.00000000E+00
  0.00000000E+00  0.00000000E+00  0.00000000E+00
  0.00000000E+00  0.00000000E+00  0.00000000E+00
  0.00000000E+00  0.00000000E+00  0.00000000E+00
  0.00000000E+00  0.00000000E+00  0.00000000E+00
  0.00000000E+00  0.00000000E+00  0.00000000E+00
  0.00000000E+00  0.00000000E+00  0.00000000E+00
  0.00000000E+00  0.00000000E+00  0.00000000E+00
  0.00000000E+00  0.00000000E+00  0.00000000E+00
  0.00000000E+00  0.00000000E+00  0.00000000E+00
  0.00000000E+00  0.00000000E+00  0.00000000E+00
  0.00000000E+00  0.00000000E+00  0.00000000E+00
  0.00000000E+00  0.00000000E+00  0.00000000E+00
  0.00000000E+00  0.00000000E+00  0.00000000E+00
  0.00000000E+00  0.00000000E+00  0.00000000E+00
  0.00000000E+00  0.00000000E+00  0.00000000E+00
  0.00000000E+00  0.00000000E+00  0.00000000E+00
  0.00000000E+00  0.00000000E+00  0.00000000E+00
  0.00000000E+00  0.00000000E+00  0.00000000E+00
  0.00000000E+00  0.00000000E+00  0.00000000E+00
  0.00000000E+00  0.00000000E+00  0.00000000E+00
  0.00000000E+00  0.00000000E+00  0.00000000E+00
  0.00000000E+00  0.00000000E+00  0.00000000E+00
  0.00000000E+00  0.00000000E+00  0.00000000E+00
  0.00000000E+00  0.00000000E+00  0.00000000E+00
  0.00000000E+00  0.00000000E+00  0.00000000E+00
  0.00000000E+00  0.00000000E+00  0.00000000E+00
  0.00000000E+00  0.00000000E+00  0.00000000E+00
  0.00000000E+00  0.00000000E+00  0.00000000E+00
  0.00000000E+00  0.00000000E+00  0.00000000E+00
  0.00000000E+00  0.00000000E+00  0.00000000E+00
  0.00000000E+00  0.00000000E+00  0.00000000E+00
  0.00000000E+00  0.00000000E+00  0.00000000E+00
  0.00000000E+00  0.00000000E+00  0.00000000E+00
  0.00000000E+00  0.00000000E+00  0.00000000E+00
