Pt  C  N Br                             
   1.00000000000000     
    11.2480069999999994    0.0000000000000000    0.0000000000000000
    -5.6240030000000001    9.7410599999999992    0.0000000000000000
     0.0000000000000000    0.0000000000000000   24.8879693399999979
   Pt   C    N    Br
    64     4     2     4
Selective dynamics
Direct
  0.9999999587182344  0.7499999743354451  0.3013504194553178   F   F   F
  0.2499999964438118  0.0000000000000000  0.3013504194553178   F   F   F
  0.2499999825579735  0.2499999917873410  0.3013504194553178   F   F   F
  0.2499999690478916  0.4999999825481041  0.3013504194553178   F   F   F
  0.2499999551620533  0.7499999743354451  0.3013504194553178   F   F   F
  0.4999999928876306  0.0000000000000000  0.3013504194553178   F   F   F
  0.4999999790017924  0.2499999917873410  0.3013504194553178   F   F   F
  0.4999999654917033  0.4999999825481041  0.3013504194553178   F   F   F
  0.7499999893314424  0.0000000000000000  0.3013504194553178   F   F   F
  0.7499999754456042  0.2499999917873410  0.3013504194553178   F   F   F
  0.7499999619355222  0.4999999825481041  0.3013504194553178   F   F   F
  0.7499999480496840  0.7499999743354451  0.3013504194553178   F   F   F
  0.0000000000000000  0.0000000000000000  0.3013504194553178   F   F   F
  0.9999999861141617  0.2499999917873410  0.3013504194553178   F   F   F
  0.9999999583793340  0.4999999825481041  0.3013504194553178   F   F   F
  0.4999999516058651  0.7499999743354451  0.3013504194553178   F   F   F
  0.0833330000000032  0.1666669999999968  0.3936034172243978   F   F   F
  0.0833330000000032  0.4166669999999968  0.3936034172243978   F   F   F
  0.0833330000000032  0.6666669999999968  0.3936034172243978   F   F   F
  0.0833330000000032  0.9166669999999968  0.3936034172243978   F   F   F
  0.3333330000000032  0.1666669999999968  0.3936034172243978   F   F   F
  0.3333330000000032  0.4166669999999968  0.3936034172243978   F   F   F
  0.3333330000000032  0.6666669999999968  0.3936034172243978   F   F   F
  0.3333330000000032  0.9166669999999968  0.3936034172243978   F   F   F
  0.5833330000000032  0.1666669999999968  0.3936034172243978   F   F   F
  0.5833330000000032  0.4166669999999968  0.3936034172243978   F   F   F
  0.5833330000000032  0.6666669999999968  0.3936034172243978   F   F   F
  0.5833330000000032  0.9166669999999968  0.3936034172243978   F   F   F
  0.8333330000000032  0.1666669999999968  0.3936034172243978   F   F   F
  0.8333330000000032  0.4166669999999968  0.3936034172243978   F   F   F
  0.8333330000000032  0.6666669999999968  0.3936034172243978   F   F   F
  0.8333330000000032  0.9166669999999968  0.3936034172243978   F   F   F
  0.2496796423402938  0.2496350403335592  0.5780173461092842   T   T   T
  0.2498285835666101  0.5001984939876318  0.5794803120282888   T   T   T
  0.2501461991166200  0.7503070521628259  0.5788862156825552   T   T   T
  0.2500002035906121 -0.0000013003752196  0.5787053568355912   T   T   T
  0.5000675938897433  0.2496775497510205  0.5793709969280265   T   T   T
  0.5000533597469808  0.5001656491197294  0.5765173951703363   T   T   T
  0.4997468605028662  0.7502510439137950  0.5778328583675177   T   T   T
  0.4996991425457810  0.9998557225629262  0.5789060449104225   T   T   T
  0.7502954646168657  0.2502934337944397  0.5788206115084136   T   T   T
  0.7499345862613293  0.5001106777330160  0.5780838432463709   T   T   T
  0.7498271683865108  0.7499841555240691  0.5765320279174282   T   T   T
  0.7497876912254507  0.0001523818986941  0.5794974301790592   T   T   T
  0.9998915209273413  0.2500804299214194  0.5786072442067681   T   T   T
  0.9997138549916190  0.4997190413635754  0.5788156389658858   T   T   T
  0.0003317075804763  0.7499535273368315  0.5793799777515098   T   T   T
  0.0003580649873432  0.0003107115764111  0.5780304918870973   T   T   T
  0.1668138986895653  0.0831709580923897  0.4850792882918506   T   T   T
  0.1666544630571068  0.3336061996478241  0.4853212448969147   T   T   T
  0.1666714210848154  0.5830513475502712  0.4856180050017596   T   T   T
  0.1665632460374485  0.8331270762541104  0.4854852231672001   T   T   T
  0.4168754128932775  0.0834172686131626  0.4854925574354292   T   T   T
  0.4164819865078887  0.3324286214602959  0.4849794213281756   T   T   T
  0.4159315133699161  0.5834536310976162  0.4848100663833086   T   T   T
  0.4161776500327302  0.8338406488778377  0.4852527314471832   T   T   T
  0.6669585799253304  0.0833172682131998  0.4856329284676497   T   T   T
  0.6662589590860754  0.3327371540697019  0.4853770168723069   T   T   T
  0.6670039056521054  0.5830207744064840  0.4844829877065251   T   T   T
  0.6665658384501411  0.8340820380759785  0.4848164420742654   T   T   T
  0.9163923875495419  0.0833394269304168  0.4853320363834818   T   T   T
  0.9164263526145662  0.3335729157956211  0.4853891209357907   T   T   T
  0.9172624101762967  0.5837591670896554  0.4853781289577191   T   T   T
  0.9175806527811473  0.8335318930674446  0.4849896904657959   T   T   T
  0.4868730784887116  0.5596029359181677  0.7004541159736347   T   T   T
  0.5594684222006966  0.4870279907262657  0.7004662106932666   T   T   T
  0.7629590715490551  0.6904902664455494  0.7004739626818169   T   T   T
  0.6903831921362842  0.7630685351583751  0.7004469932064149   T   T   T
  0.6953986655580005  0.5545952018960132  0.7011331263075531   T   T   T
  0.5544536685109392  0.6954981035556559  0.7010851014944534   T   T   T
  0.7779576182414895  0.9576470968934058  0.6997120743987190   T   T   T
  0.9573937470528294  0.7781151292202925  0.6997343332029359   T   T   T
  0.2922353062294096  0.4719877077045933  0.6996799057953444   T   T   T
  0.4719083691562099  0.2925373537546161  0.6996943910680467   T   T   T
 
  0.00000000E+00  0.00000000E+00  0.00000000E+00
  0.00000000E+00  0.00000000E+00  0.00000000E+00
  0.00000000E+00  0.00000000E+00  0.00000000E+00
  0.00000000E+00  0.00000000E+00  0.00000000E+00
  0.00000000E+00  0.00000000E+00  0.00000000E+00
  0.00000000E+00  0.00000000E+00  0.00000000E+00
  0.00000000E+00  0.00000000E+00  0.00000000E+00
  0.00000000E+00  0.00000000E+00  0.00000000E+00
  0.00000000E+00  0.00000000E+00  0.00000000E+00
  0.00000000E+00  0.00000000E+00  0.00000000E+00
  0.00000000E+00  0.00000000E+00  0.00000000E+00
  0.00000000E+00  0.00000000E+00  0.00000000E+00
  0.00000000E+00  0.00000000E+00  0.00000000E+00
  0.00000000E+00  0.00000000E+00  0.00000000E+00
  0.00000000E+00  0.00000000E+00  0.00000000E+00
  0.00000000E+00  0.00000000E+00  0.00000000E+00
  0.00000000E+00  0.00000000E+00  0.00000000E+00
  0.00000000E+00  0.00000000E+00  0.00000000E+00
  0.00000000E+00  0.00000000E+00  0.00000000E+00
  0.00000000E+00  0.00000000E+00  0.00000000E+00
  0.00000000E+00  0.00000000E+00  0.00000000E+00
  0.00000000E+00  0.00000000E+00  0.00000000E+00
  0.00000000E+00  0.00000000E+00  0.00000000E+00
  0.00000000E+00  0.00000000E+00  0.00000000E+00
  0.00000000E+00  0.00000000E+00  0.00000000E+00
  0.00000000E+00  0.00000000E+00  0.00000000E+00
  0.00000000E+00  0.00000000E+00  0.00000000E+00
  0.00000000E+00  0.00000000E+00  0.00000000E+00
  0.00000000E+00  0.00000000E+00  0.00000000E+00
  0.00000000E+00  0.00000000E+00  0.00000000E+00
  0.00000000E+00  0.00000000E+00  0.00000000E+00
  0.00000000E+00  0.00000000E+00  0.00000000E+00
  0.00000000E+00  0.00000000E+00  0.00000000E+00
  0.00000000E+00  0.00000000E+00  0.00000000E+00
  0.00000000E+00  0.00000000E+00  0.00000000E+00
  0.00000000E+00  0.00000000E+00  0.00000000E+00
  0.00000000E+00  0.00000000E+00  0.00000000E+00
  0.00000000E+00  0.00000000E+00  0.00000000E+00
  0.00000000E+00  0.00000000E+00  0.00000000E+00
  0.00000000E+00  0.00000000E+00  0.00000000E+00
  0.00000000E+00  0.00000000E+00  0.00000000E+00
  0.00000000E+00  0.00000000E+00  0.00000000E+00
  0.00000000E+00  0.00000000E+00  0.00000000E+00
  0.00000000E+00  0.00000000E+00  0.00000000E+00
  0.00000000E+00  0.00000000E+00  0.00000000E+00
  0.00000000E+00  0.00000000E+00  0.00000000E+00
  0.00000000E+00  0.00000000E+00  0.00000000E+00
  0.00000000E+00  0.00000000E+00  0.00000000E+00
  0.00000000E+00  0.00000000E+00  0.00000000E+00
  0.00000000E+00  0.00000000E+00  0.00000000E+00
  0.00000000E+00  0.00000000E+00  0.00000000E+00
  0.00000000E+00  0.00000000E+00  0.00000000E+00
  0.00000000E+00  0.00000000E+00  0.00000000E+00
  0.00000000E+00  0.00000000E+00  0.00000000E+00
  0.00000000E+00  0.00000000E+00  0.00000000E+00
  0.00000000E+00  0.00000000E+00  0.00000000E+00
  0.00000000E+00  0.00000000E+00  0.00000000E+00
  0.00000000E+00  0.00000000E+00  0.00000000E+00
  0.00000000E+00  0.00000000E+00  0.00000000E+00
  0.00000000E+00  0.00000000E+00  0.00000000E+00
  0.00000000E+00  0.00000000E+00  0.00000000E+00
  0.00000000E+00  0.00000000E+00  0.00000000E+00
  0.00000000E+00  0.00000000E+00  0.00000000E+00
  0.00000000E+00  0.00000000E+00  0.00000000E+00
  0.00000000E+00  0.00000000E+00  0.00000000E+00
  0.00000000E+00  0.00000000E+00  0.00000000E+00
  0.00000000E+00  0.00000000E+00  0.00000000E+00
  0.00000000E+00  0.00000000E+00  0.00000000E+00
  0.00000000E+00  0.00000000E+00  0.00000000E+00
  0.00000000E+00  0.00000000E+00  0.00000000E+00
  0.00000000E+00  0.00000000E+00  0.00000000E+00
  0.00000000E+00  0.00000000E+00  0.00000000E+00
  0.00000000E+00  0.00000000E+00  0.00000000E+00
  0.00000000E+00  0.00000000E+00  0.00000000E+00
