Ir  C  F                                
    1.000000000000000     
    10.9622135000000007    0.0000000000000000    0.0000000000000000
     0.0000000000000000   15.5029109999999992    0.0000000000000000
     0.0000000000000000    0.0000000000000000   22.1108300437499992
   Ir   C    F 
    64     6     6
Selective dynamics
Direct
  0.2499999995438884  0.0000000000000000  0.3392002916742598   F   F   F
  0.9999999981755536  0.4999999993549622  0.3392002916742598   F   F   F
  0.2499999995438884  0.2499999993549622  0.3392002916742598   F   F   F
  0.2499999995438884  0.4999999993549622  0.3392002916742598   F   F   F
  0.2499999995438884  0.7499999987099173  0.3392002916742598   F   F   F
  0.4999999990877768  0.0000000000000000  0.3392002916742598   F   F   F
  0.4999999990877768  0.2499999993549622  0.3392002916742598   F   F   F
  0.4999999990877768  0.4999999993549622  0.3392002916742598   F   F   F
  0.4999999990877768  0.7499999987099173  0.3392002916742598   F   F   F
  0.7499999986316652  0.0000000000000000  0.3392002916742598   F   F   F
  0.7499999986316652  0.2499999993549622  0.3392002916742598   F   F   F
  0.7499999986316652  0.4999999993549622  0.3392002916742598   F   F   F
  0.0000000000000000  0.0000000000000000  0.3392002916742598   F   F   F
  0.9999999981755536  0.2499999993549622  0.3392002916742598   F   F   F
  0.9999999981755536  0.7499999987099173  0.3392002916742598   F   F   F
  0.7499999986316652  0.7499999987099173  0.3392002916742598   F   F   F
  0.2499943959728689 -0.0000005366412881  0.4631733936455008   T   T   T
  0.2499628614118031  0.2500227428355115  0.4631267504870689   T   T   T
  0.2499681027088355  0.5000239898814535  0.4631965126147089   T   T   T
  0.2499670163329371  0.7499682652890292  0.4631497175867917   T   T   T
  0.4999999990877768 -0.0000000000000000  0.4630102145267114   T   T   T
  0.4999954551115716  0.2499117372318265  0.4629428715695314   T   T   T
  0.4999999990877768  0.4999999993549622  0.4627633671675243   T   T   T
  0.5000045430639818  0.7500882608330530  0.4629428715695314   T   T   T
  0.7500056022026849  0.0000005366412881  0.4631733936455008   T   T   T
  0.7500329818426167  0.2500317327758504  0.4631497175867917   T   T   T
  0.7500318954667179  0.4999760088284708  0.4631965126147089   T   T   T
  0.7500371367637507  0.7499772552293680  0.4631267509393365   T   T   T
  0.0000000000000000 -0.0000000000000000  0.4628668310031664   T   T   T
 -0.0000095129032410  0.2500693359736764  0.4629555425678128   T   T   T
  0.9999999981755536  0.4999999993549622  0.4630526723243141   T   T   T
  0.0000095092543484  0.7499306620912033  0.4629555430200804   T   T   T
  0.1249131972280544  0.1250589981626841  0.5199503824785702   T   T   T
  0.1249371146530055  0.3750546284987157  0.5199765263206305   T   T   T
  0.1250103490770449  0.6249398031174731  0.5199753917171382   T   T   T
  0.1248886999802248  0.8749458696932878  0.5199479526736351   T   T   T
  0.3750684443843524  0.1250755613021428  0.5199619054378648   T   T   T
  0.3750470863613676  0.3750483052925313  0.5199619759823305   T   T   T
  0.3751630157611457  0.6249653161747393  0.5199819862996821   T   T   T
  0.3750647195952365  0.8749320263306143  0.5199564055531721   T   T   T
  0.6249352794925401  0.1250679717342654  0.5199564055531721   T   T   T
  0.6248369833266312  0.3750346825351780  0.5199819862996821   T   T   T
  0.6249529127264091  0.6249516934173859  0.5199619759823305   T   T   T
  0.6249315547034241  0.8749244367627366  0.5199619054378648   T   T   T
  0.8751112991075519  0.1250541283715916  0.5199479526736351   T   T   T
  0.8749896500107319  0.3750601955924441  0.5199753917171382   T   T   T
  0.8750628844347715  0.6249453702112016  0.5199765263206305   T   T   T
  0.8750868018597225  0.8749409999021952  0.5199503824785702   T   T   T
  0.1249999993158326  0.1249999996774775  0.4011733916681877   F   F   F
  0.1249999993158326  0.3749999996774775  0.4011733916681877   F   F   F
  0.1250000002280558  0.6249999990324397  0.4011733916681877   F   F   F
  0.1250000002280558  0.8749999983874019  0.4011733916681877   F   F   F
  0.3749999988597210  0.1249999996774775  0.4011733916681877   F   F   F
  0.3749999997719442  0.3749999996774775  0.4011733916681877   F   F   F
  0.3749999997719442  0.6249999990324397  0.4011733916681877   F   F   F
  0.3749999997719442  0.8749999983874019  0.4011733916681877   F   F   F
  0.6249999993158326  0.1249999996774775  0.4011733916681877   F   F   F
  0.6249999984036094  0.3749999996774775  0.4011733916681877   F   F   F
  0.6249999993158326  0.6249999990324397  0.4011733916681877   F   F   F
  0.6249999993158326  0.8749999983874019  0.4011733916681877   F   F   F
  0.8749999979474978  0.1249999996774775  0.4011733916681877   F   F   F
  0.8749999988597210  0.3749999996774775  0.4011733916681877   F   F   F
  0.8749999988597210  0.6249999990324397  0.4011733916681877   F   F   F
  0.8749999988597210  0.8749999983874019  0.4011733916681877   F   F   F
  0.3725945309843059  0.5044671342916138  0.6648593194650867   T   T   T
  0.4417396045297592  0.5801107653572629  0.6648209575210581   T   T   T
  0.5690858692071413  0.5756279406090457  0.6648565332451016   T   T   T
  0.6274054416489629  0.4955328515175120  0.6648593194650867   T   T   T
  0.5582604210125186  0.4198892462534601  0.6648209575210581   T   T   T
  0.4309141298806355  0.4243720581008786  0.6648565332451016   T   T   T
  0.2501340530281223  0.5088721926012393  0.6658520996497578   T   T   T
  0.3856606353388780  0.6574202583348693  0.6669197062662786   T   T   T
  0.6357382177620535  0.6486583622486841  0.6669769332983693   T   T   T
  0.7498659460596545  0.4911278061086782  0.6658520996497578   T   T   T
  0.6143394303412839  0.3425797610163361  0.6669197062662786   T   T   T
  0.3642618077802381  0.3513416493620388  0.6669769332983693   T   T   T
 
  0.00000000E+00  0.00000000E+00  0.00000000E+00
  0.00000000E+00  0.00000000E+00  0.00000000E+00
  0.00000000E+00  0.00000000E+00  0.00000000E+00
  0.00000000E+00  0.00000000E+00  0.00000000E+00
  0.00000000E+00  0.00000000E+00  0.00000000E+00
  0.00000000E+00  0.00000000E+00  0.00000000E+00
  0.00000000E+00  0.00000000E+00  0.00000000E+00
  0.00000000E+00  0.00000000E+00  0.00000000E+00
  0.00000000E+00  0.00000000E+00  0.00000000E+00
  0.00000000E+00  0.00000000E+00  0.00000000E+00
  0.00000000E+00  0.00000000E+00  0.00000000E+00
  0.00000000E+00  0.00000000E+00  0.00000000E+00
  0.00000000E+00  0.00000000E+00  0.00000000E+00
  0.00000000E+00  0.00000000E+00  0.00000000E+00
  0.00000000E+00  0.00000000E+00  0.00000000E+00
  0.00000000E+00  0.00000000E+00  0.00000000E+00
  0.00000000E+00  0.00000000E+00  0.00000000E+00
  0.00000000E+00  0.00000000E+00  0.00000000E+00
  0.00000000E+00  0.00000000E+00  0.00000000E+00
  0.00000000E+00  0.00000000E+00  0.00000000E+00
  0.00000000E+00  0.00000000E+00  0.00000000E+00
  0.00000000E+00  0.00000000E+00  0.00000000E+00
  0.00000000E+00  0.00000000E+00  0.00000000E+00
  0.00000000E+00  0.00000000E+00  0.00000000E+00
  0.00000000E+00  0.00000000E+00  0.00000000E+00
  0.00000000E+00  0.00000000E+00  0.00000000E+00
  0.00000000E+00  0.00000000E+00  0.00000000E+00
  0.00000000E+00  0.00000000E+00  0.00000000E+00
  0.00000000E+00  0.00000000E+00  0.00000000E+00
  0.00000000E+00  0.00000000E+00  0.00000000E+00
  0.00000000E+00  0.00000000E+00  0.00000000E+00
  0.00000000E+00  0.00000000E+00  0.00000000E+00
  0.00000000E+00  0.00000000E+00  0.00000000E+00
  0.00000000E+00  0.00000000E+00  0.00000000E+00
  0.00000000E+00  0.00000000E+00  0.00000000E+00
  0.00000000E+00  0.00000000E+00  0.00000000E+00
  0.00000000E+00  0.00000000E+00  0.00000000E+00
  0.00000000E+00  0.00000000E+00  0.00000000E+00
  0.00000000E+00  0.00000000E+00  0.00000000E+00
  0.00000000E+00  0.00000000E+00  0.00000000E+00
  0.00000000E+00  0.00000000E+00  0.00000000E+00
  0.00000000E+00  0.00000000E+00  0.00000000E+00
  0.00000000E+00  0.00000000E+00  0.00000000E+00
  0.00000000E+00  0.00000000E+00  0.00000000E+00
  0.00000000E+00  0.00000000E+00  0.00000000E+00
  0.00000000E+00  0.00000000E+00  0.00000000E+00
  0.00000000E+00  0.00000000E+00  0.00000000E+00
  0.00000000E+00  0.00000000E+00  0.00000000E+00
  0.00000000E+00  0.00000000E+00  0.00000000E+00
  0.00000000E+00  0.00000000E+00  0.00000000E+00
  0.00000000E+00  0.00000000E+00  0.00000000E+00
  0.00000000E+00  0.00000000E+00  0.00000000E+00
  0.00000000E+00  0.00000000E+00  0.00000000E+00
  0.00000000E+00  0.00000000E+00  0.00000000E+00
  0.00000000E+00  0.00000000E+00  0.00000000E+00
  0.00000000E+00  0.00000000E+00  0.00000000E+00
  0.00000000E+00  0.00000000E+00  0.00000000E+00
  0.00000000E+00  0.00000000E+00  0.00000000E+00
  0.00000000E+00  0.00000000E+00  0.00000000E+00
  0.00000000E+00  0.00000000E+00  0.00000000E+00
  0.00000000E+00  0.00000000E+00  0.00000000E+00
  0.00000000E+00  0.00000000E+00  0.00000000E+00
  0.00000000E+00  0.00000000E+00  0.00000000E+00
  0.00000000E+00  0.00000000E+00  0.00000000E+00
  0.00000000E+00  0.00000000E+00  0.00000000E+00
  0.00000000E+00  0.00000000E+00  0.00000000E+00
  0.00000000E+00  0.00000000E+00  0.00000000E+00
  0.00000000E+00  0.00000000E+00  0.00000000E+00
  0.00000000E+00  0.00000000E+00  0.00000000E+00
  0.00000000E+00  0.00000000E+00  0.00000000E+00
  0.00000000E+00  0.00000000E+00  0.00000000E+00
  0.00000000E+00  0.00000000E+00  0.00000000E+00
  0.00000000E+00  0.00000000E+00  0.00000000E+00
  0.00000000E+00  0.00000000E+00  0.00000000E+00
  0.00000000E+00  0.00000000E+00  0.00000000E+00
  0.00000000E+00  0.00000000E+00  0.00000000E+00
