H4 Pd48 C6 Br2                          
    1.000000000000000     
    11.1922750000000004    0.0000000000000000    0.0000000000000000
    -5.5961369999999997    9.6927939999999992    0.0000000000000000
     0.0000000000000000    0.0000000000000000   16.5725149999999992
   H    Pd   C    Br
     4    48     6     2
Selective dynamics
Direct
  0.3719988112832340  0.5030968762962118  0.7819592331855105   T   T   T
  0.6276214660647739  0.6307249576486456  0.7829770172981654   T   T   T
  0.6276141223785103  0.2468804754478882  0.7829657186116492   T   T   T
  0.3719898847719278  0.1188549706724373  0.7819648563811299   T   T   T
  0.0833330000000032  0.1666669999999968  0.3620450000000019   F   F   F
  0.0833330000000032  0.4166669999999968  0.3620450000000019   F   F   F
  0.0833330000000032  0.6666669999999968  0.3620450000000019   F   F   F
  0.0833330000000032  0.9166669999999968  0.3620450000000019   F   F   F
  0.3333330000000032  0.1666669999999968  0.3620450000000019   F   F   F
  0.3333330000000032  0.4166669999999968  0.3620450000000019   F   F   F
  0.3333330000000032  0.6666669999999968  0.3620450000000019   F   F   F
  0.3333330000000032  0.9166669999999968  0.3620450000000019   F   F   F
  0.5833330000000032  0.1666669999999968  0.3620450000000019   F   F   F
  0.5833330000000032  0.4166669999999968  0.3620450000000019   F   F   F
  0.5833330000000032  0.6666669999999968  0.3620450000000019   F   F   F
  0.5833330000000032  0.9166669999999968  0.3620450000000019   F   F   F
  0.8333330000000032  0.1666669999999968  0.3620450000000019   F   F   F
  0.8333330000000032  0.4166669999999968  0.3620450000000019   F   F   F
  0.8333330000000032  0.6666669999999968  0.3620450000000019   F   F   F
  0.8333330000000032  0.9166669999999968  0.3620450000000019   F   F   F
  0.2471245711763714  0.9933027489323365  0.6340694171129186   T   T   T
  0.2588012184412989  0.2544003658721294  0.6439214069704136   T   T   T
  0.2471327240101076  0.5038329771614869  0.6340785244499401   T   T   T
  0.2482853949459738  0.7491421924028074  0.6366338760769494   T   T   T
  0.5007457066145875  0.9953589361503177  0.6359573328215333   T   T   T
  0.5031947760012088  0.2402774731573984  0.6393559710865233   T   T   T
  0.5031959803086252  0.5129176752522753  0.6393531940407371   T   T   T
  0.5007551949214388  0.7553994396795005  0.6359414208332055   T   T   T
  0.7535873139059319  0.0018001237175085  0.6369177879333918   T   T   T
  0.7558233793266922  0.2474036458451394  0.6348817498719939   T   T   T
  0.7473923323970766  0.4986949906035747  0.6457775679117432   T   T   T
  0.7558208492654899  0.7584317425972245  0.6348914339040022   T   T   T
  0.0035773643182040  0.0024847492992421  0.6376600094735068   T   T   T
  0.0035861208490147  0.2511059881650439  0.6376639759774747   T   T   T
  0.9987987127974449  0.4991504531125202  0.6377028320491007   T   T   T
  0.9987932979808889  0.7496505003306737  0.6377088838107596   T   T   T
  0.1686174871203008  0.0866192242067214  0.5009076059147759   T   T   T
  0.1686217108769270  0.3320100726701298  0.5009138472500325   T   T   T
  0.1643575412461047  0.5822393883517591  0.4985370859618357   T   T   T
  0.1643487550679694  0.8321143937929065  0.4985382896912753   T   T   T
  0.4170715694359828  0.0841950631491315  0.4993744940533063   T   T   T
  0.4179082959917864  0.3339600843114638  0.5006311025783248   T   T   T
  0.4170787738928894  0.5828871362905943  0.4993680201870561   T   T   T
  0.4146837711279900  0.8323433783528884  0.4983154510833003   T   T   T
  0.6666139157623761  0.0830430484469105  0.4987123173192742   T   T   T
  0.6669001007392197  0.3338585517208514  0.5010452519534070   T   T   T
  0.6669076244163108  0.5830574621889895  0.5010463151219469   T   T   T
  0.6666276509062783  0.8335794368710339  0.4987147836083565   T   T   T
  0.9170237061432829  0.0835171477854715  0.4993515553308825   T   T   T
  0.9178161907797957  0.3328635800011099  0.4988224520256779   T   T   T
  0.9120334756048152  0.5810180415289210  0.5024010083032096   T   T   T
  0.9178067762190807  0.8349545460275749  0.4988214328724538   T   T   T
  0.3474318162267309  0.2986967906446409  0.7587673621127422   T   T   T
  0.4261441699329254  0.4493526424762564  0.7623433053370192   T   T   T
  0.5737983219942606  0.5231989416518630  0.7626618137599053   T   T   T
  0.6526763973504046  0.4513311994124507  0.7591695974080537   T   T   T
  0.5737799095689411  0.3005616774527127  0.7626623625059352   T   T   T
  0.4261286080512861  0.2267574215208654  0.7623448336000038   T   T   T
  0.1773298783946871  0.2136584902632706  0.8230669278956455   T   T   T
  0.8216099398337136  0.5357865342655401  0.8247753585210589   T   T   T
 
  0.00000000E+00  0.00000000E+00  0.00000000E+00
  0.00000000E+00  0.00000000E+00  0.00000000E+00
  0.00000000E+00  0.00000000E+00  0.00000000E+00
  0.00000000E+00  0.00000000E+00  0.00000000E+00
  0.00000000E+00  0.00000000E+00  0.00000000E+00
  0.00000000E+00  0.00000000E+00  0.00000000E+00
  0.00000000E+00  0.00000000E+00  0.00000000E+00
  0.00000000E+00  0.00000000E+00  0.00000000E+00
  0.00000000E+00  0.00000000E+00  0.00000000E+00
  0.00000000E+00  0.00000000E+00  0.00000000E+00
  0.00000000E+00  0.00000000E+00  0.00000000E+00
  0.00000000E+00  0.00000000E+00  0.00000000E+00
  0.00000000E+00  0.00000000E+00  0.00000000E+00
  0.00000000E+00  0.00000000E+00  0.00000000E+00
  0.00000000E+00  0.00000000E+00  0.00000000E+00
  0.00000000E+00  0.00000000E+00  0.00000000E+00
  0.00000000E+00  0.00000000E+00  0.00000000E+00
  0.00000000E+00  0.00000000E+00  0.00000000E+00
  0.00000000E+00  0.00000000E+00  0.00000000E+00
  0.00000000E+00  0.00000000E+00  0.00000000E+00
  0.00000000E+00  0.00000000E+00  0.00000000E+00
  0.00000000E+00  0.00000000E+00  0.00000000E+00
  0.00000000E+00  0.00000000E+00  0.00000000E+00
  0.00000000E+00  0.00000000E+00  0.00000000E+00
  0.00000000E+00  0.00000000E+00  0.00000000E+00
  0.00000000E+00  0.00000000E+00  0.00000000E+00
  0.00000000E+00  0.00000000E+00  0.00000000E+00
  0.00000000E+00  0.00000000E+00  0.00000000E+00
  0.00000000E+00  0.00000000E+00  0.00000000E+00
  0.00000000E+00  0.00000000E+00  0.00000000E+00
  0.00000000E+00  0.00000000E+00  0.00000000E+00
  0.00000000E+00  0.00000000E+00  0.00000000E+00
  0.00000000E+00  0.00000000E+00  0.00000000E+00
  0.00000000E+00  0.00000000E+00  0.00000000E+00
  0.00000000E+00  0.00000000E+00  0.00000000E+00
  0.00000000E+00  0.00000000E+00  0.00000000E+00
  0.00000000E+00  0.00000000E+00  0.00000000E+00
  0.00000000E+00  0.00000000E+00  0.00000000E+00
  0.00000000E+00  0.00000000E+00  0.00000000E+00
  0.00000000E+00  0.00000000E+00  0.00000000E+00
  0.00000000E+00  0.00000000E+00  0.00000000E+00
  0.00000000E+00  0.00000000E+00  0.00000000E+00
  0.00000000E+00  0.00000000E+00  0.00000000E+00
  0.00000000E+00  0.00000000E+00  0.00000000E+00
  0.00000000E+00  0.00000000E+00  0.00000000E+00
  0.00000000E+00  0.00000000E+00  0.00000000E+00
  0.00000000E+00  0.00000000E+00  0.00000000E+00
  0.00000000E+00  0.00000000E+00  0.00000000E+00
  0.00000000E+00  0.00000000E+00  0.00000000E+00
  0.00000000E+00  0.00000000E+00  0.00000000E+00
  0.00000000E+00  0.00000000E+00  0.00000000E+00
  0.00000000E+00  0.00000000E+00  0.00000000E+00
  0.00000000E+00  0.00000000E+00  0.00000000E+00
  0.00000000E+00  0.00000000E+00  0.00000000E+00
  0.00000000E+00  0.00000000E+00  0.00000000E+00
  0.00000000E+00  0.00000000E+00  0.00000000E+00
  0.00000000E+00  0.00000000E+00  0.00000000E+00
  0.00000000E+00  0.00000000E+00  0.00000000E+00
  0.00000000E+00  0.00000000E+00  0.00000000E+00
  0.00000000E+00  0.00000000E+00  0.00000000E+00
