Au48 C6 F6                              
    1.000000000000000     
    11.7981859999999994    0.0000000000000000    0.0000000000000000
    -5.8990929999999997   10.2175279999999997    0.0000000000000000
     0.0000000000000000    0.0000000000000000   17.8165890000000005
   Au   C    F 
    48     6     6
Selective dynamics
Direct
  0.0833330000000032  0.1666669999999968  0.3367649999999998   F   F   F
  0.0833330000000032  0.4166669999999968  0.3367649999999998   F   F   F
  0.0833330000000032  0.6666669999999968  0.3367649999999998   F   F   F
  0.0833330000000032  0.9166669999999968  0.3367649999999998   F   F   F
  0.3333330000000032  0.1666669999999968  0.3367649999999998   F   F   F
  0.3333330000000032  0.4166669999999968  0.3367649999999998   F   F   F
  0.3333330000000032  0.6666669999999968  0.3367649999999998   F   F   F
  0.3333330000000032  0.9166669999999968  0.3367649999999998   F   F   F
  0.5833330000000032  0.1666669999999968  0.3367649999999998   F   F   F
  0.5833330000000032  0.4166669999999968  0.3367649999999998   F   F   F
  0.5833330000000032  0.6666669999999968  0.3367649999999998   F   F   F
  0.5833330000000032  0.9166669999999968  0.3367649999999998   F   F   F
  0.8333330000000032  0.1666669999999968  0.3367649999999998   F   F   F
  0.8333330000000032  0.4166669999999968  0.3367649999999998   F   F   F
  0.8333330000000032  0.6666669999999968  0.3367649999999998   F   F   F
  0.8333330000000032  0.9166669999999968  0.3367649999999998   F   F   F
  0.2500426962128444  0.2499527232491516  0.6126686913931323   T   T   T
  0.2501362740057900  0.4999731165024812  0.6124449230972999   T   T   T
  0.2499509888072922  0.7497495650199397  0.6126040872116576   T   T   T
  0.2497931471675514  0.9998117010366840  0.6126483430370797   T   T   T
  0.5000214286843132  0.2500595814558579  0.6124420674014317   T   T   T
  0.4998869578426266  0.4998728604564278  0.6100623187930196   T   T   T
  0.4999734071973734  0.7496053349346212  0.6104422753068732   T   T   T
  0.4998440527445709  0.9996428386006855  0.6126081572308237   T   T   T
  0.7496770340061190  0.2498398095770042  0.6126308158228184   T   T   T
  0.7496801959932782  0.4999031420907230  0.6104386007962859   T   T   T
  0.7497172637636709  0.7497001220989077  0.6100510570827851   T   T   T
  0.7496288400502920  0.9994691425643722  0.6124479369054754   T   T   T
  0.9998487634641648  0.2497556588252010  0.6126623318542599   T   T   T
  0.9997528393792123  0.4999177538245121  0.6126326869424901   T   T   T
  0.9995361466628054  0.7495708919406781  0.6124436384175667   T   T   T
  0.9996483911989671  0.9995622056609506  0.6126779400824915   T   T   T
  0.1664707304390944  0.0832531956064102  0.4747684836060984   T   T   T
  0.1663331254088263  0.3330216544743152  0.4747509957730784   T   T   T
  0.1664796982246060  0.5830935051853530  0.4748716807648492   T   T   T
  0.1666554763328918  0.8333067322723693  0.4747791382500708   T   T   T
  0.4164222694858069  0.0830743141387913  0.4747681541094124   T   T   T
  0.4161368983959903  0.3323468960469569  0.4743340177943622   T   T   T
  0.4158435848149509  0.5829293531221467  0.4737236461866061   T   T   T
  0.4161117686128648  0.8336164570097040  0.4742776072605253   T   T   T
  0.6666366172835652  0.0832467416414815  0.4748711074122411   T   T   T
  0.6663590171028417  0.3325220279877641  0.4742625100805213   T   T   T
  0.6665490024774030  0.5831816708456117  0.4732352973145950   T   T   T
  0.6667968620648850  0.8338872032182465  0.4737365953982220   T   T   T
  0.9167040969576234  0.0833878092516116  0.4747430162826802   T   T   T
  0.9165281015111759  0.3331957703313719  0.4747218366066832   T   T   T
  0.9172080961429998  0.5833754625245291  0.4742550424606620   T   T   T
  0.9173940745789864  0.8336024043821482  0.4743345897215718   T   T   T
  0.6941371179431570  0.7625938021975784  0.7913997920419646   T   T   T
  0.7625555915901856  0.6942566502848564  0.7913618909114390   T   T   T
  0.6941564219485699  0.5577406889166809  0.7916600889896870   T   T   T
  0.5576051700418958  0.4893542654924516  0.7913223212387592   T   T   T
  0.4893136195249994  0.5576843455328770  0.7913640262002772   T   T   T
  0.5576643137565540  0.6942588473250808  0.7917391001209140   T   T   T
  0.7599097949828604  0.8942550502908588  0.7917555692158871   T   T   T
  0.8941797193361580  0.7600058509261203  0.7917019210214136   T   T   T
  0.7600177827325467  0.4918543426838866  0.7923181045676344   T   T   T
  0.4919246513854745  0.3577770525241348  0.7916458531536819   T   T   T
  0.3576900431973442  0.4919554775971946  0.7917126726022232   T   T   T
  0.4917688978394779  0.7600367371794761  0.7924405407341411   T   T   T
 
  0.00000000E+00  0.00000000E+00  0.00000000E+00
  0.00000000E+00  0.00000000E+00  0.00000000E+00
  0.00000000E+00  0.00000000E+00  0.00000000E+00
  0.00000000E+00  0.00000000E+00  0.00000000E+00
  0.00000000E+00  0.00000000E+00  0.00000000E+00
  0.00000000E+00  0.00000000E+00  0.00000000E+00
  0.00000000E+00  0.00000000E+00  0.00000000E+00
  0.00000000E+00  0.00000000E+00  0.00000000E+00
  0.00000000E+00  0.00000000E+00  0.00000000E+00
  0.00000000E+00  0.00000000E+00  0.00000000E+00
  0.00000000E+00  0.00000000E+00  0.00000000E+00
  0.00000000E+00  0.00000000E+00  0.00000000E+00
  0.00000000E+00  0.00000000E+00  0.00000000E+00
  0.00000000E+00  0.00000000E+00  0.00000000E+00
  0.00000000E+00  0.00000000E+00  0.00000000E+00
  0.00000000E+00  0.00000000E+00  0.00000000E+00
  0.00000000E+00  0.00000000E+00  0.00000000E+00
  0.00000000E+00  0.00000000E+00  0.00000000E+00
  0.00000000E+00  0.00000000E+00  0.00000000E+00
  0.00000000E+00  0.00000000E+00  0.00000000E+00
  0.00000000E+00  0.00000000E+00  0.00000000E+00
  0.00000000E+00  0.00000000E+00  0.00000000E+00
  0.00000000E+00  0.00000000E+00  0.00000000E+00
  0.00000000E+00  0.00000000E+00  0.00000000E+00
  0.00000000E+00  0.00000000E+00  0.00000000E+00
  0.00000000E+00  0.00000000E+00  0.00000000E+00
  0.00000000E+00  0.00000000E+00  0.00000000E+00
  0.00000000E+00  0.00000000E+00  0.00000000E+00
  0.00000000E+00  0.00000000E+00  0.00000000E+00
  0.00000000E+00  0.00000000E+00  0.00000000E+00
  0.00000000E+00  0.00000000E+00  0.00000000E+00
  0.00000000E+00  0.00000000E+00  0.00000000E+00
  0.00000000E+00  0.00000000E+00  0.00000000E+00
  0.00000000E+00  0.00000000E+00  0.00000000E+00
  0.00000000E+00  0.00000000E+00  0.00000000E+00
  0.00000000E+00  0.00000000E+00  0.00000000E+00
  0.00000000E+00  0.00000000E+00  0.00000000E+00
  0.00000000E+00  0.00000000E+00  0.00000000E+00
  0.00000000E+00  0.00000000E+00  0.00000000E+00
  0.00000000E+00  0.00000000E+00  0.00000000E+00
  0.00000000E+00  0.00000000E+00  0.00000000E+00
  0.00000000E+00  0.00000000E+00  0.00000000E+00
  0.00000000E+00  0.00000000E+00  0.00000000E+00
  0.00000000E+00  0.00000000E+00  0.00000000E+00
  0.00000000E+00  0.00000000E+00  0.00000000E+00
  0.00000000E+00  0.00000000E+00  0.00000000E+00
  0.00000000E+00  0.00000000E+00  0.00000000E+00
  0.00000000E+00  0.00000000E+00  0.00000000E+00
  0.00000000E+00  0.00000000E+00  0.00000000E+00
  0.00000000E+00  0.00000000E+00  0.00000000E+00
  0.00000000E+00  0.00000000E+00  0.00000000E+00
  0.00000000E+00  0.00000000E+00  0.00000000E+00
  0.00000000E+00  0.00000000E+00  0.00000000E+00
  0.00000000E+00  0.00000000E+00  0.00000000E+00
  0.00000000E+00  0.00000000E+00  0.00000000E+00
  0.00000000E+00  0.00000000E+00  0.00000000E+00
  0.00000000E+00  0.00000000E+00  0.00000000E+00
  0.00000000E+00  0.00000000E+00  0.00000000E+00
  0.00000000E+00  0.00000000E+00  0.00000000E+00
  0.00000000E+00  0.00000000E+00  0.00000000E+00
