Rh48 C6 H2 F4                           
    1.000000000000000     
    10.8856652999999994    0.0000000000000000    0.0000000000000000
     0.0000000000000000   15.3946555000000007    0.0000000000000000
     0.0000000000000000    0.0000000000000000   15.4463868800000004
   Rh   C    H    F 
    48     6     2     4
Selective dynamics
Direct
  0.2491769091618821  0.2505613873565338  0.4038601037283414   T   T   T
  0.2487226023197096  0.4993586578439135  0.4031022948262972   T   T   T
  0.2524665938096788  0.7479090720466530  0.4042601747198802   T   T   T
  0.2504861374918121  0.0000532264807092  0.4029587031421258   T   T   T
  0.4996541000650510  0.2518928566816996  0.4026927028266556   T   T   T
  0.5000108791901354  0.4999760329893732  0.3983224228009945   T   T   T
  0.5003288897184888  0.7480753180046236  0.4027457616454271   T   T   T
  0.4999946846979952  0.0000006765930962  0.4040443992315943   T   T   T
  0.7475446684859790  0.2520736777450523  0.4042602727367139   T   T   T
  0.7512816274574732  0.5006290691192916  0.4030820607157182   T   T   T
  0.7508033682780280  0.7494271430413804  0.4038770072967850   T   T   T
  0.7495022249354690  0.9999476063762103  0.4029672284139352   T   T   T
  0.9984300147905714  0.2500133362805030  0.4031943055583511   T   T   T
  0.0000021399013832  0.4999918327933415  0.4026936954373141   T   T   T
  0.0015814105075904  0.7499826917043890  0.4032178870485623   T   T   T
  0.9999959363973403  0.9999970071320661  0.4005849503701384   T   T   T
  0.1243025284834971  0.1245340263984431  0.4819653745480608   T   T   T
  0.1214430294133848  0.3742189529156832  0.4818654368366637   T   T   T
  0.1264964589178348  0.6240480036532290  0.4824386248265640   T   T   T
  0.1261140032131109  0.8747401715378231  0.4820283641979799   T   T   T
  0.3749759829518169  0.1257112432240746  0.4818590377008292   T   T   T
  0.3674618536667964  0.3754821004290605  0.4846438431227256   T   T   T
  0.3833328495160586  0.6123671564619499  0.4899141524672075   T   T   T
  0.3755052848037508  0.8742328952998548  0.4818625306592281   T   T   T
  0.6244737779231144  0.1257568797521742  0.4818340596968937   T   T   T
  0.6167506770738385  0.3875315387120608  0.4898237429016135   T   T   T
  0.6325495091352380  0.6244651081167376  0.4846486402629395   T   T   T
  0.6250149571493182  0.8742766140398501  0.4818615450733077   T   T   T
  0.8738685872180270  0.1252481170620925  0.4820130785947967   T   T   T
  0.8735183681959455  0.3759501481644065  0.4824308274800231   T   T   T
  0.8785679102659714  0.6257621271154932  0.4818630003862552   T   T   T
  0.8756839803779783  0.8754496084003236  0.4819545838658073   T   T   T
  0.1249999997703384  0.1250000001623945  0.3237002956642243   F   F   F
  0.1249999997703384  0.3750000004871836  0.3237002956642243   F   F   F
  0.1250000006889778  0.6250000014615438  0.3237002956642243   F   F   F
  0.1250000006889778  0.8750000017863329  0.3237002956642243   F   F   F
  0.3750000002296616  0.1250000001623945  0.3237002956642243   F   F   F
  0.3750000002296616  0.3750000004871836  0.3237002956642243   F   F   F
  0.3750000011483010  0.6250000014615438  0.3237002956642243   F   F   F
  0.3750000011483010  0.8750000017863329  0.3237002956642243   F   F   F
  0.6250000006889778  0.1250000001623945  0.3237002956642243   F   F   F
  0.6250000006889778  0.3750000004871836  0.3237002956642243   F   F   F
  0.6250000006889778  0.6250000014615438  0.3237002956642243   F   F   F
  0.6250000006889778  0.8750000017863329  0.3237002956642243   F   F   F
  0.8750000011483010  0.1250000001623945  0.3237002956642243   F   F   F
  0.8750000011483010  0.3750000004871836  0.3237002956642243   F   F   F
  0.8750000020669404  0.6250000014615438  0.3237002956642243   F   F   F
  0.8750000011483010  0.8750000017863329  0.3237002956642243   F   F   F
  0.3965664356243437  0.4375989380174516  0.6029298713796152   T   T   T
  0.3734563367124721  0.5331243722724537  0.6033225354040894   T   T   T
  0.4755339028312946  0.5920317582391732  0.6122808575536212   T   T   T
  0.6036334267071339  0.5621671100004306  0.6028776867888794   T   T   T
  0.6267492150615865  0.4666089537855314  0.6032702890010313   T   T   T
  0.5247076592814608  0.4076712782524297  0.6122303472722379   T   T   T
  0.3342684334556338  0.4046484210627312  0.6483471709834774   T   T   T
  0.6660626498497280  0.5950704367945434  0.6482733740536091   T   T   T
  0.2664373135568141  0.5537998660642103  0.6484386021940480   T   T   T
  0.4606767286866642  0.6627636689622065  0.6661671609868378   T   T   T
  0.7339122336937365  0.4459306996461905  0.6483548751069534   T   T   T
  0.5396494666932412  0.3368439600743045  0.6659271508224407   T   T   T
 
  0.00000000E+00  0.00000000E+00  0.00000000E+00
  0.00000000E+00  0.00000000E+00  0.00000000E+00
  0.00000000E+00  0.00000000E+00  0.00000000E+00
  0.00000000E+00  0.00000000E+00  0.00000000E+00
  0.00000000E+00  0.00000000E+00  0.00000000E+00
  0.00000000E+00  0.00000000E+00  0.00000000E+00
  0.00000000E+00  0.00000000E+00  0.00000000E+00
  0.00000000E+00  0.00000000E+00  0.00000000E+00
  0.00000000E+00  0.00000000E+00  0.00000000E+00
  0.00000000E+00  0.00000000E+00  0.00000000E+00
  0.00000000E+00  0.00000000E+00  0.00000000E+00
  0.00000000E+00  0.00000000E+00  0.00000000E+00
  0.00000000E+00  0.00000000E+00  0.00000000E+00
  0.00000000E+00  0.00000000E+00  0.00000000E+00
  0.00000000E+00  0.00000000E+00  0.00000000E+00
  0.00000000E+00  0.00000000E+00  0.00000000E+00
  0.00000000E+00  0.00000000E+00  0.00000000E+00
  0.00000000E+00  0.00000000E+00  0.00000000E+00
  0.00000000E+00  0.00000000E+00  0.00000000E+00
  0.00000000E+00  0.00000000E+00  0.00000000E+00
  0.00000000E+00  0.00000000E+00  0.00000000E+00
  0.00000000E+00  0.00000000E+00  0.00000000E+00
  0.00000000E+00  0.00000000E+00  0.00000000E+00
  0.00000000E+00  0.00000000E+00  0.00000000E+00
  0.00000000E+00  0.00000000E+00  0.00000000E+00
  0.00000000E+00  0.00000000E+00  0.00000000E+00
  0.00000000E+00  0.00000000E+00  0.00000000E+00
  0.00000000E+00  0.00000000E+00  0.00000000E+00
  0.00000000E+00  0.00000000E+00  0.00000000E+00
  0.00000000E+00  0.00000000E+00  0.00000000E+00
  0.00000000E+00  0.00000000E+00  0.00000000E+00
  0.00000000E+00  0.00000000E+00  0.00000000E+00
  0.00000000E+00  0.00000000E+00  0.00000000E+00
  0.00000000E+00  0.00000000E+00  0.00000000E+00
  0.00000000E+00  0.00000000E+00  0.00000000E+00
  0.00000000E+00  0.00000000E+00  0.00000000E+00
  0.00000000E+00  0.00000000E+00  0.00000000E+00
  0.00000000E+00  0.00000000E+00  0.00000000E+00
  0.00000000E+00  0.00000000E+00  0.00000000E+00
  0.00000000E+00  0.00000000E+00  0.00000000E+00
  0.00000000E+00  0.00000000E+00  0.00000000E+00
  0.00000000E+00  0.00000000E+00  0.00000000E+00
  0.00000000E+00  0.00000000E+00  0.00000000E+00
  0.00000000E+00  0.00000000E+00  0.00000000E+00
  0.00000000E+00  0.00000000E+00  0.00000000E+00
  0.00000000E+00  0.00000000E+00  0.00000000E+00
  0.00000000E+00  0.00000000E+00  0.00000000E+00
  0.00000000E+00  0.00000000E+00  0.00000000E+00
  0.00000000E+00  0.00000000E+00  0.00000000E+00
  0.00000000E+00  0.00000000E+00  0.00000000E+00
  0.00000000E+00  0.00000000E+00  0.00000000E+00
  0.00000000E+00  0.00000000E+00  0.00000000E+00
  0.00000000E+00  0.00000000E+00  0.00000000E+00
  0.00000000E+00  0.00000000E+00  0.00000000E+00
  0.00000000E+00  0.00000000E+00  0.00000000E+00
  0.00000000E+00  0.00000000E+00  0.00000000E+00
  0.00000000E+00  0.00000000E+00  0.00000000E+00
  0.00000000E+00  0.00000000E+00  0.00000000E+00
  0.00000000E+00  0.00000000E+00  0.00000000E+00
  0.00000000E+00  0.00000000E+00  0.00000000E+00
