Pt  C  H  F                             
   1.00000000000000     
    11.2480069999999994    0.0000000000000000    0.0000000000000000
    -5.6240030000000001    9.7410599999999992    0.0000000000000000
     0.0000000000000000    0.0000000000000000   24.8879693399999979
   Pt   C    H    F 
    64     6     2     4
Selective dynamics
Direct
  0.9999999587182344  0.7499999743354451  0.3013504194553178   F   F   F
  0.2499999964438118  0.0000000000000000  0.3013504194553178   F   F   F
  0.2499999825579735  0.2499999917873410  0.3013504194553178   F   F   F
  0.2499999690478916  0.4999999825481041  0.3013504194553178   F   F   F
  0.2499999551620533  0.7499999743354451  0.3013504194553178   F   F   F
  0.4999999928876306  0.0000000000000000  0.3013504194553178   F   F   F
  0.4999999790017924  0.2499999917873410  0.3013504194553178   F   F   F
  0.4999999654917033  0.4999999825481041  0.3013504194553178   F   F   F
  0.7499999893314424  0.0000000000000000  0.3013504194553178   F   F   F
  0.7499999754456042  0.2499999917873410  0.3013504194553178   F   F   F
  0.7499999619355222  0.4999999825481041  0.3013504194553178   F   F   F
  0.7499999480496840  0.7499999743354451  0.3013504194553178   F   F   F
  0.0000000000000000  0.0000000000000000  0.3013504194553178   F   F   F
  0.9999999861141617  0.2499999917873410  0.3013504194553178   F   F   F
  0.9999999583793340  0.4999999825481041  0.3013504194553178   F   F   F
  0.4999999516058651  0.7499999743354451  0.3013504194553178   F   F   F
  0.0833330000000032  0.1666669999999968  0.3936034172243978   F   F   F
  0.0833330000000032  0.4166669999999968  0.3936034172243978   F   F   F
  0.0833330000000032  0.6666669999999968  0.3936034172243978   F   F   F
  0.0833330000000032  0.9166669999999968  0.3936034172243978   F   F   F
  0.3333330000000032  0.1666669999999968  0.3936034172243978   F   F   F
  0.3333330000000032  0.4166669999999968  0.3936034172243978   F   F   F
  0.3333330000000032  0.6666669999999968  0.3936034172243978   F   F   F
  0.3333330000000032  0.9166669999999968  0.3936034172243978   F   F   F
  0.5833330000000032  0.1666669999999968  0.3936034172243978   F   F   F
  0.5833330000000032  0.4166669999999968  0.3936034172243978   F   F   F
  0.5833330000000032  0.6666669999999968  0.3936034172243978   F   F   F
  0.5833330000000032  0.9166669999999968  0.3936034172243978   F   F   F
  0.8333330000000032  0.1666669999999968  0.3936034172243978   F   F   F
  0.8333330000000032  0.4166669999999968  0.3936034172243978   F   F   F
  0.8333330000000032  0.6666669999999968  0.3936034172243978   F   F   F
  0.8333330000000032  0.9166669999999968  0.3936034172243978   F   F   F
  0.2452387482334301  0.2450174948943102  0.5775869157039796   T   T   T
  0.2428792612635667  0.4978431296336290  0.5768013269632001   T   T   T
  0.2511635979532194  0.7496013882160343  0.5784628810404171   T   T   T
  0.2513344344524694  0.9988320186702924  0.5781254592453247   T   T   T
  0.4976100227564702  0.2427118186429757  0.5768195334846062   T   T   T
  0.4893337718026861  0.4901635697475730  0.5839906820578601   T   T   T
  0.5001710567604108  0.7498907620211023  0.5840814906956808   T   T   T
  0.5006957276183081  0.9990364431030053  0.5784566402280953   T   T   T
  0.7495989241102337  0.2514046278444526  0.5783178201883828   T   T   T
  0.7487074685513398  0.5013670050457729  0.5834559015457900   T   T   T
  0.7598559765664322  0.7606411031811735  0.5840521549217393   T   T   T
  0.7523892890678961  0.0071894661170887  0.5768233752135825   T   T   T
  0.9990062631507968  0.2511246983030228  0.5779560880033026   T   T   T
  0.9987510329451645  0.5006080017973193  0.5783199700925894   T   T   T
  0.0073725746749211  0.7525399017719899  0.5768526626372544   T   T   T
  0.0050866616018690  0.0048546191080779  0.5776110694368822   T   T   T
  0.1677110316103972  0.0823458925656212  0.4842230740174680   T   T   T
  0.1664401620129367  0.3328516310862372  0.4845640254872750   T   T   T
  0.1659079921697587  0.5834955731312962  0.4845612181003272   T   T   T
  0.1676424184201746  0.8325589772964648  0.4842479123544475   T   T   T
  0.4175417084059020  0.0824128329066282  0.4842392837568238   T   T   T
  0.4181359714915346  0.3361806070722059  0.4862593098758706   T   T   T
  0.4180195876605919  0.5826675500596379  0.4874425248955230   T   T   T
  0.4198013162553051  0.8303605941983020  0.4867294320196904   T   T   T
  0.6666988961787902  0.0842162891990907  0.4845636490512841   T   T   T
  0.6672767854186922  0.3367533537495765  0.4862363691722645   T   T   T
  0.6654740968964225  0.5845914712743268  0.4882292668320712   T   T   T
  0.6674990336205630  0.8320791574652141  0.4874695273557318   T   T   T
  0.9173209792280258  0.0837042150370442  0.4845652109881934   T   T   T
  0.9160912837919104  0.3340651210981440  0.4849789588597502   T   T   T
  0.9133189748417546  0.5828322851690433  0.4862553674175112   T   T   T
  0.9138625946041409  0.8319480503896751  0.4862852847590968   T   T   T
  0.7045006183069293  0.5451497029671313  0.6619308477642608   T   T   T
  0.5530352744726404  0.4788644677268496  0.6646888732975537   T   T   T
  0.4789113860165908  0.5532869854428385  0.6648818966353226   T   T   T
  0.5450931159769751  0.7047124285639952  0.6622966515551248   T   T   T
  0.6964130018318545  0.7707447068487512  0.6649260985494516   T   T   T
  0.7707910336746526  0.6965677776896213  0.6647346645736008   T   T   T
  0.7472223877013685  0.5022481969964497  0.6905630931139961   T   T   T
  0.5023929338715566  0.7472916032709922  0.6911170298624502   T   T   T
  0.4901322545273565  0.3547939163036049  0.6899976287871660   T   T   T
  0.3546467145656123  0.4900766399735522  0.6900128610012366   T   T   T
  0.7596274233550548  0.8949743766446432  0.6900926816242321   T   T   T
  0.8948206881115565  0.7593462132595195  0.6900778284602380   T   T   T
 
  0.00000000E+00  0.00000000E+00  0.00000000E+00
  0.00000000E+00  0.00000000E+00  0.00000000E+00
  0.00000000E+00  0.00000000E+00  0.00000000E+00
  0.00000000E+00  0.00000000E+00  0.00000000E+00
  0.00000000E+00  0.00000000E+00  0.00000000E+00
  0.00000000E+00  0.00000000E+00  0.00000000E+00
  0.00000000E+00  0.00000000E+00  0.00000000E+00
  0.00000000E+00  0.00000000E+00  0.00000000E+00
  0.00000000E+00  0.00000000E+00  0.00000000E+00
  0.00000000E+00  0.00000000E+00  0.00000000E+00
  0.00000000E+00  0.00000000E+00  0.00000000E+00
  0.00000000E+00  0.00000000E+00  0.00000000E+00
  0.00000000E+00  0.00000000E+00  0.00000000E+00
  0.00000000E+00  0.00000000E+00  0.00000000E+00
  0.00000000E+00  0.00000000E+00  0.00000000E+00
  0.00000000E+00  0.00000000E+00  0.00000000E+00
  0.00000000E+00  0.00000000E+00  0.00000000E+00
  0.00000000E+00  0.00000000E+00  0.00000000E+00
  0.00000000E+00  0.00000000E+00  0.00000000E+00
  0.00000000E+00  0.00000000E+00  0.00000000E+00
  0.00000000E+00  0.00000000E+00  0.00000000E+00
  0.00000000E+00  0.00000000E+00  0.00000000E+00
  0.00000000E+00  0.00000000E+00  0.00000000E+00
  0.00000000E+00  0.00000000E+00  0.00000000E+00
  0.00000000E+00  0.00000000E+00  0.00000000E+00
  0.00000000E+00  0.00000000E+00  0.00000000E+00
  0.00000000E+00  0.00000000E+00  0.00000000E+00
  0.00000000E+00  0.00000000E+00  0.00000000E+00
  0.00000000E+00  0.00000000E+00  0.00000000E+00
  0.00000000E+00  0.00000000E+00  0.00000000E+00
  0.00000000E+00  0.00000000E+00  0.00000000E+00
  0.00000000E+00  0.00000000E+00  0.00000000E+00
  0.00000000E+00  0.00000000E+00  0.00000000E+00
  0.00000000E+00  0.00000000E+00  0.00000000E+00
  0.00000000E+00  0.00000000E+00  0.00000000E+00
  0.00000000E+00  0.00000000E+00  0.00000000E+00
  0.00000000E+00  0.00000000E+00  0.00000000E+00
  0.00000000E+00  0.00000000E+00  0.00000000E+00
  0.00000000E+00  0.00000000E+00  0.00000000E+00
  0.00000000E+00  0.00000000E+00  0.00000000E+00
  0.00000000E+00  0.00000000E+00  0.00000000E+00
  0.00000000E+00  0.00000000E+00  0.00000000E+00
  0.00000000E+00  0.00000000E+00  0.00000000E+00
  0.00000000E+00  0.00000000E+00  0.00000000E+00
  0.00000000E+00  0.00000000E+00  0.00000000E+00
  0.00000000E+00  0.00000000E+00  0.00000000E+00
  0.00000000E+00  0.00000000E+00  0.00000000E+00
  0.00000000E+00  0.00000000E+00  0.00000000E+00
  0.00000000E+00  0.00000000E+00  0.00000000E+00
  0.00000000E+00  0.00000000E+00  0.00000000E+00
  0.00000000E+00  0.00000000E+00  0.00000000E+00
  0.00000000E+00  0.00000000E+00  0.00000000E+00
  0.00000000E+00  0.00000000E+00  0.00000000E+00
  0.00000000E+00  0.00000000E+00  0.00000000E+00
  0.00000000E+00  0.00000000E+00  0.00000000E+00
  0.00000000E+00  0.00000000E+00  0.00000000E+00
  0.00000000E+00  0.00000000E+00  0.00000000E+00
  0.00000000E+00  0.00000000E+00  0.00000000E+00
  0.00000000E+00  0.00000000E+00  0.00000000E+00
  0.00000000E+00  0.00000000E+00  0.00000000E+00
  0.00000000E+00  0.00000000E+00  0.00000000E+00
  0.00000000E+00  0.00000000E+00  0.00000000E+00
  0.00000000E+00  0.00000000E+00  0.00000000E+00
  0.00000000E+00  0.00000000E+00  0.00000000E+00
  0.00000000E+00  0.00000000E+00  0.00000000E+00
  0.00000000E+00  0.00000000E+00  0.00000000E+00
  0.00000000E+00  0.00000000E+00  0.00000000E+00
  0.00000000E+00  0.00000000E+00  0.00000000E+00
  0.00000000E+00  0.00000000E+00  0.00000000E+00
  0.00000000E+00  0.00000000E+00  0.00000000E+00
  0.00000000E+00  0.00000000E+00  0.00000000E+00
  0.00000000E+00  0.00000000E+00  0.00000000E+00
  0.00000000E+00  0.00000000E+00  0.00000000E+00
  0.00000000E+00  0.00000000E+00  0.00000000E+00
  0.00000000E+00  0.00000000E+00  0.00000000E+00
  0.00000000E+00  0.00000000E+00  0.00000000E+00
