Cu48 C6 Cl2 H4                          
    1.000000000000000     
    10.2424774999999997    0.0000000000000000    0.0000000000000000
     0.0000000000000000   10.2424774999999997    0.0000000000000000
     0.0000000000000000    0.0000000000000000   16.5502418099999993
   Cu   C    Cl   H 
    48     6     2     4
Selective dynamics
Direct
  0.2493235844426138  0.9996691799378326  0.4087291434028302   T   T   T
  0.2500499303121941  0.2500423697992105  0.4090772389929995   T   T   T
  0.2512707702252328  0.5002999927053864  0.4091954459332925   T   T   T
  0.2505751965274143  0.7494457318792058  0.4093613762139938   T   T   T
  0.5000057739212664  0.9999900116091069  0.4084149879283459   T   T   T
  0.5003130074508633  0.2512685095975513  0.4091756966539677   T   T   T
  0.5000285350355185  0.5000035434387868  0.4091400710601505   T   T   T
  0.4997219169276903  0.7487406804611396  0.4091708329561357   T   T   T
  0.7506660815591246  0.0002998190108059  0.4087440832509230   T   T   T
  0.7494050711921147  0.2505840112437099  0.4093640843723918   T   T   T
  0.7487152217979514  0.4997140810043490  0.4091707764605061   T   T   T
  0.7499430040437787  0.7499504553961742  0.4090665591846658   T   T   T
  0.0000003461915625  0.9999784993816050  0.4093606552500191   T   T   T
  0.9996808784824438  0.2493209837004216  0.4087494343624485   T   T   T
  0.9999857355878916  0.5000088315448963  0.4084289569325250   T   T   T
  0.0003052188508619  0.7506921882773412  0.4087386936706210   T   T   T
  0.1248453610731417  0.1248571062216683  0.5161258804925808   T   T   T
  0.1235973460980233  0.3749683644649338  0.5149171322520090   T   T   T
  0.1243671705699398  0.6250476971503360  0.5150617437396505   T   T   T
  0.1253676357043929  0.8746269889917926  0.5165410907500316   T   T   T
  0.3749863193491265  0.1236032967933696  0.5149198361777820   T   T   T
  0.3742209489097590  0.3742162471087767  0.5160911146579394   T   T   T
  0.3742673962671006  0.6257390688404527  0.5186410695479466   T   T   T
  0.3749610847921545  0.8756374373943814  0.5150588080627259   T   T   T
  0.6250567488572614  0.1243677212756538  0.5150582807919903   T   T   T
  0.6257483510297703  0.3742494597325248  0.5186297211573958   T   T   T
  0.6257921416847196  0.6257913174153487  0.5160894626461214   T   T   T
  0.6250356779472241  0.8764070794637888  0.5149136472853257   T   T   T
  0.8746127464730549  0.1253752967579942  0.5165482989444001   T   T   T
  0.8756259744447377  0.3749420076352834  0.5150615871697184   T   T   T
  0.8763896580535544  0.6250292060895077  0.5149196348175309   T   T   T
  0.8751352639303320  0.8751530917829555  0.5161236666841091   T   T   T
  0.1250000002440785  0.1249999992677573  0.3021103895278969   F   F   F
  0.1250000002440785  0.3749999997559215  0.3021103895278969   F   F   F
  0.1250000002440785  0.6249999982914289  0.3021103895278969   F   F   F
  0.1250000002440785  0.8749999987795931  0.3021103895278969   F   F   F
  0.3749999997559215  0.1249999992677573  0.3021103895278969   F   F   F
  0.3749999997559215  0.3749999997559215  0.3021103895278969   F   F   F
  0.3749999997559215  0.6249999982914289  0.3021103895278969   F   F   F
  0.3749999997559215  0.8749999987795931  0.3021103895278969   F   F   F
  0.6249999982914289  0.1249999992677573  0.3021103895278969   F   F   F
  0.6249999982914289  0.3749999997559215  0.3021103895278969   F   F   F
  0.6249999992677573  0.6249999982914289  0.3021103895278969   F   F   F
  0.6249999992677573  0.8749999987795931  0.3021103895278969   F   F   F
  0.8749999987795931  0.1249999992677573  0.3021103895278969   F   F   F
  0.8749999978032648  0.3749999997559215  0.3021103895278969   F   F   F
  0.8749999987795931  0.6249999982914289  0.3021103895278969   F   F   F
  0.8749999987795931  0.8749999987795931  0.3021103895278969   F   F   F
  0.5973790899462372  0.5973828892794444  0.6493724896463320   T   T   T
  0.6347145008201380  0.4636122344362761  0.6465510967516437   T   T   T
  0.5363276821611649  0.3652345171289397  0.6465505022771367   T   T   T
  0.4026924850278419  0.4026796926722156  0.6493610374381333   T   T   T
  0.3652747653027930  0.5363411358439834  0.6465542953048242   T   T   T
  0.4636262491466283  0.6347525153369844  0.6465525896098470   T   T   T
  0.7107680801526470  0.7107485506651869  0.6840871502034105   T   T   T
  0.2892266732029327  0.2892398199067401  0.6840872257359436   T   T   T
  0.7357196413239606  0.4374779559960515  0.6595239590432911   T   T   T
  0.5624970252958832  0.2643207784496653  0.6595163352035485   T   T   T
  0.2642972885084589  0.5625270949647003  0.6595284078135748   T   T   T
  0.4375058056071595  0.7356921962348864  0.6595180725297638   T   T   T
 
  0.00000000E+00  0.00000000E+00  0.00000000E+00
  0.00000000E+00  0.00000000E+00  0.00000000E+00
  0.00000000E+00  0.00000000E+00  0.00000000E+00
  0.00000000E+00  0.00000000E+00  0.00000000E+00
  0.00000000E+00  0.00000000E+00  0.00000000E+00
  0.00000000E+00  0.00000000E+00  0.00000000E+00
  0.00000000E+00  0.00000000E+00  0.00000000E+00
  0.00000000E+00  0.00000000E+00  0.00000000E+00
  0.00000000E+00  0.00000000E+00  0.00000000E+00
  0.00000000E+00  0.00000000E+00  0.00000000E+00
  0.00000000E+00  0.00000000E+00  0.00000000E+00
  0.00000000E+00  0.00000000E+00  0.00000000E+00
  0.00000000E+00  0.00000000E+00  0.00000000E+00
  0.00000000E+00  0.00000000E+00  0.00000000E+00
  0.00000000E+00  0.00000000E+00  0.00000000E+00
  0.00000000E+00  0.00000000E+00  0.00000000E+00
  0.00000000E+00  0.00000000E+00  0.00000000E+00
  0.00000000E+00  0.00000000E+00  0.00000000E+00
  0.00000000E+00  0.00000000E+00  0.00000000E+00
  0.00000000E+00  0.00000000E+00  0.00000000E+00
  0.00000000E+00  0.00000000E+00  0.00000000E+00
  0.00000000E+00  0.00000000E+00  0.00000000E+00
  0.00000000E+00  0.00000000E+00  0.00000000E+00
  0.00000000E+00  0.00000000E+00  0.00000000E+00
  0.00000000E+00  0.00000000E+00  0.00000000E+00
  0.00000000E+00  0.00000000E+00  0.00000000E+00
  0.00000000E+00  0.00000000E+00  0.00000000E+00
  0.00000000E+00  0.00000000E+00  0.00000000E+00
  0.00000000E+00  0.00000000E+00  0.00000000E+00
  0.00000000E+00  0.00000000E+00  0.00000000E+00
  0.00000000E+00  0.00000000E+00  0.00000000E+00
  0.00000000E+00  0.00000000E+00  0.00000000E+00
  0.00000000E+00  0.00000000E+00  0.00000000E+00
  0.00000000E+00  0.00000000E+00  0.00000000E+00
  0.00000000E+00  0.00000000E+00  0.00000000E+00
  0.00000000E+00  0.00000000E+00  0.00000000E+00
  0.00000000E+00  0.00000000E+00  0.00000000E+00
  0.00000000E+00  0.00000000E+00  0.00000000E+00
  0.00000000E+00  0.00000000E+00  0.00000000E+00
  0.00000000E+00  0.00000000E+00  0.00000000E+00
  0.00000000E+00  0.00000000E+00  0.00000000E+00
  0.00000000E+00  0.00000000E+00  0.00000000E+00
  0.00000000E+00  0.00000000E+00  0.00000000E+00
  0.00000000E+00  0.00000000E+00  0.00000000E+00
  0.00000000E+00  0.00000000E+00  0.00000000E+00
  0.00000000E+00  0.00000000E+00  0.00000000E+00
  0.00000000E+00  0.00000000E+00  0.00000000E+00
  0.00000000E+00  0.00000000E+00  0.00000000E+00
  0.00000000E+00  0.00000000E+00  0.00000000E+00
  0.00000000E+00  0.00000000E+00  0.00000000E+00
  0.00000000E+00  0.00000000E+00  0.00000000E+00
  0.00000000E+00  0.00000000E+00  0.00000000E+00
  0.00000000E+00  0.00000000E+00  0.00000000E+00
  0.00000000E+00  0.00000000E+00  0.00000000E+00
  0.00000000E+00  0.00000000E+00  0.00000000E+00
  0.00000000E+00  0.00000000E+00  0.00000000E+00
  0.00000000E+00  0.00000000E+00  0.00000000E+00
  0.00000000E+00  0.00000000E+00  0.00000000E+00
  0.00000000E+00  0.00000000E+00  0.00000000E+00
  0.00000000E+00  0.00000000E+00  0.00000000E+00
