Rh48 C6 F6                              
    1.000000000000000     
    10.8856652999999994    0.0000000000000000    0.0000000000000000
     0.0000000000000000   10.8856652999999994    0.0000000000000000
     0.0000000000000000    0.0000000000000000   16.5533157799999984
   Rh   C    F 
    48     6     6
Selective dynamics
Direct
  0.0000000000000000  0.0000000000000000  0.4089880612341190   T   T   T
  0.9993754662887326  0.2500578788180690  0.4091892632915801   T   T   T
  0.0000000018372788  0.5000000009186394  0.4090537164137444   T   T   T
  0.0006245355485461  0.7499421230192027  0.4091892632915801   T   T   T
  0.2500591729573145  0.9993757277648498  0.4091890657215345   T   T   T
  0.2497140671369564  0.2497127484435424  0.4091598016124962   T   T   T
  0.2500594362476960  0.5002354275798169  0.4095451452059606   T   T   T
  0.2521074557769509  0.7478933513490418  0.4105624663416521   T   T   T
  0.5000000009186394  0.0000000000000000  0.4090522329114421   T   T   T
  0.5002341117768907  0.2500584288861418  0.4095451519357454   T   T   T
  0.5000000009186394  0.5000000009186394  0.4089191626128610   T   T   T
  0.4997658900603881  0.7499415729511298  0.4095451519357454   T   T   T
  0.7499408288799572  0.0006242722351502  0.4091890657215345   T   T   T
  0.7478925460603207  0.2521066504882299  0.4105624663416521   T   T   T
  0.7499405655895757  0.4997645742574619  0.4095451452059606   T   T   T
  0.7502859347003152  0.7502872533937293  0.4091598016124962   T   T   T
  0.1246776027819152  0.1246789428276855  0.5162386746054466   T   T   T
  0.1236011313567786  0.3744047420235290  0.5166651123161259   T   T   T
  0.1237395806026456  0.6250450605593585  0.5172702588054818   T   T   T
  0.1250002371411156  0.8749989010075794  0.5165798362007195   T   T   T
  0.3744049028041729  0.1236019292615680  0.5166638786369901   T   T   T
  0.3734312997454765  0.3734334585244881  0.5169891902053720   T   T   T
  0.3758093388178239  0.6241907372775231  0.5235721522484340   T   T   T
  0.3749545714143139  0.8762600857729694  0.5172685281336271   T   T   T
  0.6250454304229649  0.1237399151456700  0.5172685281336271   T   T   T
  0.6241906630194549  0.3758092636411163  0.5235721522484340   T   T   T
  0.6265687030104417  0.6265665423941513  0.5169891902053720   T   T   T
  0.6255950999517452  0.8763980716570714  0.5166638786369901   T   T   T
  0.8749997646961631  0.1250010999110600  0.5165798362007195   T   T   T
  0.8762604212346332  0.3749549403592809  0.5172702588054818   T   T   T
  0.8763988704805001  0.6255952588951104  0.5166651123161259   T   T   T
  0.8753223990553636  0.8753210580909538  0.5162386746054466   T   T   T
  0.1249999997703384  0.1249999997703384  0.3020542872770591   F   F   F
  0.1250000006889778  0.3750000002296616  0.3020542872770591   F   F   F
  0.1250000006889778  0.6250000006889778  0.3020542872770591   F   F   F
  0.1250000006889778  0.8750000011483010  0.3020542872770591   F   F   F
  0.3750000011483010  0.1249999997703384  0.3020542872770591   F   F   F
  0.3750000011483010  0.3750000002296616  0.3020542872770591   F   F   F
  0.3750000011483010  0.6250000006889778  0.3020542872770591   F   F   F
  0.3750000011483010  0.8750000011483010  0.3020542872770591   F   F   F
  0.6250000006889778  0.1249999997703384  0.3020542872770591   F   F   F
  0.6250000006889778  0.3750000002296616  0.3020542872770591   F   F   F
  0.6250000016076172  0.6250000006889778  0.3020542872770591   F   F   F
  0.6250000016076172  0.8750000011483010  0.3020542872770591   F   F   F
  0.8750000011483010  0.1249999997703384  0.3020542872770591   F   F   F
  0.8750000011483010  0.3750000002296616  0.3020542872770591   F   F   F
  0.8750000011483010  0.6250000006889778  0.3020542872770591   F   F   F
  0.8750000020669404  0.8750000011483010  0.3020542872770591   F   F   F
  0.6296370725414207  0.4644932250912746  0.6397411443172913   T   T   T
  0.5355115414162839  0.3703603319811961  0.6397419322978806   T   T   T
  0.4026808793930883  0.4026827445183301  0.6376810476733610   T   T   T
  0.3703629596109579  0.5355067896069485  0.6397411443172913   T   T   T
  0.4644884319431739  0.6296396551578525  0.6397419322978806   T   T   T
  0.5973191233628299  0.5973172564003093  0.6376810476733610   T   T   T
  0.7358753858761276  0.4395259345529752  0.6809680352694656   T   T   T
  0.5604783087119358  0.2641269768327916  0.6809689081195458   T   T   T
  0.3320654889802697  0.3320640094491409  0.6890996894580255   T   T   T
  0.2641246168797906  0.5604740663656642  0.6809680352694656   T   T   T
  0.4395216223901173  0.7358730066316994  0.6809689081195458   T   T   T
  0.6679344843791881  0.6679359776899076  0.6890996894580255   T   T   T
 
  0.00000000E+00  0.00000000E+00  0.00000000E+00
  0.00000000E+00  0.00000000E+00  0.00000000E+00
  0.00000000E+00  0.00000000E+00  0.00000000E+00
  0.00000000E+00  0.00000000E+00  0.00000000E+00
  0.00000000E+00  0.00000000E+00  0.00000000E+00
  0.00000000E+00  0.00000000E+00  0.00000000E+00
  0.00000000E+00  0.00000000E+00  0.00000000E+00
  0.00000000E+00  0.00000000E+00  0.00000000E+00
  0.00000000E+00  0.00000000E+00  0.00000000E+00
  0.00000000E+00  0.00000000E+00  0.00000000E+00
  0.00000000E+00  0.00000000E+00  0.00000000E+00
  0.00000000E+00  0.00000000E+00  0.00000000E+00
  0.00000000E+00  0.00000000E+00  0.00000000E+00
  0.00000000E+00  0.00000000E+00  0.00000000E+00
  0.00000000E+00  0.00000000E+00  0.00000000E+00
  0.00000000E+00  0.00000000E+00  0.00000000E+00
  0.00000000E+00  0.00000000E+00  0.00000000E+00
  0.00000000E+00  0.00000000E+00  0.00000000E+00
  0.00000000E+00  0.00000000E+00  0.00000000E+00
  0.00000000E+00  0.00000000E+00  0.00000000E+00
  0.00000000E+00  0.00000000E+00  0.00000000E+00
  0.00000000E+00  0.00000000E+00  0.00000000E+00
  0.00000000E+00  0.00000000E+00  0.00000000E+00
  0.00000000E+00  0.00000000E+00  0.00000000E+00
  0.00000000E+00  0.00000000E+00  0.00000000E+00
  0.00000000E+00  0.00000000E+00  0.00000000E+00
  0.00000000E+00  0.00000000E+00  0.00000000E+00
  0.00000000E+00  0.00000000E+00  0.00000000E+00
  0.00000000E+00  0.00000000E+00  0.00000000E+00
  0.00000000E+00  0.00000000E+00  0.00000000E+00
  0.00000000E+00  0.00000000E+00  0.00000000E+00
  0.00000000E+00  0.00000000E+00  0.00000000E+00
  0.00000000E+00  0.00000000E+00  0.00000000E+00
  0.00000000E+00  0.00000000E+00  0.00000000E+00
  0.00000000E+00  0.00000000E+00  0.00000000E+00
  0.00000000E+00  0.00000000E+00  0.00000000E+00
  0.00000000E+00  0.00000000E+00  0.00000000E+00
  0.00000000E+00  0.00000000E+00  0.00000000E+00
  0.00000000E+00  0.00000000E+00  0.00000000E+00
  0.00000000E+00  0.00000000E+00  0.00000000E+00
  0.00000000E+00  0.00000000E+00  0.00000000E+00
  0.00000000E+00  0.00000000E+00  0.00000000E+00
  0.00000000E+00  0.00000000E+00  0.00000000E+00
  0.00000000E+00  0.00000000E+00  0.00000000E+00
  0.00000000E+00  0.00000000E+00  0.00000000E+00
  0.00000000E+00  0.00000000E+00  0.00000000E+00
  0.00000000E+00  0.00000000E+00  0.00000000E+00
  0.00000000E+00  0.00000000E+00  0.00000000E+00
  0.00000000E+00  0.00000000E+00  0.00000000E+00
  0.00000000E+00  0.00000000E+00  0.00000000E+00
  0.00000000E+00  0.00000000E+00  0.00000000E+00
  0.00000000E+00  0.00000000E+00  0.00000000E+00
  0.00000000E+00  0.00000000E+00  0.00000000E+00
  0.00000000E+00  0.00000000E+00  0.00000000E+00
  0.00000000E+00  0.00000000E+00  0.00000000E+00
  0.00000000E+00  0.00000000E+00  0.00000000E+00
  0.00000000E+00  0.00000000E+00  0.00000000E+00
  0.00000000E+00  0.00000000E+00  0.00000000E+00
  0.00000000E+00  0.00000000E+00  0.00000000E+00
  0.00000000E+00  0.00000000E+00  0.00000000E+00
