Pd48 C6 Br6                             
    1.000000000000000     
    11.1817229999999999    0.0000000000000000    0.0000000000000000
     0.0000000000000000   15.8133443000000007    0.0000000000000000
     0.0000000000000000    0.0000000000000000   15.6570815799999998
   Pd   C    Br
    48     6     6
Selective dynamics
Direct
  0.2485090881352576  0.0000693634340223  0.4012068676538760   T   T   T
  0.2504312164286873  0.2537712069987776  0.3940131119577757   T   T   T
  0.2530826560027535  0.5000103149276427  0.3873600209955441   T   T   T
  0.2504256553048734  0.7463009770110389  0.3939936731763183   T   T   T
  0.4999802240189908  0.0000117749563557  0.4038678670042515   T   T   T
  0.4999798052042337  0.2529101518010179  0.3979991968662304   T   T   T
  0.5000065820607063  0.4999956894563766  0.3783605275555502   T   T   T
  0.5000208401617670  0.7470983199755352  0.3979044461385257   T   T   T
  0.7514178000342966  0.9998963542539130  0.4012114657513308   T   T   T
  0.7495290131578329  0.2537104407376916  0.3940485625071517   T   T   T
  0.7468960587049409  0.4999832516452898  0.3873743468565749   T   T   T
  0.7495538490311944  0.7462324104441151  0.3939786809867414   T   T   T
  0.9999886648933369  0.9999767670184312  0.4062636626336484   T   T   T
  0.9999030300571192  0.2583850994331272  0.4076996774399930   T   T   T
  0.9999880390880662  0.4999936840379107  0.4017949640068608   T   T   T
  0.0000747791155717  0.7416180069880696  0.4077012229825527   T   T   T
  0.1259950575813207  0.1324638974273853  0.4875732747695380   T   T   T
  0.1406023403691776  0.3819184224928875  0.4906867780219457   T   T   T
  0.1397919166259314  0.6180853887856870  0.4906962816072777   T   T   T
  0.1266738484576209  0.8676456865457993  0.4876559329671366   T   T   T
  0.3757077745696691  0.1278601067209166  0.4894674255066676   T   T   T
  0.3731718760624716  0.3077552437120517  0.5425261290877046   T   T   T
  0.3733277847285308  0.6921764976864182  0.5422130595361452   T   T   T
  0.3761799912147055  0.8722822577821745  0.4894415692639811   T   T   T
  0.6237406816975763  0.1276653396032188  0.4894453518602049   T   T   T
  0.6267162803472175  0.3076791496143159  0.5423990217090520   T   T   T
  0.6267857874941782  0.6920933927887845  0.5424358545515631   T   T   T
  0.6241833999254709  0.8721240550287490  0.4894953624283360   T   T   T
  0.8732477570606463  0.1322907516626586  0.4876389583486898   T   T   T
  0.8602045243999115  0.3818737864436272  0.4907118933618193   T   T   T
  0.8593615592096882  0.6180534730851051  0.4906699322857122   T   T   T
  0.8739015314374257  0.8674807736840719  0.4876066401492452   T   T   T
  0.1249999995528412  0.1249999995257198  0.3193443155068465   F   F   F
  0.1249999995528412  0.3749999992095283  0.3193443155068465   F   F   F
  0.1249999995528412  0.6249999982609609  0.3193443155068465   F   F   F
  0.1249999995528412  0.8749999979447765  0.3193443155068465   F   F   F
  0.3749999986585237  0.1249999995257198  0.3193443155068465   F   F   F
  0.3749999986585237  0.3749999992095283  0.3193443155068465   F   F   F
  0.3749999986585237  0.6249999982609609  0.3193443155068465   F   F   F
  0.3749999986585237  0.8749999979447765  0.3193443155068465   F   F   F
  0.6249999977642062  0.1249999995257198  0.3193443155068465   F   F   F
  0.6249999977642062  0.3749999992095283  0.3193443155068465   F   F   F
  0.6249999977642062  0.6249999982609609  0.3193443155068465   F   F   F
  0.6249999977642062  0.8749999979447765  0.3193443155068465   F   F   F
  0.8749999968698887  0.1249999995257198  0.3193443155068465   F   F   F
  0.8749999968698887  0.3749999992095283  0.3193443155068465   F   F   F
  0.8749999968698887  0.6249999982609609  0.3193443155068465   F   F   F
  0.8749999968698887  0.8749999979447765  0.3193443155068465   F   F   F
  0.3788383969550040  0.5000248802894447  0.5657882235451410   T   T   T
  0.4373338180029194  0.5775206454518482  0.5572493651073671   T   T   T
  0.5628802087382780  0.5774767230569395  0.5573273077860748   T   T   T
  0.6210902868297623  0.4998404601184490  0.5657913116356070   T   T   T
  0.5627396737923789  0.4222902671201751  0.5573531134181735   T   T   T
  0.4372454739080780  0.4224727486589757  0.5573890798593979   T   T   T
  0.2051876263694012  0.5001750767569746  0.5944011115484571   T   T   T
  0.2524083301434246  0.8243152604792456  0.6141519361199030   T   T   T
  0.7483412267626122  0.8234621768772357  0.6141872999044153   T   T   T
  0.7949036986217521  0.4997775590867235  0.5944317589736698   T   T   T
  0.7475521937892680  0.1754443373413821  0.6142126639585612   T   T   T
  0.2514931569053473  0.1763915089275514  0.6142252286422831   T   T   T
 
  0.00000000E+00  0.00000000E+00  0.00000000E+00
  0.00000000E+00  0.00000000E+00  0.00000000E+00
  0.00000000E+00  0.00000000E+00  0.00000000E+00
  0.00000000E+00  0.00000000E+00  0.00000000E+00
  0.00000000E+00  0.00000000E+00  0.00000000E+00
  0.00000000E+00  0.00000000E+00  0.00000000E+00
  0.00000000E+00  0.00000000E+00  0.00000000E+00
  0.00000000E+00  0.00000000E+00  0.00000000E+00
  0.00000000E+00  0.00000000E+00  0.00000000E+00
  0.00000000E+00  0.00000000E+00  0.00000000E+00
  0.00000000E+00  0.00000000E+00  0.00000000E+00
  0.00000000E+00  0.00000000E+00  0.00000000E+00
  0.00000000E+00  0.00000000E+00  0.00000000E+00
  0.00000000E+00  0.00000000E+00  0.00000000E+00
  0.00000000E+00  0.00000000E+00  0.00000000E+00
  0.00000000E+00  0.00000000E+00  0.00000000E+00
  0.00000000E+00  0.00000000E+00  0.00000000E+00
  0.00000000E+00  0.00000000E+00  0.00000000E+00
  0.00000000E+00  0.00000000E+00  0.00000000E+00
  0.00000000E+00  0.00000000E+00  0.00000000E+00
  0.00000000E+00  0.00000000E+00  0.00000000E+00
  0.00000000E+00  0.00000000E+00  0.00000000E+00
  0.00000000E+00  0.00000000E+00  0.00000000E+00
  0.00000000E+00  0.00000000E+00  0.00000000E+00
  0.00000000E+00  0.00000000E+00  0.00000000E+00
  0.00000000E+00  0.00000000E+00  0.00000000E+00
  0.00000000E+00  0.00000000E+00  0.00000000E+00
  0.00000000E+00  0.00000000E+00  0.00000000E+00
  0.00000000E+00  0.00000000E+00  0.00000000E+00
  0.00000000E+00  0.00000000E+00  0.00000000E+00
  0.00000000E+00  0.00000000E+00  0.00000000E+00
  0.00000000E+00  0.00000000E+00  0.00000000E+00
  0.00000000E+00  0.00000000E+00  0.00000000E+00
  0.00000000E+00  0.00000000E+00  0.00000000E+00
  0.00000000E+00  0.00000000E+00  0.00000000E+00
  0.00000000E+00  0.00000000E+00  0.00000000E+00
  0.00000000E+00  0.00000000E+00  0.00000000E+00
  0.00000000E+00  0.00000000E+00  0.00000000E+00
  0.00000000E+00  0.00000000E+00  0.00000000E+00
  0.00000000E+00  0.00000000E+00  0.00000000E+00
  0.00000000E+00  0.00000000E+00  0.00000000E+00
  0.00000000E+00  0.00000000E+00  0.00000000E+00
  0.00000000E+00  0.00000000E+00  0.00000000E+00
  0.00000000E+00  0.00000000E+00  0.00000000E+00
  0.00000000E+00  0.00000000E+00  0.00000000E+00
  0.00000000E+00  0.00000000E+00  0.00000000E+00
  0.00000000E+00  0.00000000E+00  0.00000000E+00
  0.00000000E+00  0.00000000E+00  0.00000000E+00
  0.00000000E+00  0.00000000E+00  0.00000000E+00
  0.00000000E+00  0.00000000E+00  0.00000000E+00
  0.00000000E+00  0.00000000E+00  0.00000000E+00
  0.00000000E+00  0.00000000E+00  0.00000000E+00
  0.00000000E+00  0.00000000E+00  0.00000000E+00
  0.00000000E+00  0.00000000E+00  0.00000000E+00
  0.00000000E+00  0.00000000E+00  0.00000000E+00
  0.00000000E+00  0.00000000E+00  0.00000000E+00
  0.00000000E+00  0.00000000E+00  0.00000000E+00
  0.00000000E+00  0.00000000E+00  0.00000000E+00
  0.00000000E+00  0.00000000E+00  0.00000000E+00
  0.00000000E+00  0.00000000E+00  0.00000000E+00
