Pt  C  H  F                             
   1.00000000000000     
    11.2480069999999994    0.0000000000000000    0.0000000000000000
    -5.6240030000000001    9.7410599999999992    0.0000000000000000
     0.0000000000000000    0.0000000000000000   24.8879693399999979
   Pt   C    H    F 
    64     6     2     4
Selective dynamics
Direct
  0.9999999587182344  0.7499999743354451  0.3013504194553178   F   F   F
  0.2499999964438118  0.0000000000000000  0.3013504194553178   F   F   F
  0.2499999825579735  0.2499999917873410  0.3013504194553178   F   F   F
  0.2499999690478916  0.4999999825481041  0.3013504194553178   F   F   F
  0.2499999551620533  0.7499999743354451  0.3013504194553178   F   F   F
  0.4999999928876306  0.0000000000000000  0.3013504194553178   F   F   F
  0.4999999790017924  0.2499999917873410  0.3013504194553178   F   F   F
  0.4999999654917033  0.4999999825481041  0.3013504194553178   F   F   F
  0.7499999893314424  0.0000000000000000  0.3013504194553178   F   F   F
  0.7499999754456042  0.2499999917873410  0.3013504194553178   F   F   F
  0.7499999619355222  0.4999999825481041  0.3013504194553178   F   F   F
  0.7499999480496840  0.7499999743354451  0.3013504194553178   F   F   F
  0.0000000000000000  0.0000000000000000  0.3013504194553178   F   F   F
  0.9999999861141617  0.2499999917873410  0.3013504194553178   F   F   F
  0.9999999583793340  0.4999999825481041  0.3013504194553178   F   F   F
  0.4999999516058651  0.7499999743354451  0.3013504194553178   F   F   F
  0.0833330000000032  0.1666669999999968  0.3936034172243978   F   F   F
  0.0833330000000032  0.4166669999999968  0.3936034172243978   F   F   F
  0.0833330000000032  0.6666669999999968  0.3936034172243978   F   F   F
  0.0833330000000032  0.9166669999999968  0.3936034172243978   F   F   F
  0.3333330000000032  0.1666669999999968  0.3936034172243978   F   F   F
  0.3333330000000032  0.4166669999999968  0.3936034172243978   F   F   F
  0.3333330000000032  0.6666669999999968  0.3936034172243978   F   F   F
  0.3333330000000032  0.9166669999999968  0.3936034172243978   F   F   F
  0.5833330000000032  0.1666669999999968  0.3936034172243978   F   F   F
  0.5833330000000032  0.4166669999999968  0.3936034172243978   F   F   F
  0.5833330000000032  0.6666669999999968  0.3936034172243978   F   F   F
  0.5833330000000032  0.9166669999999968  0.3936034172243978   F   F   F
  0.8333330000000032  0.1666669999999968  0.3936034172243978   F   F   F
  0.8333330000000032  0.4166669999999968  0.3936034172243978   F   F   F
  0.8333330000000032  0.6666669999999968  0.3936034172243978   F   F   F
  0.8333330000000032  0.9166669999999968  0.3936034172243978   F   F   F
  0.2500810815133334  0.2504929607809277  0.5785420149749730   T   T   T
  0.2501318100314156  0.5005077359769409  0.5785625133819603   T   T   T
  0.2501892443086867  0.7503054411050761  0.5786663079041900   T   T   T
  0.2500611927376187  0.0003178436072558  0.5785802302197778   T   T   T
  0.5000359268804320  0.2503631265487103  0.5785690624082295   T   T   T
  0.4999305990322511  0.5002388378799191  0.5784222527836895   T   T   T
  0.5003780480205763  0.7500698496460266  0.5789820631727075   T   T   T
  0.5001334274110948  0.0002311866374860  0.5786534363111665   T   T   T
  0.7500437876084746  0.2504630925929230  0.5786285361887594   T   T   T
  0.7497304398589626  0.5008022276443562  0.5789153905986303   T   T   T
  0.7501695910523958  0.7505543743557476  0.5783682647811493   T   T   T
  0.7500884289614085  0.0004429829638702  0.5785016602272840   T   T   T
  0.0000652066232139  0.2504351484987294  0.5785554655049032   T   T   T
 -0.0000353549555299  0.5003997822302813  0.5786293101244615   T   T   T
  0.0001243185803181  0.7504986101755583  0.5785160388875025   T   T   T
 -0.0000042449886636  0.0004540091338426  0.5784622421885033   T   T   T
  0.1667418921374407  0.0835688682424941  0.4853962694922596   T   T   T
  0.1666535805563033  0.3336571433264593  0.4854255400089810   T   T   T
  0.1666377608384996  0.5835979755224270  0.4854384584134585   T   T   T
  0.1667948142968272  0.8335641618326283  0.4854083796161874   T   T   T
  0.4167654604747164  0.0835640210472796  0.4854270298374249   T   T   T
  0.4168146543229860  0.3336317257336679  0.4853439258005252   T   T   T
  0.4166970116535746  0.5837272703997038  0.4853573184715824   T   T   T
  0.4167670535752031  0.8335352105224982  0.4855320772315509   T   T   T
  0.6666801243312079  0.0836249862488932  0.4854226171133867   T   T   T
  0.6667766535405389  0.3336596791190108  0.4855247446635464   T   T   T
  0.6668804853928193  0.5835063437604587  0.4852166881333508   T   T   T
  0.6666044162505969  0.8336849250668552  0.4853032697839377   T   T   T
  0.9166604903382010  0.0836198656416085  0.4853783042002999   T   T   T
  0.9166490605070482  0.3336477081814825  0.4854484991305484   T   T   T
  0.9166808239402777  0.5835284284191542  0.4855032427948870   T   T   T
  0.9167518714007824  0.8335054504862883  0.4852698621119170   T   T   T
  0.6969830652338349  0.5519146441973343  0.7075979326174425   T   T   T
  0.5540539444706075  0.4817369677536963  0.7083468903146417   T   T   T
  0.4822357174584841  0.5535401168118229  0.7087394530723852   T   T   T
  0.5524007811638244  0.6964545242877727  0.7081276041564557   T   T   T
  0.6953282792279489  0.7666351228221903  0.7079888127657258   T   T   T
  0.7671342929057514  0.6948311797504679  0.7077756303700126   T   T   T
  0.7527899923824273  0.4958714049690452  0.7077052557523958   T   T   T
  0.4964193248996165  0.7523643907863858  0.7085322307723259   T   T   T
  0.4837450032726179  0.3431486662861250  0.7101765594396454   T   T   T
  0.3436827421410455  0.4833578166344803  0.7110817721617215   T   T   T
  0.7655753611042614  0.9053050530992629  0.7091675841986692   T   T   T
  0.9057199545625650  0.7650224148318788  0.7089240636655920   T   T   T
 
  0.00000000E+00  0.00000000E+00  0.00000000E+00
  0.00000000E+00  0.00000000E+00  0.00000000E+00
  0.00000000E+00  0.00000000E+00  0.00000000E+00
  0.00000000E+00  0.00000000E+00  0.00000000E+00
  0.00000000E+00  0.00000000E+00  0.00000000E+00
  0.00000000E+00  0.00000000E+00  0.00000000E+00
  0.00000000E+00  0.00000000E+00  0.00000000E+00
  0.00000000E+00  0.00000000E+00  0.00000000E+00
  0.00000000E+00  0.00000000E+00  0.00000000E+00
  0.00000000E+00  0.00000000E+00  0.00000000E+00
  0.00000000E+00  0.00000000E+00  0.00000000E+00
  0.00000000E+00  0.00000000E+00  0.00000000E+00
  0.00000000E+00  0.00000000E+00  0.00000000E+00
  0.00000000E+00  0.00000000E+00  0.00000000E+00
  0.00000000E+00  0.00000000E+00  0.00000000E+00
  0.00000000E+00  0.00000000E+00  0.00000000E+00
  0.00000000E+00  0.00000000E+00  0.00000000E+00
  0.00000000E+00  0.00000000E+00  0.00000000E+00
  0.00000000E+00  0.00000000E+00  0.00000000E+00
  0.00000000E+00  0.00000000E+00  0.00000000E+00
  0.00000000E+00  0.00000000E+00  0.00000000E+00
  0.00000000E+00  0.00000000E+00  0.00000000E+00
  0.00000000E+00  0.00000000E+00  0.00000000E+00
  0.00000000E+00  0.00000000E+00  0.00000000E+00
  0.00000000E+00  0.00000000E+00  0.00000000E+00
  0.00000000E+00  0.00000000E+00  0.00000000E+00
  0.00000000E+00  0.00000000E+00  0.00000000E+00
  0.00000000E+00  0.00000000E+00  0.00000000E+00
  0.00000000E+00  0.00000000E+00  0.00000000E+00
  0.00000000E+00  0.00000000E+00  0.00000000E+00
  0.00000000E+00  0.00000000E+00  0.00000000E+00
  0.00000000E+00  0.00000000E+00  0.00000000E+00
  0.00000000E+00  0.00000000E+00  0.00000000E+00
  0.00000000E+00  0.00000000E+00  0.00000000E+00
  0.00000000E+00  0.00000000E+00  0.00000000E+00
  0.00000000E+00  0.00000000E+00  0.00000000E+00
  0.00000000E+00  0.00000000E+00  0.00000000E+00
  0.00000000E+00  0.00000000E+00  0.00000000E+00
  0.00000000E+00  0.00000000E+00  0.00000000E+00
  0.00000000E+00  0.00000000E+00  0.00000000E+00
  0.00000000E+00  0.00000000E+00  0.00000000E+00
  0.00000000E+00  0.00000000E+00  0.00000000E+00
  0.00000000E+00  0.00000000E+00  0.00000000E+00
  0.00000000E+00  0.00000000E+00  0.00000000E+00
  0.00000000E+00  0.00000000E+00  0.00000000E+00
  0.00000000E+00  0.00000000E+00  0.00000000E+00
  0.00000000E+00  0.00000000E+00  0.00000000E+00
  0.00000000E+00  0.00000000E+00  0.00000000E+00
  0.00000000E+00  0.00000000E+00  0.00000000E+00
  0.00000000E+00  0.00000000E+00  0.00000000E+00
  0.00000000E+00  0.00000000E+00  0.00000000E+00
  0.00000000E+00  0.00000000E+00  0.00000000E+00
  0.00000000E+00  0.00000000E+00  0.00000000E+00
  0.00000000E+00  0.00000000E+00  0.00000000E+00
  0.00000000E+00  0.00000000E+00  0.00000000E+00
  0.00000000E+00  0.00000000E+00  0.00000000E+00
  0.00000000E+00  0.00000000E+00  0.00000000E+00
  0.00000000E+00  0.00000000E+00  0.00000000E+00
  0.00000000E+00  0.00000000E+00  0.00000000E+00
  0.00000000E+00  0.00000000E+00  0.00000000E+00
  0.00000000E+00  0.00000000E+00  0.00000000E+00
  0.00000000E+00  0.00000000E+00  0.00000000E+00
  0.00000000E+00  0.00000000E+00  0.00000000E+00
  0.00000000E+00  0.00000000E+00  0.00000000E+00
  0.00000000E+00  0.00000000E+00  0.00000000E+00
  0.00000000E+00  0.00000000E+00  0.00000000E+00
  0.00000000E+00  0.00000000E+00  0.00000000E+00
  0.00000000E+00  0.00000000E+00  0.00000000E+00
  0.00000000E+00  0.00000000E+00  0.00000000E+00
  0.00000000E+00  0.00000000E+00  0.00000000E+00
  0.00000000E+00  0.00000000E+00  0.00000000E+00
  0.00000000E+00  0.00000000E+00  0.00000000E+00
  0.00000000E+00  0.00000000E+00  0.00000000E+00
  0.00000000E+00  0.00000000E+00  0.00000000E+00
  0.00000000E+00  0.00000000E+00  0.00000000E+00
  0.00000000E+00  0.00000000E+00  0.00000000E+00
