Ag48 C6 Br6                             
    1.000000000000000     
    11.7702790000000004    0.0000000000000000    0.0000000000000000
     0.0000000000000000   11.7702790000000004    0.0000000000000000
     0.0000000000000000    0.0000000000000000   16.8004362799999996
   Ag   C    Br
    48     6     6
Selective dynamics
Direct
  0.0005667956465558  0.2507660933695988  0.4098532531777295   T   T   T
  0.9987626970486048  0.5010718329520429  0.4105849713266849   T   T   T
  0.9990210586481325  0.7501622071295202  0.4105842928204737   T   T   T
  0.9996233866570137  0.9996208051735778  0.4093843560313530   T   T   T
  0.2490948143842147  0.2490952180554018  0.4098248962393995   T   T   T
  0.2487548642573358  0.4993027995426331  0.4090666132615723   T   T   T
  0.2498219440506020  0.7504366489123697  0.4091143034780060   T   T   T
  0.2507611259965898  0.0005668579909397  0.4098510308808017   T   T   T
  0.4992978816696478  0.2487518398599562  0.4090676816964134   T   T   T
  0.5019385641068652  0.5019380320223092  0.4097857707985995   T   T   T
  0.5029023216683015  0.7497079630894774  0.4111001611125857   T   T   T
  0.5010671879695252  0.9987630450647274  0.4105879201269431   T   T   T
  0.7504428550366882  0.2498250738561083  0.4091164667280154   T   T   T
  0.7497122145579382  0.5029054889891853  0.4111013456652088   T   T   T
  0.7496042760261261  0.7495973320606168  0.4120692711944187   T   T   T
  0.7501668438451432  0.9990148364380005  0.4105868973476703   T   T   T
  0.1243288633854860  0.1243304575572353  0.5224788717576487   T   T   T
  0.1244451046699879  0.3750928573664538  0.5230762528706805   T   T   T
  0.1254071102337662  0.6248736739007086  0.5225833522338235   T   T   T
  0.1269297790895223  0.8755522531075002  0.5217918196380751   T   T   T
  0.3750978633416437  0.1244454953125071  0.5230762530857831   T   T   T
  0.3743618243324249  0.3743587873992666  0.5195746993321322   T   T   T
  0.3724473405376401  0.6235280591399359  0.5188710828575509   T   T   T
  0.3745222674943633  0.8755958265022841  0.5223192315208536   T   T   T
  0.6248714268796505  0.1254034425958821  0.5225851899640404   T   T   T
  0.6235291621918719  0.3724455332826579  0.5188718762327014   T   T   T
  0.6254045759979689  0.6253955497773802  0.5309031815159670   T   T   T
  0.6243516350123883  0.8771000001058056  0.5260173274895834   T   T   T
  0.8755487375008144  0.1269302643836951  0.5217928892962149   T   T   T
  0.8755920052366264  0.3745172952661235  0.5223173304604458   T   T   T
  0.8770963471747706  0.6243509069680542  0.5260149679226416   T   T   T
  0.8810128476949259  0.8810204289898138  0.5245557995579375   T   T   T
  0.1249999995752020  0.1249999995752020  0.2976113189365321   F   F   F
  0.1249999995752020  0.3749999987256061  0.2976113189365321   F   F   F
  0.1249999995752020  0.6249999978760030  0.2976113189365321   F   F   F
  0.1249999995752020  0.8749999970264071  0.2976113189365321   F   F   F
  0.3749999987256061  0.1249999995752020  0.2976113189365321   F   F   F
  0.3749999987256061  0.3749999987256061  0.2976113189365321   F   F   F
  0.3749999987256061  0.6249999978760030  0.2976113189365321   F   F   F
  0.3749999987256061  0.8749999970264071  0.2976113189365321   F   F   F
  0.6249999978760030  0.1249999995752020  0.2976113189365321   F   F   F
  0.6249999978760030  0.3749999987256061  0.2976113189365321   F   F   F
  0.6249999978760030  0.6249999978760030  0.2976113189365321   F   F   F
  0.6249999978760030  0.8749999970264071  0.2976113189365321   F   F   F
  0.8749999970264071  0.1249999995752020  0.2976113189365321   F   F   F
  0.8749999970264071  0.3749999987256061  0.2976113189365321   F   F   F
  0.8749999970264071  0.6249999978760030  0.2976113189365321   F   F   F
  0.8749999970264071  0.8749999970264071  0.2976113189365321   F   F   F
  0.3712371951808251  0.5180877614148969  0.6943499128242294   T   T   T
  0.4563479695670836  0.5969818013004442  0.6753015376812925   T   T   T
  0.5660412673545352  0.5660536266846705  0.6559778170809949   T   T   T
  0.5969618896926434  0.4563083147772105  0.6753032494585440   T   T   T
  0.5180340024884629  0.3712686611306850  0.6943504712661692   T   T   T
  0.4021421955078850  0.4021499314309125  0.6982562630942013   T   T   T
  0.2169507116902878  0.5626523992318155  0.7095895891205615   T   T   T
  0.4208892962207855  0.7609096704841747  0.6820826957809345   T   T   T
  0.7840885179274935  0.7840707472457566  0.6487760835165446   T   T   T
  0.7608851689438083  0.4208345592251064  0.6820906396335289   T   T   T
  0.5625769610060019  0.2169327440000330  0.7095891296002037   T   T   T
  0.2885104588231897  0.2885758810468317  0.7077215367176848   T   T   T
 
  0.00000000E+00  0.00000000E+00  0.00000000E+00
  0.00000000E+00  0.00000000E+00  0.00000000E+00
  0.00000000E+00  0.00000000E+00  0.00000000E+00
  0.00000000E+00  0.00000000E+00  0.00000000E+00
  0.00000000E+00  0.00000000E+00  0.00000000E+00
  0.00000000E+00  0.00000000E+00  0.00000000E+00
  0.00000000E+00  0.00000000E+00  0.00000000E+00
  0.00000000E+00  0.00000000E+00  0.00000000E+00
  0.00000000E+00  0.00000000E+00  0.00000000E+00
  0.00000000E+00  0.00000000E+00  0.00000000E+00
  0.00000000E+00  0.00000000E+00  0.00000000E+00
  0.00000000E+00  0.00000000E+00  0.00000000E+00
  0.00000000E+00  0.00000000E+00  0.00000000E+00
  0.00000000E+00  0.00000000E+00  0.00000000E+00
  0.00000000E+00  0.00000000E+00  0.00000000E+00
  0.00000000E+00  0.00000000E+00  0.00000000E+00
  0.00000000E+00  0.00000000E+00  0.00000000E+00
  0.00000000E+00  0.00000000E+00  0.00000000E+00
  0.00000000E+00  0.00000000E+00  0.00000000E+00
  0.00000000E+00  0.00000000E+00  0.00000000E+00
  0.00000000E+00  0.00000000E+00  0.00000000E+00
  0.00000000E+00  0.00000000E+00  0.00000000E+00
  0.00000000E+00  0.00000000E+00  0.00000000E+00
  0.00000000E+00  0.00000000E+00  0.00000000E+00
  0.00000000E+00  0.00000000E+00  0.00000000E+00
  0.00000000E+00  0.00000000E+00  0.00000000E+00
  0.00000000E+00  0.00000000E+00  0.00000000E+00
  0.00000000E+00  0.00000000E+00  0.00000000E+00
  0.00000000E+00  0.00000000E+00  0.00000000E+00
  0.00000000E+00  0.00000000E+00  0.00000000E+00
  0.00000000E+00  0.00000000E+00  0.00000000E+00
  0.00000000E+00  0.00000000E+00  0.00000000E+00
  0.00000000E+00  0.00000000E+00  0.00000000E+00
  0.00000000E+00  0.00000000E+00  0.00000000E+00
  0.00000000E+00  0.00000000E+00  0.00000000E+00
  0.00000000E+00  0.00000000E+00  0.00000000E+00
  0.00000000E+00  0.00000000E+00  0.00000000E+00
  0.00000000E+00  0.00000000E+00  0.00000000E+00
  0.00000000E+00  0.00000000E+00  0.00000000E+00
  0.00000000E+00  0.00000000E+00  0.00000000E+00
  0.00000000E+00  0.00000000E+00  0.00000000E+00
  0.00000000E+00  0.00000000E+00  0.00000000E+00
  0.00000000E+00  0.00000000E+00  0.00000000E+00
  0.00000000E+00  0.00000000E+00  0.00000000E+00
  0.00000000E+00  0.00000000E+00  0.00000000E+00
  0.00000000E+00  0.00000000E+00  0.00000000E+00
  0.00000000E+00  0.00000000E+00  0.00000000E+00
  0.00000000E+00  0.00000000E+00  0.00000000E+00
  0.00000000E+00  0.00000000E+00  0.00000000E+00
  0.00000000E+00  0.00000000E+00  0.00000000E+00
  0.00000000E+00  0.00000000E+00  0.00000000E+00
  0.00000000E+00  0.00000000E+00  0.00000000E+00
  0.00000000E+00  0.00000000E+00  0.00000000E+00
  0.00000000E+00  0.00000000E+00  0.00000000E+00
  0.00000000E+00  0.00000000E+00  0.00000000E+00
  0.00000000E+00  0.00000000E+00  0.00000000E+00
  0.00000000E+00  0.00000000E+00  0.00000000E+00
  0.00000000E+00  0.00000000E+00  0.00000000E+00
  0.00000000E+00  0.00000000E+00  0.00000000E+00
  0.00000000E+00  0.00000000E+00  0.00000000E+00
