Pt  C  H Cl                             
    1.000000000000000     
    11.2480068000000006    0.0000000000000000    0.0000000000000000
     0.0000000000000000   11.2480068000000006    0.0000000000000000
     0.0000000000000000    0.0000000000000000   23.9651564400000012
   Pt   C    H    Cl
    64     6     2     4
Selective dynamics
Direct
  0.2500000008890453  0.0000000000000000  0.3129543518222917   F   F   F
  0.0000000000000000  0.5000000017780906  0.3129543518222917   F   F   F
  0.2500000008890453  0.2500000008890453  0.3129543518222917   F   F   F
  0.2500000008890453  0.5000000017780906  0.3129543518222917   F   F   F
  0.2500000008890453  0.7500000026671358  0.3129543518222917   F   F   F
  0.5000000017780906  0.0000000000000000  0.3129543518222917   F   F   F
  0.5000000017780906  0.2500000008890453  0.3129543518222917   F   F   F
  0.0000000000000000  0.7500000026671358  0.3129543518222917   F   F   F
  0.5000000017780906  0.5000000017780906  0.3129543518222917   F   F   F
  0.5000000017780906  0.7500000026671358  0.3129543518222917   F   F   F
  0.7500000026671358  0.0000000000000000  0.3129543518222917   F   F   F
  0.7500000026671358  0.2500000008890453  0.3129543518222917   F   F   F
  0.7500000026671358  0.5000000017780906  0.3129543518222917   F   F   F
  0.7500000026671358  0.7500000026671358  0.3129543518222917   F   F   F
  0.0000000000000000  0.0000000000000000  0.3129543518222917   F   F   F
  0.0000000000000000  0.2500000008890453  0.3129543518222917   F   F   F
  0.2498173278917488  0.9982824312262779  0.4775716422057915   T   T   T
  0.2507474858308182  0.2507464004298065  0.4775334902577311   T   T   T
  0.2534450055010670  0.5011825432389460  0.4795291415467933   T   T   T
  0.2535363887190765  0.7464718459567719  0.4800144284160321   T   T   T
  0.5000077966742641 -0.0000028544846269  0.4775392710068337   T   T   T
  0.5011872069327918  0.2534420346533787  0.4795290591400392   T   T   T
  0.5000029301977791  0.5000036355705580  0.4803150773318990   T   T   T
  0.4988189054393468  0.7465508230581281  0.4795275542340677   T   T   T
  0.7501837788016145  0.0017112578660845  0.4775743349208909   T   T   T
  0.7464734444350316  0.2535301870205012  0.4800118438695292   T   T   T
  0.7465597533860174  0.4988206447672965  0.4795276136225968   T   T   T
  0.7492535561258397  0.7492595376155476  0.4775340038905008   T   T   T
  0.0000009601419850  0.0000008711168485  0.4776639276478144   T   T   T
  0.9982879433937035  0.2498154192235754  0.4775703521500261   T   T   T
  0.0000003977289624  0.5000017954876630  0.4775335318066645   T   T   T
  0.0017148079625874  0.7501885244693410  0.4775700474049521   T   T   T
  0.1242966011556002  0.1242962767470385  0.5590615570955597   T   T   T
  0.1229509012498397  0.3737656682564109  0.5592147571491910   T   T   T
  0.1234387769513704  0.6244297990590355  0.5602456115833004   T   T   T
  0.1248298360589849  0.8751719258549493  0.5597382954913471   T   T   T
  0.3737647191481415  0.1229495530473264  0.5592148178031235   T   T   T
  0.3679535816140578  0.3679595451116673  0.5628354412082089   T   T   T
  0.3748939445252710  0.6251106255417425  0.5700901949191575   T   T   T
  0.3755788165087359  0.8765594585753699  0.5602484356595129   T   T   T
  0.6244309795313046  0.1234403915634486  0.5602493578980212   T   T   T
  0.6250998181058237  0.3748819995185691  0.5700933228397235   T   T   T
  0.6320468791441877  0.6320405233192873  0.5628383097332635   T   T   T
  0.6262478514655044  0.8770498013522945  0.5592142906635713   T   T   T
  0.8751756953927854  0.1248248239199113  0.5597367935607619   T   T   T
  0.8765611162628965  0.3755690752286302  0.5602426797099503   T   T   T
  0.8770492454587709  0.6262367721245290  0.5592039059492629   T   T   T
  0.8757088022526529  0.8757056006666926  0.5590573943735371   T   T   T
  0.1250000008890453  0.1250000000000000  0.3959242036977884   F   F   F
  0.1250000008890453  0.3750000008890453  0.3959242036977884   F   F   F
  0.1250000008890453  0.6250000026671358  0.3959242036977884   F   F   F
  0.1250000008890453  0.8750000026671358  0.3959242036977884   F   F   F
  0.3750000017780906  0.1250000000000000  0.3959242036977884   F   F   F
  0.3750000017780906  0.3750000008890453  0.3959242036977884   F   F   F
  0.3750000017780906  0.6250000026671358  0.3959242036977884   F   F   F
  0.3750000017780906  0.8750000026671358  0.3959242036977884   F   F   F
  0.6250000026671358  0.1250000000000000  0.3959242036977884   F   F   F
  0.6250000026671358  0.3750000008890453  0.3959242036977884   F   F   F
  0.6250000026671358  0.6250000026671358  0.3959242036977884   F   F   F
  0.6250000026671358  0.8750000026671358  0.3959242036977884   F   F   F
  0.8750000035561882  0.1250000000000000  0.3959242036977884   F   F   F
  0.8750000026671358  0.3750000008890453  0.3959242036977884   F   F   F
  0.8750000035561882  0.6250000026671358  0.3959242036977884   F   F   F
  0.8750000035561882  0.8750000026671358  0.3959242036977884   F   F   F
  0.4069840035944733  0.4069843723817216  0.6453395688134124   T   T   T
  0.3736424683315137  0.5350663463622913  0.6500697783365358   T   T   T
  0.4649211838491810  0.6263501008018251  0.6500734560265445   T   T   T
  0.5929992039878588  0.5929836352361928  0.6453402464604865   T   T   T
  0.6263449460763917  0.4648929639422887  0.6500692531644966   T   T   T
  0.5350622029362214  0.3736193447303688  0.6500769418194928   T   T   T
  0.3491924733768597  0.3492160602509061  0.6702116881394795   T   T   T
  0.6507798862529716  0.6507630860942831  0.6702111429202405   T   T   T
  0.2413190754253569  0.5582069159389618  0.6867582210084993   T   T   T
  0.4418315784651783  0.7586547071807247  0.6867651681377652   T   T   T
  0.7586709254121448  0.4417846926920556  0.6867491701575293   T   T   T
  0.5581413674788143  0.2413399476885441  0.6868065344035599   T   T   T
 
  0.00000000E+00  0.00000000E+00  0.00000000E+00
  0.00000000E+00  0.00000000E+00  0.00000000E+00
  0.00000000E+00  0.00000000E+00  0.00000000E+00
  0.00000000E+00  0.00000000E+00  0.00000000E+00
  0.00000000E+00  0.00000000E+00  0.00000000E+00
  0.00000000E+00  0.00000000E+00  0.00000000E+00
  0.00000000E+00  0.00000000E+00  0.00000000E+00
  0.00000000E+00  0.00000000E+00  0.00000000E+00
  0.00000000E+00  0.00000000E+00  0.00000000E+00
  0.00000000E+00  0.00000000E+00  0.00000000E+00
  0.00000000E+00  0.00000000E+00  0.00000000E+00
  0.00000000E+00  0.00000000E+00  0.00000000E+00
  0.00000000E+00  0.00000000E+00  0.00000000E+00
  0.00000000E+00  0.00000000E+00  0.00000000E+00
  0.00000000E+00  0.00000000E+00  0.00000000E+00
  0.00000000E+00  0.00000000E+00  0.00000000E+00
  0.00000000E+00  0.00000000E+00  0.00000000E+00
  0.00000000E+00  0.00000000E+00  0.00000000E+00
  0.00000000E+00  0.00000000E+00  0.00000000E+00
  0.00000000E+00  0.00000000E+00  0.00000000E+00
  0.00000000E+00  0.00000000E+00  0.00000000E+00
  0.00000000E+00  0.00000000E+00  0.00000000E+00
  0.00000000E+00  0.00000000E+00  0.00000000E+00
  0.00000000E+00  0.00000000E+00  0.00000000E+00
  0.00000000E+00  0.00000000E+00  0.00000000E+00
  0.00000000E+00  0.00000000E+00  0.00000000E+00
  0.00000000E+00  0.00000000E+00  0.00000000E+00
  0.00000000E+00  0.00000000E+00  0.00000000E+00
  0.00000000E+00  0.00000000E+00  0.00000000E+00
  0.00000000E+00  0.00000000E+00  0.00000000E+00
  0.00000000E+00  0.00000000E+00  0.00000000E+00
  0.00000000E+00  0.00000000E+00  0.00000000E+00
  0.00000000E+00  0.00000000E+00  0.00000000E+00
  0.00000000E+00  0.00000000E+00  0.00000000E+00
  0.00000000E+00  0.00000000E+00  0.00000000E+00
  0.00000000E+00  0.00000000E+00  0.00000000E+00
  0.00000000E+00  0.00000000E+00  0.00000000E+00
  0.00000000E+00  0.00000000E+00  0.00000000E+00
  0.00000000E+00  0.00000000E+00  0.00000000E+00
  0.00000000E+00  0.00000000E+00  0.00000000E+00
  0.00000000E+00  0.00000000E+00  0.00000000E+00
  0.00000000E+00  0.00000000E+00  0.00000000E+00
  0.00000000E+00  0.00000000E+00  0.00000000E+00
  0.00000000E+00  0.00000000E+00  0.00000000E+00
  0.00000000E+00  0.00000000E+00  0.00000000E+00
  0.00000000E+00  0.00000000E+00  0.00000000E+00
  0.00000000E+00  0.00000000E+00  0.00000000E+00
  0.00000000E+00  0.00000000E+00  0.00000000E+00
  0.00000000E+00  0.00000000E+00  0.00000000E+00
  0.00000000E+00  0.00000000E+00  0.00000000E+00
  0.00000000E+00  0.00000000E+00  0.00000000E+00
  0.00000000E+00  0.00000000E+00  0.00000000E+00
  0.00000000E+00  0.00000000E+00  0.00000000E+00
  0.00000000E+00  0.00000000E+00  0.00000000E+00
  0.00000000E+00  0.00000000E+00  0.00000000E+00
  0.00000000E+00  0.00000000E+00  0.00000000E+00
  0.00000000E+00  0.00000000E+00  0.00000000E+00
  0.00000000E+00  0.00000000E+00  0.00000000E+00
  0.00000000E+00  0.00000000E+00  0.00000000E+00
  0.00000000E+00  0.00000000E+00  0.00000000E+00
  0.00000000E+00  0.00000000E+00  0.00000000E+00
  0.00000000E+00  0.00000000E+00  0.00000000E+00
  0.00000000E+00  0.00000000E+00  0.00000000E+00
  0.00000000E+00  0.00000000E+00  0.00000000E+00
  0.00000000E+00  0.00000000E+00  0.00000000E+00
  0.00000000E+00  0.00000000E+00  0.00000000E+00
  0.00000000E+00  0.00000000E+00  0.00000000E+00
  0.00000000E+00  0.00000000E+00  0.00000000E+00
  0.00000000E+00  0.00000000E+00  0.00000000E+00
  0.00000000E+00  0.00000000E+00  0.00000000E+00
  0.00000000E+00  0.00000000E+00  0.00000000E+00
  0.00000000E+00  0.00000000E+00  0.00000000E+00
  0.00000000E+00  0.00000000E+00  0.00000000E+00
  0.00000000E+00  0.00000000E+00  0.00000000E+00
  0.00000000E+00  0.00000000E+00  0.00000000E+00
  0.00000000E+00  0.00000000E+00  0.00000000E+00
