Ag48 C6 Br2 H4                          
    1.000000000000000     
    11.7702790000000004    0.0000000000000000    0.0000000000000000
     0.0000000000000000   16.6456881000000010    0.0000000000000000
     0.0000000000000000    0.0000000000000000   15.7084289199999994
   Ag   C    Br   H 
    48     6     2     4
Selective dynamics
Direct
  0.0000676004635380  0.2500241686007740  0.4044439102263411   T   T   T
  0.0000002194702020  0.4999999751916846  0.4044975835290359   T   T   T
  0.9999325848901179  0.7499758895984741  0.4044439415645797   T   T   T
  0.9999999468169776  0.0000000246759981  0.4043702851277970   T   T   T
  0.2498498586144464  0.2498628361143957  0.4041456660755074   T   T   T
  0.2500821650676670  0.5000415286091808  0.4044780031377258   T   T   T
  0.2501168826344866  0.7499428803329593  0.4045752434591279   T   T   T
  0.2499731623436787  0.9999940274644601  0.4044363448366894   T   T   T
  0.5001511281899269  0.2499261856034636  0.4043416456617095   T   T   T
  0.4999998617699006  0.4999998615967343  0.4042662704861542   T   T   T
  0.4998491281377611  0.7500737245476756  0.4043425028881273   T   T   T
  0.5000000183715727  0.9999999635868875  0.4044169663037280   T   T   T
  0.7498829856806495  0.2500571553195670  0.4045751454885007   T   T   T
  0.7499176170443178  0.4999586025232503  0.4044786736606341   T   T   T
  0.7501497174558764  0.7501368232772236  0.4041468891992537   T   T   T
  0.7500268646048127  0.0000059788990328  0.4044364103028713   T   T   T
  0.1250345174774665  0.1250726606081827  0.4905406992082106   T   T   T
  0.1245334521037762  0.3750748873288146  0.4905999837719435   T   T   T
  0.1250115324336321  0.6249336468895805  0.4905707786700333   T   T   T
  0.1250140064779117  0.8750023248752470  0.4905402920071609   T   T   T
  0.3750511677174373  0.1250476971296166  0.4905476720708606   T   T   T
  0.3749859854762221  0.3749293684635262  0.4896934689656831   T   T   T
  0.3748831271939181  0.6246283457711854  0.4907974340619745   T   T   T
  0.3750617833375074  0.8749160552527968  0.4905740623190056   T   T   T
  0.6249381058081553  0.1250839685577745  0.4905741450102710   T   T   T
  0.6251181473622509  0.3753715291362383  0.4907966159914423   T   T   T
  0.6250144582856194  0.6250707765329580  0.4897005469638458   T   T   T
  0.6249487013809301  0.8749522678907553  0.4905476361429493   T   T   T
  0.8749860365436888  0.1249976209959129  0.4905404121344716   T   T   T
  0.8749885882311901  0.3750661980744852  0.4905707625956524   T   T   T
  0.8754647207434161  0.6249253080534061  0.4906010821455169   T   T   T
  0.8749656764649387  0.8749275743887210  0.4905405256437803   T   T   T
  0.1249999995752020  0.1250000004505694  0.3183004503801143   F   F   F
  0.1249999995752020  0.3750000007509442  0.3183004503801143   F   F   F
  0.1249999995752020  0.6250000016520829  0.3183004503801143   F   F   F
  0.1249999995752020  0.8750000019524578  0.3183004503801143   F   F   F
  0.3749999987256061  0.1250000004505694  0.3183004503801143   F   F   F
  0.3749999987256061  0.3750000007509442  0.3183004503801143   F   F   F
  0.3749999987256061  0.6250000016520829  0.3183004503801143   F   F   F
  0.3749999987256061  0.8750000019524578  0.3183004503801143   F   F   F
  0.6249999978760030  0.1250000004505694  0.3183004503801143   F   F   F
  0.6249999978760030  0.3750000007509442  0.3183004503801143   F   F   F
  0.6249999978760030  0.6250000016520829  0.3183004503801143   F   F   F
  0.6249999978760030  0.8750000019524578  0.3183004503801143   F   F   F
  0.8749999970264071  0.1250000004505694  0.3183004503801143   F   F   F
  0.8749999970264071  0.3750000007509442  0.3183004503801143   F   F   F
  0.8749999970264071  0.6250000016520829  0.3183004503801143   F   F   F
  0.8749999970264071  0.8750000019524578  0.3183004503801143   F   F   F
  0.4322038722108914  0.4324342208587382  0.6823446768546830   T   T   T
  0.3811823322632790  0.5079472117357682  0.6815242469963323   T   T   T
  0.4498069639678590  0.5765176783034178  0.6809199884320591   T   T   T
  0.5677950388647801  0.5675655247852305  0.6823774870085018   T   T   T
  0.6188153336843314  0.4920513247078304  0.6815449154496562   T   T   T
  0.5501913864905461  0.4234811634983373  0.6809060107536027   T   T   T
  0.3386273017183186  0.3389104027013587  0.6818521154002681   T   T   T
  0.6613717320072041  0.6610878685021504  0.6819325012632476   T   T   T
  0.2889298416234851  0.5138960850154248  0.6810555218124819   T   T   T
  0.4111482596171143  0.6361241663890809  0.6814866725217357   T   T   T
  0.7110673089861450  0.4861022705773195  0.6810943578736897   T   T   T
  0.5888490418534360  0.3638737831631076  0.6814605968749916   T   T   T
 
  0.00000000E+00  0.00000000E+00  0.00000000E+00
  0.00000000E+00  0.00000000E+00  0.00000000E+00
  0.00000000E+00  0.00000000E+00  0.00000000E+00
  0.00000000E+00  0.00000000E+00  0.00000000E+00
  0.00000000E+00  0.00000000E+00  0.00000000E+00
  0.00000000E+00  0.00000000E+00  0.00000000E+00
  0.00000000E+00  0.00000000E+00  0.00000000E+00
  0.00000000E+00  0.00000000E+00  0.00000000E+00
  0.00000000E+00  0.00000000E+00  0.00000000E+00
  0.00000000E+00  0.00000000E+00  0.00000000E+00
  0.00000000E+00  0.00000000E+00  0.00000000E+00
  0.00000000E+00  0.00000000E+00  0.00000000E+00
  0.00000000E+00  0.00000000E+00  0.00000000E+00
  0.00000000E+00  0.00000000E+00  0.00000000E+00
  0.00000000E+00  0.00000000E+00  0.00000000E+00
  0.00000000E+00  0.00000000E+00  0.00000000E+00
  0.00000000E+00  0.00000000E+00  0.00000000E+00
  0.00000000E+00  0.00000000E+00  0.00000000E+00
  0.00000000E+00  0.00000000E+00  0.00000000E+00
  0.00000000E+00  0.00000000E+00  0.00000000E+00
  0.00000000E+00  0.00000000E+00  0.00000000E+00
  0.00000000E+00  0.00000000E+00  0.00000000E+00
  0.00000000E+00  0.00000000E+00  0.00000000E+00
  0.00000000E+00  0.00000000E+00  0.00000000E+00
  0.00000000E+00  0.00000000E+00  0.00000000E+00
  0.00000000E+00  0.00000000E+00  0.00000000E+00
  0.00000000E+00  0.00000000E+00  0.00000000E+00
  0.00000000E+00  0.00000000E+00  0.00000000E+00
  0.00000000E+00  0.00000000E+00  0.00000000E+00
  0.00000000E+00  0.00000000E+00  0.00000000E+00
  0.00000000E+00  0.00000000E+00  0.00000000E+00
  0.00000000E+00  0.00000000E+00  0.00000000E+00
  0.00000000E+00  0.00000000E+00  0.00000000E+00
  0.00000000E+00  0.00000000E+00  0.00000000E+00
  0.00000000E+00  0.00000000E+00  0.00000000E+00
  0.00000000E+00  0.00000000E+00  0.00000000E+00
  0.00000000E+00  0.00000000E+00  0.00000000E+00
  0.00000000E+00  0.00000000E+00  0.00000000E+00
  0.00000000E+00  0.00000000E+00  0.00000000E+00
  0.00000000E+00  0.00000000E+00  0.00000000E+00
  0.00000000E+00  0.00000000E+00  0.00000000E+00
  0.00000000E+00  0.00000000E+00  0.00000000E+00
  0.00000000E+00  0.00000000E+00  0.00000000E+00
  0.00000000E+00  0.00000000E+00  0.00000000E+00
  0.00000000E+00  0.00000000E+00  0.00000000E+00
  0.00000000E+00  0.00000000E+00  0.00000000E+00
  0.00000000E+00  0.00000000E+00  0.00000000E+00
  0.00000000E+00  0.00000000E+00  0.00000000E+00
  0.00000000E+00  0.00000000E+00  0.00000000E+00
  0.00000000E+00  0.00000000E+00  0.00000000E+00
  0.00000000E+00  0.00000000E+00  0.00000000E+00
  0.00000000E+00  0.00000000E+00  0.00000000E+00
  0.00000000E+00  0.00000000E+00  0.00000000E+00
  0.00000000E+00  0.00000000E+00  0.00000000E+00
  0.00000000E+00  0.00000000E+00  0.00000000E+00
  0.00000000E+00  0.00000000E+00  0.00000000E+00
  0.00000000E+00  0.00000000E+00  0.00000000E+00
  0.00000000E+00  0.00000000E+00  0.00000000E+00
  0.00000000E+00  0.00000000E+00  0.00000000E+00
  0.00000000E+00  0.00000000E+00  0.00000000E+00
