Pd48 C6 F6                              
    1.000000000000000     
    11.1922750000000004    0.0000000000000000    0.0000000000000000
    -5.5961369999999997    9.6927939999999992    0.0000000000000000
     0.0000000000000000    0.0000000000000000   16.5692270000000015
   Pd   C    F 
    48     6     6
Selective dynamics
Direct
  0.0833330000000032  0.1666669999999968  0.3621169999999978   F   F   F
  0.0833330000000032  0.4166669999999968  0.3621169999999978   F   F   F
  0.0833330000000032  0.6666669999999968  0.3621169999999978   F   F   F
  0.0833330000000032  0.9166669999999968  0.3621169999999978   F   F   F
  0.3333330000000032  0.1666669999999968  0.3621169999999978   F   F   F
  0.3333330000000032  0.4166669999999968  0.3621169999999978   F   F   F
  0.3333330000000032  0.6666669999999968  0.3621169999999978   F   F   F
  0.3333330000000032  0.9166669999999968  0.3621169999999978   F   F   F
  0.5833330000000032  0.1666669999999968  0.3621169999999978   F   F   F
  0.5833330000000032  0.4166669999999968  0.3621169999999978   F   F   F
  0.5833330000000032  0.6666669999999968  0.3621169999999978   F   F   F
  0.5833330000000032  0.9166669999999968  0.3621169999999978   F   F   F
  0.8333330000000032  0.1666669999999968  0.3621169999999978   F   F   F
  0.8333330000000032  0.4166669999999968  0.3621169999999978   F   F   F
  0.8333330000000032  0.6666669999999968  0.3621169999999978   F   F   F
  0.8333330000000032  0.9166669999999968  0.3621169999999978   F   F   F
  0.2457885029044888  0.9931187158421224  0.6329986325139529   T   T   T
  0.2560440957210233  0.2530379436755226  0.6467516151871209   T   T   T
  0.2457939075886841  0.5026644647728062  0.6330237000377608   T   T   T
  0.2478517552365034  0.7489243357396589  0.6362809857383738   T   T   T
  0.5004758674873315  0.9955678224907558  0.6350811948446022   T   T   T
  0.5017422433256300  0.2417699286371260  0.6430662284387552   T   T   T
  0.5017519992731110  0.5099883088750801  0.6430757686437047   T   T   T
  0.5004728448503144  0.7549080553786567  0.6350903687708396   T   T   T
  0.7539202658038775  0.0019629663446068  0.6363630632830066   T   T   T
  0.7557358656668427  0.2481350696879474  0.6333291185554089   T   T   T
  0.7478767422548387  0.4989267775720663  0.6479819479815205   T   T   T
  0.7557439838810680  0.7576124326966607  0.6333107905622413   T   T   T
  0.0034905018100346  0.0023868196681320  0.6370708221865300   T   T   T
  0.0034959079150525  0.2511006754652456  0.6370722562959017   T   T   T
  0.9978217836166721  0.4993824801444191  0.6372538889063861   T   T   T
  0.9978205558114723  0.7484403276776916  0.6372659789339608   T   T   T
  0.1690739195711402  0.0871208677033195  0.5010852406974635   T   T   T
  0.1690747762278235  0.3319604136590470  0.5010909129413008   T   T   T
  0.1644253634335229  0.5824014509062039  0.4982208670487651   T   T   T
  0.1644153561063746  0.8320097913212905  0.4982144602811829   T   T   T
  0.4179102045895675  0.0853526901913710  0.5001100563681931   T   T   T
  0.4174875991068632  0.3337406062862698  0.5015579425745003   T   T   T
  0.4179029400326684  0.5825500638525654  0.5001151832909230   T   T   T
  0.4147229759132074  0.8323601326180636  0.4981402626721376   T   T   T
  0.6665814811079755  0.0828757783743654  0.4983415995070075   T   T   T
  0.6660074098721935  0.3337396731749465  0.5018591876738796   T   T   T
  0.6660073656319199  0.5822589029021898  0.5018527392808210   T   T   T
  0.6665769411421323  0.8337067783069401  0.4983354742259394   T   T   T
  0.9172854077940826  0.0836420147224715  0.4992001842571270   T   T   T
  0.9182583924211229  0.3330055099083395  0.4983894541952267   T   T   T
  0.9110273594919320  0.5805190905170718  0.5027019745586756   T   T   T
  0.9182681945749991  0.8352512359654867  0.4983868790264765   T   T   T
  0.5743304929630995  0.3011340621253353  0.7634076829070793   T   T   T
  0.4258403768490737  0.2268393284232175  0.7631228389869307   T   T   T
  0.3417872564067252  0.2959357405123271  0.7612544220376094   T   T   T
  0.4259443842964501  0.4490882238051910  0.7631531919798888   T   T   T
  0.5744325261469001  0.5232171407797921  0.7633906720359036   T   T   T
  0.6588302047745671  0.4543747782689422  0.7618439894864792   T   T   T
  0.6368768836295118  0.2379527801879675  0.8000532328294909   T   T   T
  0.3629986594037220  0.1010696773395594  0.7996180524077801   T   T   T
  0.2400149310392621  0.2450466425489566  0.8197353304226311   T   T   T
  0.3632272882017844  0.5120729768397254  0.7997051410547726   T   T   T
  0.6371119060940700  0.6490091014386152  0.7999840828286366   T   T   T
  0.7598646928330908  0.5048810055928783  0.8209134755035379   T   T   T
 
  0.00000000E+00  0.00000000E+00  0.00000000E+00
  0.00000000E+00  0.00000000E+00  0.00000000E+00
  0.00000000E+00  0.00000000E+00  0.00000000E+00
  0.00000000E+00  0.00000000E+00  0.00000000E+00
  0.00000000E+00  0.00000000E+00  0.00000000E+00
  0.00000000E+00  0.00000000E+00  0.00000000E+00
  0.00000000E+00  0.00000000E+00  0.00000000E+00
  0.00000000E+00  0.00000000E+00  0.00000000E+00
  0.00000000E+00  0.00000000E+00  0.00000000E+00
  0.00000000E+00  0.00000000E+00  0.00000000E+00
  0.00000000E+00  0.00000000E+00  0.00000000E+00
  0.00000000E+00  0.00000000E+00  0.00000000E+00
  0.00000000E+00  0.00000000E+00  0.00000000E+00
  0.00000000E+00  0.00000000E+00  0.00000000E+00
  0.00000000E+00  0.00000000E+00  0.00000000E+00
  0.00000000E+00  0.00000000E+00  0.00000000E+00
  0.00000000E+00  0.00000000E+00  0.00000000E+00
  0.00000000E+00  0.00000000E+00  0.00000000E+00
  0.00000000E+00  0.00000000E+00  0.00000000E+00
  0.00000000E+00  0.00000000E+00  0.00000000E+00
  0.00000000E+00  0.00000000E+00  0.00000000E+00
  0.00000000E+00  0.00000000E+00  0.00000000E+00
  0.00000000E+00  0.00000000E+00  0.00000000E+00
  0.00000000E+00  0.00000000E+00  0.00000000E+00
  0.00000000E+00  0.00000000E+00  0.00000000E+00
  0.00000000E+00  0.00000000E+00  0.00000000E+00
  0.00000000E+00  0.00000000E+00  0.00000000E+00
  0.00000000E+00  0.00000000E+00  0.00000000E+00
  0.00000000E+00  0.00000000E+00  0.00000000E+00
  0.00000000E+00  0.00000000E+00  0.00000000E+00
  0.00000000E+00  0.00000000E+00  0.00000000E+00
  0.00000000E+00  0.00000000E+00  0.00000000E+00
  0.00000000E+00  0.00000000E+00  0.00000000E+00
  0.00000000E+00  0.00000000E+00  0.00000000E+00
  0.00000000E+00  0.00000000E+00  0.00000000E+00
  0.00000000E+00  0.00000000E+00  0.00000000E+00
  0.00000000E+00  0.00000000E+00  0.00000000E+00
  0.00000000E+00  0.00000000E+00  0.00000000E+00
  0.00000000E+00  0.00000000E+00  0.00000000E+00
  0.00000000E+00  0.00000000E+00  0.00000000E+00
  0.00000000E+00  0.00000000E+00  0.00000000E+00
  0.00000000E+00  0.00000000E+00  0.00000000E+00
  0.00000000E+00  0.00000000E+00  0.00000000E+00
  0.00000000E+00  0.00000000E+00  0.00000000E+00
  0.00000000E+00  0.00000000E+00  0.00000000E+00
  0.00000000E+00  0.00000000E+00  0.00000000E+00
  0.00000000E+00  0.00000000E+00  0.00000000E+00
  0.00000000E+00  0.00000000E+00  0.00000000E+00
  0.00000000E+00  0.00000000E+00  0.00000000E+00
  0.00000000E+00  0.00000000E+00  0.00000000E+00
  0.00000000E+00  0.00000000E+00  0.00000000E+00
  0.00000000E+00  0.00000000E+00  0.00000000E+00
  0.00000000E+00  0.00000000E+00  0.00000000E+00
  0.00000000E+00  0.00000000E+00  0.00000000E+00
  0.00000000E+00  0.00000000E+00  0.00000000E+00
  0.00000000E+00  0.00000000E+00  0.00000000E+00
  0.00000000E+00  0.00000000E+00  0.00000000E+00
  0.00000000E+00  0.00000000E+00  0.00000000E+00
  0.00000000E+00  0.00000000E+00  0.00000000E+00
  0.00000000E+00  0.00000000E+00  0.00000000E+00
