Rh48 C6 H2 F4                           
    1.000000000000000     
    10.8856652999999994    0.0000000000000000    0.0000000000000000
     0.0000000000000000   10.8856652999999994    0.0000000000000000
     0.0000000000000000    0.0000000000000000   16.5539069400000010
   Rh   C    H    F 
    48     6     2     4
Selective dynamics
Direct
  0.0000038293984730  0.9999956960887815  0.4090937812596920   T   T   T
  0.9991841644563166  0.2499198151063737  0.4093153039594384   T   T   T
  0.9999977669221636  0.4999960994670474  0.4092158924835729   T   T   T
  0.0008141311854004  0.7500807517567551  0.4093190657378400   T   T   T
  0.2499213188630094  0.9991866811958516  0.4093166109435273   T   T   T
  0.2499009555422020  0.2498908657989318  0.4093523554998484   T   T   T
  0.2502417642398385  0.5002413874233440  0.4095915789220825   T   T   T
  0.2520937503969591  0.7479041696159143  0.4107820300672245   T   T   T
  0.4999967371185363  0.0000058420313351  0.4092178093268473   T   T   T
  0.5002406283973926  0.2502284393383860  0.4095917807539635   T   T   T
  0.4999952257657441  0.4999948171195072  0.4091364261692831   T   T   T
  0.4997553596412345  0.7497598671328731  0.4095865490573374   T   T   T
  0.7500716182466505  0.0008146197525178  0.4093185948318876   T   T   T
  0.7478982628487429  0.2520908374178461  0.4107823670890056   T   T   T
  0.7497600196301875  0.4997554964843545  0.4095876356627670   T   T   T
  0.7500971582264597  0.7500967621881216  0.4093527610477281   T   T   T
  0.1248603415303577  0.1248515881048107  0.5165788467427461   T   T   T
  0.1237529311009524  0.3743275583151657  0.5164697625007975   T   T   T
  0.1238607037064199  0.6249659868922137  0.5175106853104907   T   T   T
  0.1249990295169709  0.8750040460352082  0.5168246344834699   T   T   T
  0.3743297593127082  0.1237458962965832  0.5164728085565145   T   T   T
  0.3734289585934576  0.3734203650791983  0.5166017582751721   T   T   T
  0.3763367414524765  0.6236556595752774  0.5238202561169203   T   T   T
  0.3750308424743025  0.8761424609099038  0.5175171276890751   T   T   T
  0.6249598704788610  0.1238602085242135  0.5175245251944816   T   T   T
  0.6236563449419350  0.3763323723397889  0.5238082684681302   T   T   T
  0.6265639944675669  0.6265618697210513  0.5166215357383663   T   T   T
  0.6256604594133961  0.8762547157232348  0.5164564575909196   T   T   T
  0.8750002776831138  0.1249924177918089  0.5168209293390973   T   T   T
  0.8761339206453727  0.3750293366566382  0.5175194521128148   T   T   T
  0.8762506140570352  0.6256628876681773  0.5164662728444824   T   T   T
  0.8751393020018838  0.8751456557979154  0.5165840449205561   T   T   T
  0.1249999997703384  0.1249999997703384  0.3020435005538360   F   F   F
  0.1250000006889778  0.3750000002296616  0.3020435005538360   F   F   F
  0.1250000006889778  0.6250000006889778  0.3020435005538360   F   F   F
  0.1250000006889778  0.8750000011483010  0.3020435005538360   F   F   F
  0.3750000011483010  0.1249999997703384  0.3020435005538360   F   F   F
  0.3750000011483010  0.3750000002296616  0.3020435005538360   F   F   F
  0.3750000011483010  0.6250000006889778  0.3020435005538360   F   F   F
  0.3750000011483010  0.8750000011483010  0.3020435005538360   F   F   F
  0.6250000006889778  0.1249999997703384  0.3020435005538360   F   F   F
  0.6250000006889778  0.3750000002296616  0.3020435005538360   F   F   F
  0.6250000016076172  0.6250000006889778  0.3020435005538360   F   F   F
  0.6250000016076172  0.8750000011483010  0.3020435005538360   F   F   F
  0.8750000011483010  0.1249999997703384  0.3020435005538360   F   F   F
  0.8750000011483010  0.3750000002296616  0.3020435005538360   F   F   F
  0.8750000011483010  0.6250000006889778  0.3020435005538360   F   F   F
  0.8750000020669404  0.8750000011483010  0.3020435005538360   F   F   F
  0.4037925524653758  0.4037822351138942  0.6401221968344544   T   T   T
  0.3718159042970512  0.5345791552040993  0.6420571648061468   T   T   T
  0.4654023802789524  0.6281639679022533  0.6420618050580700   T   T   T
  0.5962057510211736  0.5962028032168973  0.6401344567536995   T   T   T
  0.6281582053289796  0.4654109567725371  0.6420666690544934   T   T   T
  0.5345987765878846  0.3718185567682823  0.6420599651729688   T   T   T
  0.3438462617708282  0.3438232840543449  0.6757050357281500   T   T   T
  0.6561496682323806  0.6561492256870309  0.6757242215803956   T   T   T
  0.2637588603771874  0.5607996934990638  0.6814930421629981   T   T   T
  0.4391639191957921  0.7362386034244963  0.6815246367999208   T   T   T
  0.7362289399199611  0.4391788084437565  0.6815082728163233   T   T   T
  0.5608215380864365  0.2637473639431676  0.6814944183837994   T   T   T
 
  0.00000000E+00  0.00000000E+00  0.00000000E+00
  0.00000000E+00  0.00000000E+00  0.00000000E+00
  0.00000000E+00  0.00000000E+00  0.00000000E+00
  0.00000000E+00  0.00000000E+00  0.00000000E+00
  0.00000000E+00  0.00000000E+00  0.00000000E+00
  0.00000000E+00  0.00000000E+00  0.00000000E+00
  0.00000000E+00  0.00000000E+00  0.00000000E+00
  0.00000000E+00  0.00000000E+00  0.00000000E+00
  0.00000000E+00  0.00000000E+00  0.00000000E+00
  0.00000000E+00  0.00000000E+00  0.00000000E+00
  0.00000000E+00  0.00000000E+00  0.00000000E+00
  0.00000000E+00  0.00000000E+00  0.00000000E+00
  0.00000000E+00  0.00000000E+00  0.00000000E+00
  0.00000000E+00  0.00000000E+00  0.00000000E+00
  0.00000000E+00  0.00000000E+00  0.00000000E+00
  0.00000000E+00  0.00000000E+00  0.00000000E+00
  0.00000000E+00  0.00000000E+00  0.00000000E+00
  0.00000000E+00  0.00000000E+00  0.00000000E+00
  0.00000000E+00  0.00000000E+00  0.00000000E+00
  0.00000000E+00  0.00000000E+00  0.00000000E+00
  0.00000000E+00  0.00000000E+00  0.00000000E+00
  0.00000000E+00  0.00000000E+00  0.00000000E+00
  0.00000000E+00  0.00000000E+00  0.00000000E+00
  0.00000000E+00  0.00000000E+00  0.00000000E+00
  0.00000000E+00  0.00000000E+00  0.00000000E+00
  0.00000000E+00  0.00000000E+00  0.00000000E+00
  0.00000000E+00  0.00000000E+00  0.00000000E+00
  0.00000000E+00  0.00000000E+00  0.00000000E+00
  0.00000000E+00  0.00000000E+00  0.00000000E+00
  0.00000000E+00  0.00000000E+00  0.00000000E+00
  0.00000000E+00  0.00000000E+00  0.00000000E+00
  0.00000000E+00  0.00000000E+00  0.00000000E+00
  0.00000000E+00  0.00000000E+00  0.00000000E+00
  0.00000000E+00  0.00000000E+00  0.00000000E+00
  0.00000000E+00  0.00000000E+00  0.00000000E+00
  0.00000000E+00  0.00000000E+00  0.00000000E+00
  0.00000000E+00  0.00000000E+00  0.00000000E+00
  0.00000000E+00  0.00000000E+00  0.00000000E+00
  0.00000000E+00  0.00000000E+00  0.00000000E+00
  0.00000000E+00  0.00000000E+00  0.00000000E+00
  0.00000000E+00  0.00000000E+00  0.00000000E+00
  0.00000000E+00  0.00000000E+00  0.00000000E+00
  0.00000000E+00  0.00000000E+00  0.00000000E+00
  0.00000000E+00  0.00000000E+00  0.00000000E+00
  0.00000000E+00  0.00000000E+00  0.00000000E+00
  0.00000000E+00  0.00000000E+00  0.00000000E+00
  0.00000000E+00  0.00000000E+00  0.00000000E+00
  0.00000000E+00  0.00000000E+00  0.00000000E+00
  0.00000000E+00  0.00000000E+00  0.00000000E+00
  0.00000000E+00  0.00000000E+00  0.00000000E+00
  0.00000000E+00  0.00000000E+00  0.00000000E+00
  0.00000000E+00  0.00000000E+00  0.00000000E+00
  0.00000000E+00  0.00000000E+00  0.00000000E+00
  0.00000000E+00  0.00000000E+00  0.00000000E+00
  0.00000000E+00  0.00000000E+00  0.00000000E+00
  0.00000000E+00  0.00000000E+00  0.00000000E+00
  0.00000000E+00  0.00000000E+00  0.00000000E+00
  0.00000000E+00  0.00000000E+00  0.00000000E+00
  0.00000000E+00  0.00000000E+00  0.00000000E+00
  0.00000000E+00  0.00000000E+00  0.00000000E+00
