Rh  C  F                                
   1.00000000000000     
    10.8721879999999995    0.0000000000000000    0.0000000000000000
    -5.4360939999999998    9.4155909999999992    0.0000000000000000
     0.0000000000000000    0.0000000000000000   24.6578279400000042
   Rh   C    F 
    64     6     6
Selective dynamics
Direct
  0.9999999559446024  0.7499999670758868  0.3041630438110658   F   F   F
  0.2499999889626636  0.0000000000000000  0.3041630438110658   F   F   F
  0.2499999891709876  0.2499999893793188  0.3041630438110658   F   F   F
  0.2499999888482805  0.4999999776965680  0.3041630438110658   F   F   F
  0.2499999890566116  0.7499999670758868  0.3041630438110658   F   F   F
  0.4999999779253272  0.0000000000000000  0.3041630438110658   F   F   F
  0.4999999781336513  0.2499999893793188  0.3041630438110658   F   F   F
  0.4999999778109441  0.4999999776965680  0.3041630438110658   F   F   F
  0.7499999668879909  0.0000000000000000  0.3041630438110658   F   F   F
  0.7499999670963149  0.2499999893793188  0.3041630438110658   F   F   F
  0.7499999667736077  0.4999999776965680  0.3041630438110658   F   F   F
  0.7499999669819388  0.7499999670758868  0.3041630438110658   F   F   F
  0.0000000000000000  0.0000000000000000  0.3041630438110658   F   F   F
  0.9999999560589785  0.2499999893793188  0.3041630438110658   F   F   F
  0.9999999998856168  0.4999999776965680  0.3041630438110658   F   F   F
  0.4999999780192752  0.7499999670758868  0.3041630438110658   F   F   F
  0.0833330000000032  0.1666669999999968  0.3941659420955475   F   F   F
  0.0833330000000032  0.4166669999999968  0.3941659420955475   F   F   F
  0.0833330000000032  0.6666669999999968  0.3941659420955475   F   F   F
  0.0833330000000032  0.9166669999999968  0.3941659420955475   F   F   F
  0.3333330000000032  0.1666669999999968  0.3941659420955475   F   F   F
  0.3333330000000032  0.4166669999999968  0.3941659420955475   F   F   F
  0.3333330000000032  0.6666669999999968  0.3941659420955475   F   F   F
  0.3333330000000032  0.9166669999999968  0.3941659420955475   F   F   F
  0.5833330000000032  0.1666669999999968  0.3941659420955475   F   F   F
  0.5833330000000032  0.4166669999999968  0.3941659420955475   F   F   F
  0.5833330000000032  0.6666669999999968  0.3941659420955475   F   F   F
  0.5833330000000032  0.9166669999999968  0.3941659420955475   F   F   F
  0.8333330000000032  0.1666669999999968  0.3941659420955475   F   F   F
  0.8333330000000032  0.4166669999999968  0.3941659420955475   F   F   F
  0.8333330000000032  0.6666669999999968  0.3941659420955475   F   F   F
  0.8333330000000032  0.9166669999999968  0.3941659420955475   F   F   F
  0.9974665234503296  0.9971533193863155  0.5653580227651744   T   T   T
  0.9954583688211653  0.2484910050502089  0.5655870741170238   T   T   T
  0.0002630118666082  0.4999603047592626  0.5658322391224914   T   T   T
  0.0009910850285027  0.7496176300602591  0.5655154271920454   T   T   T
  0.2476792322482578  0.9949457909824108  0.5655310261849604   T   T   T
  0.2446059914453446  0.2434870828093300  0.5702924428316125   T   T   T
  0.2507405567743874  0.4996803967427247  0.5691457615466532   T   T   T
  0.2502302073806086  0.7492063901058716  0.5657801414238456   T   T   T
  0.5000590198227816  0.0001549709241710  0.5658738622817162   T   T   T
  0.4997345934052909  0.2499778668502180  0.5693277705952791   T   T   T
  0.5057626638692581  0.5047162370244325  0.5703541145629807   T   T   T
  0.5012466456035470  0.7543585640624378  0.5655932740180046   T   T   T
  0.7498635427595970  0.0000434782167921  0.5654550097123723   T   T   T
  0.7492072277960391  0.2492691855459159  0.5658431327273979   T   T   T
  0.7550171643907563  0.5022972728708111  0.5656400252838112   T   T   T
  0.7531227120005569  0.7527342206824166  0.5655406932460049   T   T   T
  0.1674101386101287  0.0847284636035343  0.4800196492730873   T   T   T
  0.1677645402530168  0.3337171238477686  0.4803479022971450   T   T   T
  0.1677208764860299  0.5819203632510564  0.4802422912311587   T   T   T
  0.1676774245590663  0.8335047091969462  0.4795493190871127   T   T   T
  0.4168083455209238  0.0848855701354312  0.4802536850502118   T   T   T
  0.4161661916566533  0.3336500910391330  0.4803771818430523   T   T   T
  0.4162738138098900  0.5822720062019974  0.4802269943444192   T   T   T
  0.4167614950718400  0.8332429963863573  0.4798466203993441   T   T   T
  0.6663294707397557  0.0834845703997985  0.4797887286527999   T   T   T
  0.6647940219138216  0.3333462518104174  0.4803770349194081   T   T   T
  0.6652122468600422  0.5825981673219400  0.4800714229669765   T   T   T
  0.6660810245010117  0.8325336703821375  0.4794937352021291   T   T   T
  0.9171963026796144  0.0837651617146972  0.4795623300575596   T   T   T
  0.9167519631213262  0.3332620550262947  0.4798375124899296   T   T   T
  0.9164990188087025  0.5826816656125728  0.4797328587716303   T   T   T
  0.9169917857050873  0.8330640999453576  0.4794366389017859   T   T   T
  0.3006123395021878  0.2229531820411811  0.6500376243499533   T   T   T
  0.2241824844823842  0.2994416051485870  0.6500981450600317   T   T   T
  0.2932348367976668  0.4573574831759484  0.6485319033618864   T   T   T
  0.4510993873361118  0.5264260897864559  0.6500944453901921   T   T   T
  0.5277973241114842  0.4501883937286790  0.6500361949229988   T   T   T
  0.4586265408154041  0.2922257596726794  0.6488156316973621   T   T   T
  0.2348879231828895  0.0906524432801378  0.6733195667294909   T   T   T
  0.0915750226011728  0.2332942168588419  0.6731097741766420   T   T   T
  0.2403423572891843  0.5099205928905333  0.6879451891352429   T   T   T
  0.5172963667769221  0.6593682893742331  0.6728914440985158   T   T   T
  0.6604572901484110  0.5165045643058829  0.6731718332767062   T   T   T
  0.5107368730361810  0.2400217433566546  0.6886431886729655   T   T   T
 
  0.00000000E+00  0.00000000E+00  0.00000000E+00
  0.00000000E+00  0.00000000E+00  0.00000000E+00
  0.00000000E+00  0.00000000E+00  0.00000000E+00
  0.00000000E+00  0.00000000E+00  0.00000000E+00
  0.00000000E+00  0.00000000E+00  0.00000000E+00
  0.00000000E+00  0.00000000E+00  0.00000000E+00
  0.00000000E+00  0.00000000E+00  0.00000000E+00
  0.00000000E+00  0.00000000E+00  0.00000000E+00
  0.00000000E+00  0.00000000E+00  0.00000000E+00
  0.00000000E+00  0.00000000E+00  0.00000000E+00
  0.00000000E+00  0.00000000E+00  0.00000000E+00
  0.00000000E+00  0.00000000E+00  0.00000000E+00
  0.00000000E+00  0.00000000E+00  0.00000000E+00
  0.00000000E+00  0.00000000E+00  0.00000000E+00
  0.00000000E+00  0.00000000E+00  0.00000000E+00
  0.00000000E+00  0.00000000E+00  0.00000000E+00
  0.00000000E+00  0.00000000E+00  0.00000000E+00
  0.00000000E+00  0.00000000E+00  0.00000000E+00
  0.00000000E+00  0.00000000E+00  0.00000000E+00
  0.00000000E+00  0.00000000E+00  0.00000000E+00
  0.00000000E+00  0.00000000E+00  0.00000000E+00
  0.00000000E+00  0.00000000E+00  0.00000000E+00
  0.00000000E+00  0.00000000E+00  0.00000000E+00
  0.00000000E+00  0.00000000E+00  0.00000000E+00
  0.00000000E+00  0.00000000E+00  0.00000000E+00
  0.00000000E+00  0.00000000E+00  0.00000000E+00
  0.00000000E+00  0.00000000E+00  0.00000000E+00
  0.00000000E+00  0.00000000E+00  0.00000000E+00
  0.00000000E+00  0.00000000E+00  0.00000000E+00
  0.00000000E+00  0.00000000E+00  0.00000000E+00
  0.00000000E+00  0.00000000E+00  0.00000000E+00
  0.00000000E+00  0.00000000E+00  0.00000000E+00
  0.00000000E+00  0.00000000E+00  0.00000000E+00
  0.00000000E+00  0.00000000E+00  0.00000000E+00
  0.00000000E+00  0.00000000E+00  0.00000000E+00
  0.00000000E+00  0.00000000E+00  0.00000000E+00
  0.00000000E+00  0.00000000E+00  0.00000000E+00
  0.00000000E+00  0.00000000E+00  0.00000000E+00
  0.00000000E+00  0.00000000E+00  0.00000000E+00
  0.00000000E+00  0.00000000E+00  0.00000000E+00
  0.00000000E+00  0.00000000E+00  0.00000000E+00
  0.00000000E+00  0.00000000E+00  0.00000000E+00
  0.00000000E+00  0.00000000E+00  0.00000000E+00
  0.00000000E+00  0.00000000E+00  0.00000000E+00
  0.00000000E+00  0.00000000E+00  0.00000000E+00
  0.00000000E+00  0.00000000E+00  0.00000000E+00
  0.00000000E+00  0.00000000E+00  0.00000000E+00
  0.00000000E+00  0.00000000E+00  0.00000000E+00
  0.00000000E+00  0.00000000E+00  0.00000000E+00
  0.00000000E+00  0.00000000E+00  0.00000000E+00
  0.00000000E+00  0.00000000E+00  0.00000000E+00
  0.00000000E+00  0.00000000E+00  0.00000000E+00
  0.00000000E+00  0.00000000E+00  0.00000000E+00
  0.00000000E+00  0.00000000E+00  0.00000000E+00
  0.00000000E+00  0.00000000E+00  0.00000000E+00
  0.00000000E+00  0.00000000E+00  0.00000000E+00
  0.00000000E+00  0.00000000E+00  0.00000000E+00
  0.00000000E+00  0.00000000E+00  0.00000000E+00
  0.00000000E+00  0.00000000E+00  0.00000000E+00
  0.00000000E+00  0.00000000E+00  0.00000000E+00
  0.00000000E+00  0.00000000E+00  0.00000000E+00
  0.00000000E+00  0.00000000E+00  0.00000000E+00
  0.00000000E+00  0.00000000E+00  0.00000000E+00
  0.00000000E+00  0.00000000E+00  0.00000000E+00
  0.00000000E+00  0.00000000E+00  0.00000000E+00
  0.00000000E+00  0.00000000E+00  0.00000000E+00
  0.00000000E+00  0.00000000E+00  0.00000000E+00
  0.00000000E+00  0.00000000E+00  0.00000000E+00
  0.00000000E+00  0.00000000E+00  0.00000000E+00
  0.00000000E+00  0.00000000E+00  0.00000000E+00
  0.00000000E+00  0.00000000E+00  0.00000000E+00
  0.00000000E+00  0.00000000E+00  0.00000000E+00
  0.00000000E+00  0.00000000E+00  0.00000000E+00
  0.00000000E+00  0.00000000E+00  0.00000000E+00
  0.00000000E+00  0.00000000E+00  0.00000000E+00
  0.00000000E+00  0.00000000E+00  0.00000000E+00
