Rh  C  N Br                             
   1.00000000000000     
    10.8721879999999995    0.0000000000000000    0.0000000000000000
    -5.4360939999999998    9.4155909999999992    0.0000000000000000
     0.0000000000000000    0.0000000000000000   24.6578279400000042
   Rh   C    N    Br
    64     4     2     4
Selective dynamics
Direct
  0.9999999559446024  0.7499999670758868  0.3041630438110658   F   F   F
  0.2499999889626636  0.0000000000000000  0.3041630438110658   F   F   F
  0.2499999891709876  0.2499999893793188  0.3041630438110658   F   F   F
  0.2499999888482805  0.4999999776965680  0.3041630438110658   F   F   F
  0.2499999890566116  0.7499999670758868  0.3041630438110658   F   F   F
  0.4999999779253272  0.0000000000000000  0.3041630438110658   F   F   F
  0.4999999781336513  0.2499999893793188  0.3041630438110658   F   F   F
  0.4999999778109441  0.4999999776965680  0.3041630438110658   F   F   F
  0.7499999668879909  0.0000000000000000  0.3041630438110658   F   F   F
  0.7499999670963149  0.2499999893793188  0.3041630438110658   F   F   F
  0.7499999667736077  0.4999999776965680  0.3041630438110658   F   F   F
  0.7499999669819388  0.7499999670758868  0.3041630438110658   F   F   F
  0.0000000000000000  0.0000000000000000  0.3041630438110658   F   F   F
  0.9999999560589785  0.2499999893793188  0.3041630438110658   F   F   F
  0.9999999998856168  0.4999999776965680  0.3041630438110658   F   F   F
  0.4999999780192752  0.7499999670758868  0.3041630438110658   F   F   F
  0.0833330000000032  0.1666669999999968  0.3941659420955475   F   F   F
  0.0833330000000032  0.4166669999999968  0.3941659420955475   F   F   F
  0.0833330000000032  0.6666669999999968  0.3941659420955475   F   F   F
  0.0833330000000032  0.9166669999999968  0.3941659420955475   F   F   F
  0.3333330000000032  0.1666669999999968  0.3941659420955475   F   F   F
  0.3333330000000032  0.4166669999999968  0.3941659420955475   F   F   F
  0.3333330000000032  0.6666669999999968  0.3941659420955475   F   F   F
  0.3333330000000032  0.9166669999999968  0.3941659420955475   F   F   F
  0.5833330000000032  0.1666669999999968  0.3941659420955475   F   F   F
  0.5833330000000032  0.4166669999999968  0.3941659420955475   F   F   F
  0.5833330000000032  0.6666669999999968  0.3941659420955475   F   F   F
  0.5833330000000032  0.9166669999999968  0.3941659420955475   F   F   F
  0.8333330000000032  0.1666669999999968  0.3941659420955475   F   F   F
  0.8333330000000032  0.4166669999999968  0.3941659420955475   F   F   F
  0.8333330000000032  0.6666669999999968  0.3941659420955475   F   F   F
  0.8333330000000032  0.9166669999999968  0.3941659420955475   F   F   F
  0.9968834898556381  0.9964347887858415  0.5654771502865419   T   T   T
  0.9944530312996968  0.2477558814060984  0.5669780799178473   T   T   T
  0.0007122309770216  0.5004387190937484  0.5654890606533167   T   T   T
  0.0011543866041731  0.7490525210596135  0.5651563882450112   T   T   T
  0.2470884108785708  0.9942567611319363  0.5669355946177181   T   T   T
  0.2448848861673417  0.2440399299467982  0.5687810455717212   T   T   T
  0.2493664848155656  0.5006597937115564  0.5685598174659648   T   T   T
  0.2493607552022238  0.7490646819619983  0.5655752032645721   T   T   T
  0.5009316536627931  0.0011264588215064  0.5656462908011738   T   T   T
  0.4997677736443830  0.2499870813941585  0.5686005558768616   T   T   T
  0.5060262316539089  0.5052577089789307  0.5687881621394293   T   T   T
  0.5021856850877818  0.7557299078068612  0.5670742053452289   T   T   T
  0.7494897774919276  0.0006924035683532  0.5652869502283594   T   T   T
  0.7484194046912601  0.2486993294965339  0.5658064724590995   T   T   T
  0.7557956516136265  0.5027224198395871  0.5670280021886248   T   T   T
  0.7539858673692478  0.7534947104547278  0.5656169886121425   T   T   T
  0.1669602821925846  0.0837558514555559  0.4797473956071084   T   T   T
  0.1673471600182657  0.3332208258355482  0.4801711587735606   T   T   T
  0.1685304543250755  0.5811031097993953  0.4804739234618989   T   T   T
  0.1677541703612033  0.8333334301782649  0.4794353541521564   T   T   T
  0.4159130002787048  0.0846223523613550  0.4807064580038783   T   T   T
  0.4162539922502679  0.3337635990294118  0.4798979182779819   T   T   T
  0.4168451378081521  0.5827024613210524  0.4801381355077963   T   T   T
  0.4173259267196331  0.8327808735808547  0.4801634629515199   T   T   T
  0.6662756050665676  0.0835835151390274  0.4795131817052553   T   T   T
  0.6651936750459332  0.3340247784285261  0.4808788664248456   T   T   T
  0.6662577741405979  0.5831045289422343  0.4798380640193304   T   T   T
  0.6661976396171080  0.8323124819475903  0.4797006469874640   T   T   T
  0.9172246542120690  0.0836336633824548  0.4797475066099833   T   T   T
  0.9168334285572705  0.3324203457212256  0.4801707303299680   T   T   T
  0.9165187726426912  0.5823341572661450  0.4795748934173776   T   T   T
  0.9168068720785764  0.8332251259417438  0.4793088931719757   T   T   T
  0.5199468100395346  0.4419098253566322  0.6478043449343820   T   T   T
  0.4433061538297522  0.5185673793438185  0.6477677992461169   T   T   T
  0.2319711057692632  0.3071460695635538  0.6478011672312454   T   T   T
  0.3084865814328617  0.2303925942081148  0.6477772602526040   T   T   T
  0.2966646469110046  0.4536698455479981  0.6496151169559388   T   T   T
  0.4552104137730622  0.2950934185092508  0.6499780716685852   T   T   T
  0.2202678073501636  0.0271046464097139  0.6692218720593490   T   T   T
  0.0283074627548346  0.2178240445245535  0.6687271608164648   T   T   T
  0.7231569813463675  0.5301440316384505  0.6692400813812854   T   T   T
  0.5320691114203636  0.7222689856035476  0.6690486749748642   T   T   T
 
  0.00000000E+00  0.00000000E+00  0.00000000E+00
  0.00000000E+00  0.00000000E+00  0.00000000E+00
  0.00000000E+00  0.00000000E+00  0.00000000E+00
  0.00000000E+00  0.00000000E+00  0.00000000E+00
  0.00000000E+00  0.00000000E+00  0.00000000E+00
  0.00000000E+00  0.00000000E+00  0.00000000E+00
  0.00000000E+00  0.00000000E+00  0.00000000E+00
  0.00000000E+00  0.00000000E+00  0.00000000E+00
  0.00000000E+00  0.00000000E+00  0.00000000E+00
  0.00000000E+00  0.00000000E+00  0.00000000E+00
  0.00000000E+00  0.00000000E+00  0.00000000E+00
  0.00000000E+00  0.00000000E+00  0.00000000E+00
  0.00000000E+00  0.00000000E+00  0.00000000E+00
  0.00000000E+00  0.00000000E+00  0.00000000E+00
  0.00000000E+00  0.00000000E+00  0.00000000E+00
  0.00000000E+00  0.00000000E+00  0.00000000E+00
  0.00000000E+00  0.00000000E+00  0.00000000E+00
  0.00000000E+00  0.00000000E+00  0.00000000E+00
  0.00000000E+00  0.00000000E+00  0.00000000E+00
  0.00000000E+00  0.00000000E+00  0.00000000E+00
  0.00000000E+00  0.00000000E+00  0.00000000E+00
  0.00000000E+00  0.00000000E+00  0.00000000E+00
  0.00000000E+00  0.00000000E+00  0.00000000E+00
  0.00000000E+00  0.00000000E+00  0.00000000E+00
  0.00000000E+00  0.00000000E+00  0.00000000E+00
  0.00000000E+00  0.00000000E+00  0.00000000E+00
  0.00000000E+00  0.00000000E+00  0.00000000E+00
  0.00000000E+00  0.00000000E+00  0.00000000E+00
  0.00000000E+00  0.00000000E+00  0.00000000E+00
  0.00000000E+00  0.00000000E+00  0.00000000E+00
  0.00000000E+00  0.00000000E+00  0.00000000E+00
  0.00000000E+00  0.00000000E+00  0.00000000E+00
  0.00000000E+00  0.00000000E+00  0.00000000E+00
  0.00000000E+00  0.00000000E+00  0.00000000E+00
  0.00000000E+00  0.00000000E+00  0.00000000E+00
  0.00000000E+00  0.00000000E+00  0.00000000E+00
  0.00000000E+00  0.00000000E+00  0.00000000E+00
  0.00000000E+00  0.00000000E+00  0.00000000E+00
  0.00000000E+00  0.00000000E+00  0.00000000E+00
  0.00000000E+00  0.00000000E+00  0.00000000E+00
  0.00000000E+00  0.00000000E+00  0.00000000E+00
  0.00000000E+00  0.00000000E+00  0.00000000E+00
  0.00000000E+00  0.00000000E+00  0.00000000E+00
  0.00000000E+00  0.00000000E+00  0.00000000E+00
  0.00000000E+00  0.00000000E+00  0.00000000E+00
  0.00000000E+00  0.00000000E+00  0.00000000E+00
  0.00000000E+00  0.00000000E+00  0.00000000E+00
  0.00000000E+00  0.00000000E+00  0.00000000E+00
  0.00000000E+00  0.00000000E+00  0.00000000E+00
  0.00000000E+00  0.00000000E+00  0.00000000E+00
  0.00000000E+00  0.00000000E+00  0.00000000E+00
  0.00000000E+00  0.00000000E+00  0.00000000E+00
  0.00000000E+00  0.00000000E+00  0.00000000E+00
  0.00000000E+00  0.00000000E+00  0.00000000E+00
  0.00000000E+00  0.00000000E+00  0.00000000E+00
  0.00000000E+00  0.00000000E+00  0.00000000E+00
  0.00000000E+00  0.00000000E+00  0.00000000E+00
  0.00000000E+00  0.00000000E+00  0.00000000E+00
  0.00000000E+00  0.00000000E+00  0.00000000E+00
  0.00000000E+00  0.00000000E+00  0.00000000E+00
  0.00000000E+00  0.00000000E+00  0.00000000E+00
  0.00000000E+00  0.00000000E+00  0.00000000E+00
  0.00000000E+00  0.00000000E+00  0.00000000E+00
  0.00000000E+00  0.00000000E+00  0.00000000E+00
  0.00000000E+00  0.00000000E+00  0.00000000E+00
  0.00000000E+00  0.00000000E+00  0.00000000E+00
  0.00000000E+00  0.00000000E+00  0.00000000E+00
  0.00000000E+00  0.00000000E+00  0.00000000E+00
  0.00000000E+00  0.00000000E+00  0.00000000E+00
  0.00000000E+00  0.00000000E+00  0.00000000E+00
  0.00000000E+00  0.00000000E+00  0.00000000E+00
  0.00000000E+00  0.00000000E+00  0.00000000E+00
  0.00000000E+00  0.00000000E+00  0.00000000E+00
  0.00000000E+00  0.00000000E+00  0.00000000E+00
