Pt48 C4 N2 Cl4                          
    1.000000000000000     
    11.2480069999999994    0.0000000000000000    0.0000000000000000
    -5.6240030000000001    9.7410599999999992    0.0000000000000000
     0.0000000000000000    0.0000000000000000   16.5919799999999995
   Pt   C    N    Cl
    48     4     2     4
Selective dynamics
Direct
  0.0833330000000032  0.1666669999999968  0.3616209999999995   F   F   F
  0.0833330000000032  0.4166669999999968  0.3616209999999995   F   F   F
  0.0833330000000032  0.6666669999999968  0.3616209999999995   F   F   F
  0.0833330000000032  0.9166669999999968  0.3616209999999995   F   F   F
  0.3333330000000032  0.1666669999999968  0.3616209999999995   F   F   F
  0.3333330000000032  0.4166669999999968  0.3616209999999995   F   F   F
  0.3333330000000032  0.6666669999999968  0.3616209999999995   F   F   F
  0.3333330000000032  0.9166669999999968  0.3616209999999995   F   F   F
  0.5833330000000032  0.1666669999999968  0.3616209999999995   F   F   F
  0.5833330000000032  0.4166669999999968  0.3616209999999995   F   F   F
  0.5833330000000032  0.6666669999999968  0.3616209999999995   F   F   F
  0.5833330000000032  0.9166669999999968  0.3616209999999995   F   F   F
  0.8333330000000032  0.1666669999999968  0.3616209999999995   F   F   F
  0.8333330000000032  0.4166669999999968  0.3616209999999995   F   F   F
  0.8333330000000032  0.6666669999999968  0.3616209999999995   F   F   F
  0.8333330000000032  0.9166669999999968  0.3616209999999995   F   F   F
  0.2432189033185921  0.2448673871529934  0.6405405236999542   T   T   T
  0.2407612984999972  0.4981664799934720  0.6398172723559625   T   T   T
  0.2490378530024913  0.7502366510109724  0.6423275031589526   T   T   T
  0.2504030292989370  0.9996021649185209  0.6417260536601859   T   T   T
  0.4957938421423691  0.2422760921084404  0.6395417911629551   T   T   T
  0.4871587133713575  0.4894551407253331  0.6451014057213271   T   T   T
  0.4986279671848521  0.7513847994641480  0.6480320148550689   T   T   T
  0.4997827666298349  0.0009751070515875  0.6423035165030768   T   T   T
  0.7493710052283475  0.2516946988675102  0.6422564525148360   T   T   T
  0.7483135897378830  0.5016960868889981  0.6470675199746267   T   T   T
  0.7605501138620241  0.7628392838341824  0.6451200359725604   T   T   T
  0.7518350269067824  0.0092438047789045  0.6398051541245096   T   T   T
  0.9979794724456355  0.2520290509204273  0.6418591371765388   T   T   T
  0.9983053045536536  0.5006299589602961  0.6422657228362212   T   T   T
  0.0077252777724226  0.7542137513350369  0.6395594112180660   T   T   T
  0.0051360810379322  0.0067803906826001  0.6405447711795205   T   T   T
  0.1677878476419892  0.0821943135962755  0.4996458651990281   T   T   T
  0.1664504782045597  0.3328607967646278  0.5004184158536447   T   T   T
  0.1656255261370561  0.5835464310283882  0.5003579763870505   T   T   T
  0.1680707668202999  0.8331061760746579  0.4998268355186823   T   T   T
  0.4168872529797056  0.0819284692058631  0.4998309886981644   T   T   T
  0.4165314794819395  0.3342699906575817  0.5022226154960947   T   T   T
  0.4167473684839109  0.5834722163328721  0.5035470481868245   T   T   T
  0.4186699951052333  0.8313291436573849  0.5049570435043051   T   T   T
  0.6664649954120421  0.0843763978276328  0.5003575839262808   T   T   T
  0.6666832524086104  0.3358261273691596  0.5032303327522598   T   T   T
  0.6656148673588049  0.5844063356736697  0.5042111844440171   T   T   T
  0.6665312855859185  0.8332562585972383  0.5035470291292157   T   T   T
  0.9171494180202870  0.0835507006590959  0.5004103509413298   T   T   T
  0.9159822542587790  0.3340319285647695  0.5010711678338566   T   T   T
  0.9141781754912657  0.5833236005062190  0.5032284405996705   T   T   T
  0.9157350096885608  0.8334602934582094  0.5022207642626810   T   T   T
  0.4827254342913889  0.5586478313529426  0.7668994014664747   T   T   T
  0.5573990890856422  0.4838187721825378  0.7666561532193157   T   T   T
  0.7661610643697259  0.6925821984858089  0.7666693608477999   T   T   T
  0.6913556637421721  0.7672686091457805  0.7669113832653451   T   T   T
  0.7003168311315164  0.5496319302293244  0.7634910084935740   T   T   T
  0.5484369651629279  0.7015527350033253  0.7638745079467668   T   T   T
  0.7642537808328527  0.9291341828591015  0.8118869276500220   T   T   T
  0.9282867982289957  0.7647690657895296  0.8114189660385662   T   T   T
  0.3208092416532011  0.4857284107633006  0.8118717204188926   T   T   T
  0.4851726336966138  0.3216673309045106  0.8114041267231187   T   T   T
 
  0.00000000E+00  0.00000000E+00  0.00000000E+00
  0.00000000E+00  0.00000000E+00  0.00000000E+00
  0.00000000E+00  0.00000000E+00  0.00000000E+00
  0.00000000E+00  0.00000000E+00  0.00000000E+00
  0.00000000E+00  0.00000000E+00  0.00000000E+00
  0.00000000E+00  0.00000000E+00  0.00000000E+00
  0.00000000E+00  0.00000000E+00  0.00000000E+00
  0.00000000E+00  0.00000000E+00  0.00000000E+00
  0.00000000E+00  0.00000000E+00  0.00000000E+00
  0.00000000E+00  0.00000000E+00  0.00000000E+00
  0.00000000E+00  0.00000000E+00  0.00000000E+00
  0.00000000E+00  0.00000000E+00  0.00000000E+00
  0.00000000E+00  0.00000000E+00  0.00000000E+00
  0.00000000E+00  0.00000000E+00  0.00000000E+00
  0.00000000E+00  0.00000000E+00  0.00000000E+00
  0.00000000E+00  0.00000000E+00  0.00000000E+00
  0.00000000E+00  0.00000000E+00  0.00000000E+00
  0.00000000E+00  0.00000000E+00  0.00000000E+00
  0.00000000E+00  0.00000000E+00  0.00000000E+00
  0.00000000E+00  0.00000000E+00  0.00000000E+00
  0.00000000E+00  0.00000000E+00  0.00000000E+00
  0.00000000E+00  0.00000000E+00  0.00000000E+00
  0.00000000E+00  0.00000000E+00  0.00000000E+00
  0.00000000E+00  0.00000000E+00  0.00000000E+00
  0.00000000E+00  0.00000000E+00  0.00000000E+00
  0.00000000E+00  0.00000000E+00  0.00000000E+00
  0.00000000E+00  0.00000000E+00  0.00000000E+00
  0.00000000E+00  0.00000000E+00  0.00000000E+00
  0.00000000E+00  0.00000000E+00  0.00000000E+00
  0.00000000E+00  0.00000000E+00  0.00000000E+00
  0.00000000E+00  0.00000000E+00  0.00000000E+00
  0.00000000E+00  0.00000000E+00  0.00000000E+00
  0.00000000E+00  0.00000000E+00  0.00000000E+00
  0.00000000E+00  0.00000000E+00  0.00000000E+00
  0.00000000E+00  0.00000000E+00  0.00000000E+00
  0.00000000E+00  0.00000000E+00  0.00000000E+00
  0.00000000E+00  0.00000000E+00  0.00000000E+00
  0.00000000E+00  0.00000000E+00  0.00000000E+00
  0.00000000E+00  0.00000000E+00  0.00000000E+00
  0.00000000E+00  0.00000000E+00  0.00000000E+00
  0.00000000E+00  0.00000000E+00  0.00000000E+00
  0.00000000E+00  0.00000000E+00  0.00000000E+00
  0.00000000E+00  0.00000000E+00  0.00000000E+00
  0.00000000E+00  0.00000000E+00  0.00000000E+00
  0.00000000E+00  0.00000000E+00  0.00000000E+00
  0.00000000E+00  0.00000000E+00  0.00000000E+00
  0.00000000E+00  0.00000000E+00  0.00000000E+00
  0.00000000E+00  0.00000000E+00  0.00000000E+00
  0.00000000E+00  0.00000000E+00  0.00000000E+00
  0.00000000E+00  0.00000000E+00  0.00000000E+00
  0.00000000E+00  0.00000000E+00  0.00000000E+00
  0.00000000E+00  0.00000000E+00  0.00000000E+00
  0.00000000E+00  0.00000000E+00  0.00000000E+00
  0.00000000E+00  0.00000000E+00  0.00000000E+00
  0.00000000E+00  0.00000000E+00  0.00000000E+00
  0.00000000E+00  0.00000000E+00  0.00000000E+00
  0.00000000E+00  0.00000000E+00  0.00000000E+00
  0.00000000E+00  0.00000000E+00  0.00000000E+00
