Cu  C Br                                
   1.00000000000000     
    10.2424769999999992    0.0000000000000000    0.0000000000000000
    -5.1212390000000001    8.8702459999999999    0.0000000000000000
     0.0000000000000000    0.0000000000000000   24.2722108799999958
   Cu   C    Br
    64     6     6
Selective dynamics
Direct
  0.7500000436217675  0.9999999661790682  0.3089953377992387   F   F   F
  0.0000000023248248  0.2499999909810811  0.3089953377992387   F   F   F
  0.0000000042370090  0.4999999830895305  0.3089953377992387   F   F   F
  0.0000000055855054  0.7499999740706187  0.3089953377992387   F   F   F
  0.0000000084740179  0.9999999661790682  0.3089953377992387   F   F   F
  0.2500000140407437  0.2499999909810811  0.3089953377992387   F   F   F
  0.2500000159529208  0.4999999830895305  0.3089953377992387   F   F   F
  0.2500000173014243  0.7499999740706187  0.3089953377992387   F   F   F
  0.5000000257566555  0.2499999909810811  0.3089953377992387   F   F   F
  0.5000000276688397  0.4999999830895305  0.3089953377992387   F   F   F
  0.5000000290173432  0.7499999740706187  0.3089953377992387   F   F   F
  0.5000000319058486  0.9999999661790682  0.3089953377992387   F   F   F
  0.7500000374725744  0.2499999909810811  0.3089953377992387   F   F   F
  0.7500000393847586  0.4999999830895305  0.3089953377992387   F   F   F
  0.7500000417095833  0.7499999740706187  0.3089953377992387   F   F   F
  0.2500000201899297  0.9999999661790682  0.3089953377992387   F   F   F
  0.0833330000000032  0.1666669999999968  0.3951324008931820   F   F   F
  0.0833330000000032  0.4166669999999968  0.3951324008931820   F   F   F
  0.0833330000000032  0.6666669999999968  0.3951324008931820   F   F   F
  0.0833330000000032  0.9166669999999968  0.3951324008931820   F   F   F
  0.3333330000000032  0.1666669999999968  0.3951324008931820   F   F   F
  0.3333330000000032  0.4166669999999968  0.3951324008931820   F   F   F
  0.3333330000000032  0.6666669999999968  0.3951324008931820   F   F   F
  0.3333330000000032  0.9166669999999968  0.3951324008931820   F   F   F
  0.5833330000000032  0.1666669999999968  0.3951324008931820   F   F   F
  0.5833330000000032  0.4166669999999968  0.3951324008931820   F   F   F
  0.5833330000000032  0.6666669999999968  0.3951324008931820   F   F   F
  0.5833330000000032  0.9166669999999968  0.3951324008931820   F   F   F
  0.8333330000000032  0.1666669999999968  0.3951324008931820   F   F   F
  0.8333330000000032  0.4166669999999968  0.3951324008931820   F   F   F
  0.8333330000000032  0.6666669999999968  0.3951324008931820   F   F   F
  0.8333330000000032  0.9166669999999968  0.3951324008931820   F   F   F
  0.9963951477476899  0.9991271329242291  0.5629427103948204   T   T   T
  0.9958432713895372  0.2492224518699116  0.5639726060018101   T   T   T
  0.9974488395340657  0.4994084908259863  0.5650652052973643   T   T   T
  0.9983149791028255  0.7518577322430902  0.5645874357584104   T   T   T
  0.2461621807489044  0.9989503906635085  0.5639143239988565   T   T   T
  0.2461245235519196  0.2495680631655521  0.5641576753953652   T   T   T
  0.2474876566475630  0.5029505676130190  0.5675132401905471   T   T   T
  0.2507539955349639  0.7528229625532348  0.5649808847877432   T   T   T
  0.4970383169849846  0.0009835939525520  0.5652819406849544   T   T   T
  0.4996529715750349  0.2501058205965956  0.5678714398288320   T   T   T
  0.5006514524852477  0.5038212797159276  0.5641083649768520   T   T   T
  0.5008849404893131  0.7541285202104243  0.5639547993435688   T   T   T
  0.7487464644016000  0.0012422426926368  0.5646855731074528   T   T   T
  0.7490095184795008  0.2530372227820141  0.5653469393200691   T   T   T
  0.7512402805534216  0.5039096271613946  0.5639355673765155   T   T   T
  0.7509077948507049  0.7535724559988451  0.5629649691885618   T   T   T
  0.1665064444243629  0.0849202214280190  0.4797860026232798   T   T   T
  0.1665861204167813  0.3351369861673877  0.4806294543854358   T   T   T
  0.1664936741962406  0.5835119916601857  0.4805612691587285   T   T   T
  0.1662677152866474  0.8337092247650830  0.4798258570680428   T   T   T
  0.4164342806475907  0.0847423489874891  0.4808969892844440   T   T   T
  0.4166684946612793  0.3333790685371422  0.4808544764551995   T   T   T
  0.4149881528993085  0.5835071115871978  0.4806100565192276   T   T   T
  0.4155995833449032  0.8342847884462437  0.4806883868956928   T   T   T
  0.6655778631980880  0.0845947569132003  0.4799720745145643   T   T   T
  0.6653356534182762  0.3336763120290868  0.4809225859603705   T   T   T
  0.6652672859763146  0.5836100332075704  0.4797876858439887   T   T   T
  0.6657423559206858  0.8349075712960015  0.4797173200458824   T   T   T
  0.9151750603718949  0.0843356561483519  0.4797173420615132   T   T   T
  0.9157755123821127  0.3344722154121473  0.4807236360808787   T   T   T
  0.9164362411197030  0.5838272417604573  0.4798363270760456   T   T   T
  0.9168773161356475  0.8331547919919862  0.4795958117312134   T   T   T
  0.3042413686184923  0.2171019311644021  0.6566107453735166   T   T   T
  0.2251313256772132  0.2959081750469527  0.6535189791015137   T   T   T
  0.2992091184144575  0.4515233715607389  0.6410609760906639   T   T   T
  0.4547560676843513  0.5244921643934453  0.6535855182837376   T   T   T
  0.5326243755748206  0.4444142620979635  0.6566091989554462   T   T   T
  0.4600206552701848  0.2886272783721530  0.6469529966207763   T   T   T
  0.2006965563117429  0.0001929635801637  0.6690844803691430   T   T   T
  0.0085160592296027  0.1987635284298633  0.6672398493455386   T   T   T
  0.1012688694673911  0.6495617141884564  0.6511189553200429   T   T   T
  0.5526015797664477  0.7410403191863556  0.6675281147789786   T   T   T
  0.7500280325680021  0.5471389040154817  0.6686158758070245   T   T   T
  0.6555698666258352  0.0932996064214599  0.6509010195395752   T   T   T
 
  0.00000000E+00  0.00000000E+00  0.00000000E+00
  0.00000000E+00  0.00000000E+00  0.00000000E+00
  0.00000000E+00  0.00000000E+00  0.00000000E+00
  0.00000000E+00  0.00000000E+00  0.00000000E+00
  0.00000000E+00  0.00000000E+00  0.00000000E+00
  0.00000000E+00  0.00000000E+00  0.00000000E+00
  0.00000000E+00  0.00000000E+00  0.00000000E+00
  0.00000000E+00  0.00000000E+00  0.00000000E+00
  0.00000000E+00  0.00000000E+00  0.00000000E+00
  0.00000000E+00  0.00000000E+00  0.00000000E+00
  0.00000000E+00  0.00000000E+00  0.00000000E+00
  0.00000000E+00  0.00000000E+00  0.00000000E+00
  0.00000000E+00  0.00000000E+00  0.00000000E+00
  0.00000000E+00  0.00000000E+00  0.00000000E+00
  0.00000000E+00  0.00000000E+00  0.00000000E+00
  0.00000000E+00  0.00000000E+00  0.00000000E+00
  0.00000000E+00  0.00000000E+00  0.00000000E+00
  0.00000000E+00  0.00000000E+00  0.00000000E+00
  0.00000000E+00  0.00000000E+00  0.00000000E+00
  0.00000000E+00  0.00000000E+00  0.00000000E+00
  0.00000000E+00  0.00000000E+00  0.00000000E+00
  0.00000000E+00  0.00000000E+00  0.00000000E+00
  0.00000000E+00  0.00000000E+00  0.00000000E+00
  0.00000000E+00  0.00000000E+00  0.00000000E+00
  0.00000000E+00  0.00000000E+00  0.00000000E+00
  0.00000000E+00  0.00000000E+00  0.00000000E+00
  0.00000000E+00  0.00000000E+00  0.00000000E+00
  0.00000000E+00  0.00000000E+00  0.00000000E+00
  0.00000000E+00  0.00000000E+00  0.00000000E+00
  0.00000000E+00  0.00000000E+00  0.00000000E+00
  0.00000000E+00  0.00000000E+00  0.00000000E+00
  0.00000000E+00  0.00000000E+00  0.00000000E+00
  0.00000000E+00  0.00000000E+00  0.00000000E+00
  0.00000000E+00  0.00000000E+00  0.00000000E+00
  0.00000000E+00  0.00000000E+00  0.00000000E+00
  0.00000000E+00  0.00000000E+00  0.00000000E+00
  0.00000000E+00  0.00000000E+00  0.00000000E+00
  0.00000000E+00  0.00000000E+00  0.00000000E+00
  0.00000000E+00  0.00000000E+00  0.00000000E+00
  0.00000000E+00  0.00000000E+00  0.00000000E+00
  0.00000000E+00  0.00000000E+00  0.00000000E+00
  0.00000000E+00  0.00000000E+00  0.00000000E+00
  0.00000000E+00  0.00000000E+00  0.00000000E+00
  0.00000000E+00  0.00000000E+00  0.00000000E+00
  0.00000000E+00  0.00000000E+00  0.00000000E+00
  0.00000000E+00  0.00000000E+00  0.00000000E+00
  0.00000000E+00  0.00000000E+00  0.00000000E+00
  0.00000000E+00  0.00000000E+00  0.00000000E+00
  0.00000000E+00  0.00000000E+00  0.00000000E+00
  0.00000000E+00  0.00000000E+00  0.00000000E+00
  0.00000000E+00  0.00000000E+00  0.00000000E+00
  0.00000000E+00  0.00000000E+00  0.00000000E+00
  0.00000000E+00  0.00000000E+00  0.00000000E+00
  0.00000000E+00  0.00000000E+00  0.00000000E+00
  0.00000000E+00  0.00000000E+00  0.00000000E+00
  0.00000000E+00  0.00000000E+00  0.00000000E+00
  0.00000000E+00  0.00000000E+00  0.00000000E+00
  0.00000000E+00  0.00000000E+00  0.00000000E+00
  0.00000000E+00  0.00000000E+00  0.00000000E+00
  0.00000000E+00  0.00000000E+00  0.00000000E+00
  0.00000000E+00  0.00000000E+00  0.00000000E+00
  0.00000000E+00  0.00000000E+00  0.00000000E+00
  0.00000000E+00  0.00000000E+00  0.00000000E+00
  0.00000000E+00  0.00000000E+00  0.00000000E+00
  0.00000000E+00  0.00000000E+00  0.00000000E+00
  0.00000000E+00  0.00000000E+00  0.00000000E+00
  0.00000000E+00  0.00000000E+00  0.00000000E+00
  0.00000000E+00  0.00000000E+00  0.00000000E+00
  0.00000000E+00  0.00000000E+00  0.00000000E+00
  0.00000000E+00  0.00000000E+00  0.00000000E+00
  0.00000000E+00  0.00000000E+00  0.00000000E+00
  0.00000000E+00  0.00000000E+00  0.00000000E+00
  0.00000000E+00  0.00000000E+00  0.00000000E+00
  0.00000000E+00  0.00000000E+00  0.00000000E+00
  0.00000000E+00  0.00000000E+00  0.00000000E+00
  0.00000000E+00  0.00000000E+00  0.00000000E+00
