Pd  C  H  F                             
    1.000000000000000     
    11.1817229999999999    0.0000000000000000    0.0000000000000000
     0.0000000000000000   11.1817229999999999    0.0000000000000000
     0.0000000000000000    0.0000000000000000   23.9300040900000006
   Pd   C    H    F 
    64     6     4     2
Selective dynamics
Direct
  0.0000000000000000  0.2499999991056825  0.3134140709626578   F   F   F
  0.7499999973170475  0.7499999973170475  0.3134140709626578   F   F   F
  0.0000000000000000  0.4999999982113650  0.3134140709626578   F   F   F
  0.0000000000000000  0.7499999973170475  0.3134140709626578   F   F   F
  0.0000000000000000  0.0000000000000000  0.3134140709626578   F   F   F
  0.2499999991056825  0.2499999991056825  0.3134140709626578   F   F   F
  0.2499999991056825  0.4999999982113650  0.3134140709626578   F   F   F
  0.7499999973170475  0.0000000000000000  0.3134140709626578   F   F   F
  0.2499999991056825  0.7499999973170475  0.3134140709626578   F   F   F
  0.2499999991056825  0.0000000000000000  0.3134140709626578   F   F   F
  0.4999999982113650  0.2499999991056825  0.3134140709626578   F   F   F
  0.4999999982113650  0.4999999982113650  0.3134140709626578   F   F   F
  0.4999999982113650  0.7499999973170475  0.3134140709626578   F   F   F
  0.4999999982113650  0.0000000000000000  0.3134140709626578   F   F   F
  0.7499999973170475  0.2499999991056825  0.3134140709626578   F   F   F
  0.7499999973170475  0.4999999982113650  0.3134140709626578   F   F   F
  0.9992278216105897  0.2498634565256188  0.4768302414050177   T   T   T
 -0.0000623297329067  0.5000052840752623  0.4761004654056690   T   T   T
  0.0007694579883278  0.7501288377668289  0.4768323186501577   T   T   T
 -0.0000027506098361  0.0000100195202346  0.4767240066831469   T   T   T
  0.2506056521224365  0.2506075093953232  0.4771036938969153   T   T   T
  0.2525500583994172  0.5006062339550328  0.4779507249271681   T   T   T
  0.2521858629875373  0.7478045862959164  0.4778427347882719   T   T   T
  0.2498829417218498  0.9992212557197587  0.4768306106207302   T   T   T
  0.5006455619580722  0.2525457666988387  0.4779480615346531   T   T   T
  0.4999956111069071  0.4999951255175317  0.4783049790804091   T   T   T
  0.4993430792010111  0.7474643816472138  0.4779499092760539   T   T   T
  0.5000278547144059  0.0000237802531422  0.4761081178888575   T   T   T
  0.7478100725175995  0.2521674572532355  0.4778427891679207   T   T   T
  0.7474601682678736  0.4993490982315974  0.4779502656728432   T   T   T
  0.7493659527313876  0.7493938610792061  0.4771066596342414   T   T   T
  0.7501343490273646  0.0007583472361593  0.4768314915341247   T   T   T
  0.1246306513231561  0.1246354677993797  0.5580961824835013   T   T   T
  0.1239625030453617  0.3749137330256284  0.5579757524998783   T   T   T
  0.1234666541813598  0.6244138891501255  0.5581194508022431   T   T   T
  0.1251324007521479  0.8748561469120374  0.5582063945659446   T   T   T
  0.3749427143529561  0.1239702387860896  0.5579774906807088   T   T   T
  0.3712251596485633  0.3712232509823812  0.5617758647557431   T   T   T
  0.3723279799603349  0.6276701424170247  0.5650850309848079   T   T   T
  0.3755692695440591  0.8765648310958140  0.5581188584235821   T   T   T
  0.6244161744503812  0.1234412313843103  0.5581274072516909   T   T   T
  0.6276781711616286  0.3723222541715082  0.5650937562549261   T   T   T
  0.6287700879202944  0.6287828704827511  0.5617237930537313   T   T   T
  0.6250703917182882  0.8760397902334607  0.5579943988640811   T   T   T
  0.8748612981604349  0.1251478262408293  0.5582160422953235   T   T   T
  0.8765555525599255  0.3755837280621379  0.5581105765649630   T   T   T
  0.8760336427009535  0.6250878724964675  0.5579790181637390   T   T   T
  0.8753468620021110  0.8753597968766704  0.5581053477107323   T   T   T
  0.1249999995528412  0.1249999995528412  0.3960161475258630   F   F   F
  0.1249999995528412  0.3749999986585237  0.3960161475258630   F   F   F
  0.1249999995528412  0.6249999977642062  0.3960161475258630   F   F   F
  0.1249999995528412  0.8749999968698887  0.3960161475258630   F   F   F
  0.3749999986585237  0.1249999995528412  0.3960161475258630   F   F   F
  0.3749999986585237  0.3749999986585237  0.3960161475258630   F   F   F
  0.3749999986585237  0.6249999977642062  0.3960161475258630   F   F   F
  0.3749999986585237  0.8749999968698887  0.3960161475258630   F   F   F
  0.6249999977642062  0.1249999995528412  0.3960161475258630   F   F   F
  0.6249999977642062  0.3749999986585237  0.3960161475258630   F   F   F
  0.6249999977642062  0.6249999977642062  0.3960161475258630   F   F   F
  0.6249999977642062  0.8749999968698887  0.3960161475258630   F   F   F
  0.8749999968698887  0.1249999995528412  0.3960161475258630   F   F   F
  0.8749999968698887  0.3749999986585237  0.3960161475258630   F   F   F
  0.8749999968698887  0.6249999977642062  0.3960161475258630   F   F   F
  0.8749999968698887  0.8749999968698887  0.3960161475258630   F   F   F
  0.5912768767621110  0.5912461354573221  0.6443100088436010   T   T   T
  0.6251294576481584  0.4653017113948531  0.6463196822918542   T   T   T
  0.5346719925706463  0.3748385661165379  0.6463299119416880   T   T   T
  0.4087750426441846  0.4087510776066556  0.6443013751937626   T   T   T
  0.3748553887219240  0.5346798358564798  0.6463198911402730   T   T   T
  0.4652935925268467  0.6251117392092006  0.6463184437854195   T   T   T
  0.7134572795936890  0.4462145815243711  0.6637358214898998   T   T   T
  0.5537748257567610  0.2865328659786224  0.6637258828513013   T   T   T
  0.2865571965158750  0.5537622828476317  0.6637125832215897   T   T   T
  0.4462260620940279  0.7134386605354764  0.6637246438117300   T   T   T
  0.6650740369910071  0.6650641413582800  0.6760110409848706   T   T   T
  0.3349104590632769  0.3349038427192514  0.6760170286437817   T   T   T
 
  0.00000000E+00  0.00000000E+00  0.00000000E+00
  0.00000000E+00  0.00000000E+00  0.00000000E+00
  0.00000000E+00  0.00000000E+00  0.00000000E+00
  0.00000000E+00  0.00000000E+00  0.00000000E+00
  0.00000000E+00  0.00000000E+00  0.00000000E+00
  0.00000000E+00  0.00000000E+00  0.00000000E+00
  0.00000000E+00  0.00000000E+00  0.00000000E+00
  0.00000000E+00  0.00000000E+00  0.00000000E+00
  0.00000000E+00  0.00000000E+00  0.00000000E+00
  0.00000000E+00  0.00000000E+00  0.00000000E+00
  0.00000000E+00  0.00000000E+00  0.00000000E+00
  0.00000000E+00  0.00000000E+00  0.00000000E+00
  0.00000000E+00  0.00000000E+00  0.00000000E+00
  0.00000000E+00  0.00000000E+00  0.00000000E+00
  0.00000000E+00  0.00000000E+00  0.00000000E+00
  0.00000000E+00  0.00000000E+00  0.00000000E+00
  0.00000000E+00  0.00000000E+00  0.00000000E+00
  0.00000000E+00  0.00000000E+00  0.00000000E+00
  0.00000000E+00  0.00000000E+00  0.00000000E+00
  0.00000000E+00  0.00000000E+00  0.00000000E+00
  0.00000000E+00  0.00000000E+00  0.00000000E+00
  0.00000000E+00  0.00000000E+00  0.00000000E+00
  0.00000000E+00  0.00000000E+00  0.00000000E+00
  0.00000000E+00  0.00000000E+00  0.00000000E+00
  0.00000000E+00  0.00000000E+00  0.00000000E+00
  0.00000000E+00  0.00000000E+00  0.00000000E+00
  0.00000000E+00  0.00000000E+00  0.00000000E+00
  0.00000000E+00  0.00000000E+00  0.00000000E+00
  0.00000000E+00  0.00000000E+00  0.00000000E+00
  0.00000000E+00  0.00000000E+00  0.00000000E+00
  0.00000000E+00  0.00000000E+00  0.00000000E+00
  0.00000000E+00  0.00000000E+00  0.00000000E+00
  0.00000000E+00  0.00000000E+00  0.00000000E+00
  0.00000000E+00  0.00000000E+00  0.00000000E+00
  0.00000000E+00  0.00000000E+00  0.00000000E+00
  0.00000000E+00  0.00000000E+00  0.00000000E+00
  0.00000000E+00  0.00000000E+00  0.00000000E+00
  0.00000000E+00  0.00000000E+00  0.00000000E+00
  0.00000000E+00  0.00000000E+00  0.00000000E+00
  0.00000000E+00  0.00000000E+00  0.00000000E+00
  0.00000000E+00  0.00000000E+00  0.00000000E+00
  0.00000000E+00  0.00000000E+00  0.00000000E+00
  0.00000000E+00  0.00000000E+00  0.00000000E+00
  0.00000000E+00  0.00000000E+00  0.00000000E+00
  0.00000000E+00  0.00000000E+00  0.00000000E+00
  0.00000000E+00  0.00000000E+00  0.00000000E+00
  0.00000000E+00  0.00000000E+00  0.00000000E+00
  0.00000000E+00  0.00000000E+00  0.00000000E+00
  0.00000000E+00  0.00000000E+00  0.00000000E+00
  0.00000000E+00  0.00000000E+00  0.00000000E+00
  0.00000000E+00  0.00000000E+00  0.00000000E+00
  0.00000000E+00  0.00000000E+00  0.00000000E+00
  0.00000000E+00  0.00000000E+00  0.00000000E+00
  0.00000000E+00  0.00000000E+00  0.00000000E+00
  0.00000000E+00  0.00000000E+00  0.00000000E+00
  0.00000000E+00  0.00000000E+00  0.00000000E+00
  0.00000000E+00  0.00000000E+00  0.00000000E+00
  0.00000000E+00  0.00000000E+00  0.00000000E+00
  0.00000000E+00  0.00000000E+00  0.00000000E+00
  0.00000000E+00  0.00000000E+00  0.00000000E+00
  0.00000000E+00  0.00000000E+00  0.00000000E+00
  0.00000000E+00  0.00000000E+00  0.00000000E+00
  0.00000000E+00  0.00000000E+00  0.00000000E+00
  0.00000000E+00  0.00000000E+00  0.00000000E+00
  0.00000000E+00  0.00000000E+00  0.00000000E+00
  0.00000000E+00  0.00000000E+00  0.00000000E+00
  0.00000000E+00  0.00000000E+00  0.00000000E+00
  0.00000000E+00  0.00000000E+00  0.00000000E+00
  0.00000000E+00  0.00000000E+00  0.00000000E+00
  0.00000000E+00  0.00000000E+00  0.00000000E+00
  0.00000000E+00  0.00000000E+00  0.00000000E+00
  0.00000000E+00  0.00000000E+00  0.00000000E+00
  0.00000000E+00  0.00000000E+00  0.00000000E+00
  0.00000000E+00  0.00000000E+00  0.00000000E+00
  0.00000000E+00  0.00000000E+00  0.00000000E+00
  0.00000000E+00  0.00000000E+00  0.00000000E+00
