Pt48 C6 H2 F4                           
    1.000000000000000     
    11.2480068000000006    0.0000000000000000    0.0000000000000000
     0.0000000000000000   11.2480068000000006    0.0000000000000000
     0.0000000000000000    0.0000000000000000   16.9142600799999983
   Pt   C    H    F 
    48     6     2     4
Selective dynamics
Direct
  0.2493889322325487  0.9982516070752681  0.4103094986189788   T   T   T
  0.2502601008193750  0.2502602316222138  0.4103597178730212   T   T   T
  0.2537011682816654  0.5007237976969208  0.4128355376699275   T   T   T
  0.2536398327316647  0.7463504289777489  0.4135664294566439   T   T   T
  0.5000010229399336  0.0000010220646871  0.4099959458946429   T   T   T
  0.5007253670714036  0.2537032182458319  0.4128326040354580   T   T   T
  0.4999994492870456  0.4999937428927907  0.4146506677025528   T   T   T
  0.4992726564046421  0.7462878745230341  0.4128317563361534   T   T   T
  0.7506105097176459  0.0017518454767256  0.4103106328261177   T   T   T
  0.7463580877999973  0.2536445633550173  0.4135701855441312   T   T   T
  0.7462946898637455  0.4992683355344099  0.4128345138384475   T   T   T
  0.7497353863250709  0.7497361109310461  0.4103568156009203   T   T   T
  0.9999970693795674  0.0000027911047482  0.4105567698638382   T   T   T
  0.9982454053128080  0.2493908637614197  0.4103136245269070   T   T   T
  0.9999971095678717  0.4999962054537903  0.4100006396405931   T   T   T
  0.0017478239097102  0.7506076856231729  0.4103076895361326   T   T   T
  0.1239977956770275  0.1239984821336932  0.5259891298134320   T   T   T
  0.1221120745622031  0.3738721909229881  0.5251575743745178   T   T   T
  0.1244318933546040  0.6237144544291411  0.5265101893165749   T   T   T
  0.1253847741377427  0.8746091376850558  0.5264289482419144   T   T   T
  0.3738766660989867  0.1221121383424020  0.5251516135566945   T   T   T
  0.3667191207126521  0.3667170076555948  0.5310472232357952   T   T   T
  0.3752227454579327  0.6247648754762594  0.5416383025403277   T   T   T
  0.3762831856933744  0.8755526096054140  0.5265011343866277   T   T   T
  0.6237135668445362  0.1244363237182924  0.5265059992150540   T   T   T
  0.6247699468614201  0.3752171528886166  0.5416409143417837   T   T   T
  0.6332751025377092  0.6332744102366021  0.5310497991807352   T   T   T
  0.6261215927230097  0.8778821283599072  0.5251521998979740   T   T   T
  0.8746109323135443  0.1253866936485792  0.5264388692221758   T   T   T
  0.8755587629562314  0.3762843711004962  0.5265191795236390   T   T   T
  0.8778816891997536  0.6261243000640206  0.5251607860214662   T   T   T
  0.8759987637633628  0.8759979204483272  0.5259922755672903   T   T   T
  0.1250000008890453  0.1250000000000000  0.2956085561148569   F   F   F
  0.1250000008890453  0.3750000008890453  0.2956085561148569   F   F   F
  0.1250000008890453  0.6250000026671358  0.2956085561148569   F   F   F
  0.1250000008890453  0.8750000026671358  0.2956085561148569   F   F   F
  0.3750000017780906  0.1250000000000000  0.2956085561148569   F   F   F
  0.3750000017780906  0.3750000008890453  0.2956085561148569   F   F   F
  0.3750000017780906  0.6250000026671358  0.2956085561148569   F   F   F
  0.3750000017780906  0.8750000026671358  0.2956085561148569   F   F   F
  0.6250000026671358  0.1250000000000000  0.2956085561148569   F   F   F
  0.6250000026671358  0.3750000008890453  0.2956085561148569   F   F   F
  0.6250000026671358  0.6250000026671358  0.2956085561148569   F   F   F
  0.6250000026671358  0.8750000026671358  0.2956085561148569   F   F   F
  0.8750000035561882  0.1250000000000000  0.2956085561148569   F   F   F
  0.8750000026671358  0.3750000008890453  0.2956085561148569   F   F   F
  0.8750000035561882  0.6250000026671358  0.2956085561148569   F   F   F
  0.8750000035561882  0.8750000026671358  0.2956085561148569   F   F   F
  0.4060319613482335  0.4060392748183901  0.6476430138974933   T   T   T
  0.3749337847450676  0.5339838350473016  0.6539229340019546   T   T   T
  0.4660060247411835  0.6250413684839415  0.6539199983455859   T   T   T
  0.5939356525613846  0.5939614110511755  0.6476462573617141   T   T   T
  0.6250438111321728  0.4659870024096620  0.6539211007565768   T   T   T
  0.5340031701942678  0.3749318883884953  0.6539222440020467   T   T   T
  0.3500970600910378  0.3500937040154497  0.6856053589808440   T   T   T
  0.6498811636170458  0.6498862406518384  0.6856091241425588   T   T   T
  0.2748715330145046  0.5553415468376670  0.6972884951629368   T   T   T
  0.4446296809101113  0.7251162556276327  0.6972959968883643   T   T   T
  0.7251070912971258  0.4446404752540829  0.6972903570069278   T   T   T
  0.5553477370406981  0.2748819791475796  0.6972863389367774   T   T   T
 
  0.00000000E+00  0.00000000E+00  0.00000000E+00
  0.00000000E+00  0.00000000E+00  0.00000000E+00
  0.00000000E+00  0.00000000E+00  0.00000000E+00
  0.00000000E+00  0.00000000E+00  0.00000000E+00
  0.00000000E+00  0.00000000E+00  0.00000000E+00
  0.00000000E+00  0.00000000E+00  0.00000000E+00
  0.00000000E+00  0.00000000E+00  0.00000000E+00
  0.00000000E+00  0.00000000E+00  0.00000000E+00
  0.00000000E+00  0.00000000E+00  0.00000000E+00
  0.00000000E+00  0.00000000E+00  0.00000000E+00
  0.00000000E+00  0.00000000E+00  0.00000000E+00
  0.00000000E+00  0.00000000E+00  0.00000000E+00
  0.00000000E+00  0.00000000E+00  0.00000000E+00
  0.00000000E+00  0.00000000E+00  0.00000000E+00
  0.00000000E+00  0.00000000E+00  0.00000000E+00
  0.00000000E+00  0.00000000E+00  0.00000000E+00
  0.00000000E+00  0.00000000E+00  0.00000000E+00
  0.00000000E+00  0.00000000E+00  0.00000000E+00
  0.00000000E+00  0.00000000E+00  0.00000000E+00
  0.00000000E+00  0.00000000E+00  0.00000000E+00
  0.00000000E+00  0.00000000E+00  0.00000000E+00
  0.00000000E+00  0.00000000E+00  0.00000000E+00
  0.00000000E+00  0.00000000E+00  0.00000000E+00
  0.00000000E+00  0.00000000E+00  0.00000000E+00
  0.00000000E+00  0.00000000E+00  0.00000000E+00
  0.00000000E+00  0.00000000E+00  0.00000000E+00
  0.00000000E+00  0.00000000E+00  0.00000000E+00
  0.00000000E+00  0.00000000E+00  0.00000000E+00
  0.00000000E+00  0.00000000E+00  0.00000000E+00
  0.00000000E+00  0.00000000E+00  0.00000000E+00
  0.00000000E+00  0.00000000E+00  0.00000000E+00
  0.00000000E+00  0.00000000E+00  0.00000000E+00
  0.00000000E+00  0.00000000E+00  0.00000000E+00
  0.00000000E+00  0.00000000E+00  0.00000000E+00
  0.00000000E+00  0.00000000E+00  0.00000000E+00
  0.00000000E+00  0.00000000E+00  0.00000000E+00
  0.00000000E+00  0.00000000E+00  0.00000000E+00
  0.00000000E+00  0.00000000E+00  0.00000000E+00
  0.00000000E+00  0.00000000E+00  0.00000000E+00
  0.00000000E+00  0.00000000E+00  0.00000000E+00
  0.00000000E+00  0.00000000E+00  0.00000000E+00
  0.00000000E+00  0.00000000E+00  0.00000000E+00
  0.00000000E+00  0.00000000E+00  0.00000000E+00
  0.00000000E+00  0.00000000E+00  0.00000000E+00
  0.00000000E+00  0.00000000E+00  0.00000000E+00
  0.00000000E+00  0.00000000E+00  0.00000000E+00
  0.00000000E+00  0.00000000E+00  0.00000000E+00
  0.00000000E+00  0.00000000E+00  0.00000000E+00
  0.00000000E+00  0.00000000E+00  0.00000000E+00
  0.00000000E+00  0.00000000E+00  0.00000000E+00
  0.00000000E+00  0.00000000E+00  0.00000000E+00
  0.00000000E+00  0.00000000E+00  0.00000000E+00
  0.00000000E+00  0.00000000E+00  0.00000000E+00
  0.00000000E+00  0.00000000E+00  0.00000000E+00
  0.00000000E+00  0.00000000E+00  0.00000000E+00
  0.00000000E+00  0.00000000E+00  0.00000000E+00
  0.00000000E+00  0.00000000E+00  0.00000000E+00
  0.00000000E+00  0.00000000E+00  0.00000000E+00
  0.00000000E+00  0.00000000E+00  0.00000000E+00
  0.00000000E+00  0.00000000E+00  0.00000000E+00
