Cu48 C6 H2 Br4                          
    1.000000000000000     
    10.2424774999999997    0.0000000000000000    0.0000000000000000
     0.0000000000000000   14.4850505999999992    0.0000000000000000
     0.0000000000000000    0.0000000000000000   15.4701562599999995
   Cu   C    H    Br
    48     6     2     4
Selective dynamics
Direct
  0.2498702679400751  0.2509552727228552  0.4029959879415514   T   T   T
  0.2501502176608525  0.5005053798854675  0.3995400653574066   T   T   T
  0.2507335705134608  0.7486549806171467  0.4027229071551020   T   T   T
  0.2501115103241389  0.9998074366716381  0.4032285468088688   T   T   T
  0.4995978839659330  0.2507431264926296  0.4016072479118264   T   T   T
  0.5000041943502680  0.5000029289147250  0.3965610998562354   T   T   T
  0.5004217409318201  0.7492652468912553  0.4015951076901345   T   T   T
  0.5000133395916748  0.9999908842371639  0.4033871161600899   T   T   T
  0.7492641176648789  0.2513454554045680  0.4027378034295523   T   T   T
  0.7498542288153800  0.4995011006573478  0.3995357096036898   T   T   T
  0.7501443985014618  0.7490743385885636  0.4030112389639697   T   T   T
  0.7498965354874088  0.0001559890083342  0.4032589692182569   T   T   T
  0.9996439817481644  0.2508591861413549  0.4030115511709909   T   T   T
  0.9999992047535500  0.5000042815548511  0.4010221747537344   T   T   T
  0.0003342603919307  0.7491628799055121  0.4030227051817690   T   T   T
  0.9999835583748293  0.9999724515754238  0.4029983178384953   T   T   T
  0.1248005282825559  0.1255564459893890  0.4818634549941052   T   T   T
  0.1248088156991969  0.3766425519343102  0.4821341791901403   T   T   T
  0.1254803217474034  0.6236885132763206  0.4825825187124266   T   T   T
  0.1252715795257231  0.8739172206006884  0.4817398680081340   T   T   T
  0.3748672121251886  0.1261631833801147  0.4817010295759943   T   T   T
  0.3738341303272321  0.3772795885650240  0.4826098664189615   T   T   T
  0.3773735400506055  0.6233687594911785  0.4849079063950796   T   T   T
  0.3753446242595970  0.8733366015204282  0.4820893755357858   T   T   T
  0.6246715349350040  0.1266484871809297  0.4820985148532912   T   T   T
  0.6226332246338799  0.3766383760243741  0.4849139486043157   T   T   T
  0.6261790099742655  0.6227329069867338  0.4825912546820561   T   T   T
  0.6251647110746319  0.8738348547319177  0.4816754169826254   T   T   T
  0.8747034659020514  0.1260660083966343  0.4817483082200269   T   T   T
  0.8745175815360824  0.3763259929126477  0.4825893050774113   T   T   T
  0.8751928996980425  0.6233704713510946  0.4821139496335576   T   T   T
  0.8751876891160322  0.8744348054487716  0.4818064033242067   T   T   T
  0.1250000002440785  0.1249999996548183  0.3232029409378470   F   F   F
  0.1250000002440785  0.3749999989644479  0.3232029409378470   F   F   F
  0.1250000002440785  0.6249999982740846  0.3232029409378470   F   F   F
  0.1250000002440785  0.8749999975837142  0.3232029409378470   F   F   F
  0.3749999997559215  0.1249999996548183  0.3232029409378470   F   F   F
  0.3749999997559215  0.3749999989644479  0.3232029409378470   F   F   F
  0.3749999997559215  0.6249999982740846  0.3232029409378470   F   F   F
  0.3749999997559215  0.8749999975837142  0.3232029409378470   F   F   F
  0.6249999982914289  0.1249999996548183  0.3232029409378470   F   F   F
  0.6249999992677573  0.3749999989644479  0.3232029409378470   F   F   F
  0.6249999992677573  0.6249999982740846  0.3232029409378470   F   F   F
  0.6249999992677573  0.8749999975837142  0.3232029409378470   F   F   F
  0.8749999987795931  0.1249999996548183  0.3232029409378470   F   F   F
  0.8749999978032648  0.3749999989644479  0.3232029409378470   F   F   F
  0.8749999987795931  0.6249999982740846  0.3232029409378470   F   F   F
  0.8749999987795931  0.8749999975837142  0.3232029409378470   F   F   F
  0.5794845238440871  0.5805868583601494  0.6164303404913127   T   T   T
  0.6351679745168610  0.4934395224988393  0.6264559682884823   T   T   T
  0.5640266102950307  0.4096376112855040  0.6125917630949687   T   T   T
  0.4204785235437782  0.4194232591155824  0.6164311411830994   T   T   T
  0.3647946785942580  0.5065727863200991  0.6264419626023852   T   T   T
  0.4359381958465960  0.5903732458157691  0.6125847141510050   T   T   T
  0.6358813399237420  0.6412369535027409  0.6357305191371054   T   T   T
  0.3640798278030317  0.3587735681871393  0.6357348272418477   T   T   T
  0.8177263065974358  0.4881587233492297  0.6465845194778908   T   T   T
  0.6227662617489003  0.2976273743390507  0.6730497730613294   T   T   T
  0.1822285755539284  0.5118544949815131  0.6465396767658831   T   T   T
  0.3772021193065811  0.7023749225220115  0.6730571518616983   T   T   T
 
  0.00000000E+00  0.00000000E+00  0.00000000E+00
  0.00000000E+00  0.00000000E+00  0.00000000E+00
  0.00000000E+00  0.00000000E+00  0.00000000E+00
  0.00000000E+00  0.00000000E+00  0.00000000E+00
  0.00000000E+00  0.00000000E+00  0.00000000E+00
  0.00000000E+00  0.00000000E+00  0.00000000E+00
  0.00000000E+00  0.00000000E+00  0.00000000E+00
  0.00000000E+00  0.00000000E+00  0.00000000E+00
  0.00000000E+00  0.00000000E+00  0.00000000E+00
  0.00000000E+00  0.00000000E+00  0.00000000E+00
  0.00000000E+00  0.00000000E+00  0.00000000E+00
  0.00000000E+00  0.00000000E+00  0.00000000E+00
  0.00000000E+00  0.00000000E+00  0.00000000E+00
  0.00000000E+00  0.00000000E+00  0.00000000E+00
  0.00000000E+00  0.00000000E+00  0.00000000E+00
  0.00000000E+00  0.00000000E+00  0.00000000E+00
  0.00000000E+00  0.00000000E+00  0.00000000E+00
  0.00000000E+00  0.00000000E+00  0.00000000E+00
  0.00000000E+00  0.00000000E+00  0.00000000E+00
  0.00000000E+00  0.00000000E+00  0.00000000E+00
  0.00000000E+00  0.00000000E+00  0.00000000E+00
  0.00000000E+00  0.00000000E+00  0.00000000E+00
  0.00000000E+00  0.00000000E+00  0.00000000E+00
  0.00000000E+00  0.00000000E+00  0.00000000E+00
  0.00000000E+00  0.00000000E+00  0.00000000E+00
  0.00000000E+00  0.00000000E+00  0.00000000E+00
  0.00000000E+00  0.00000000E+00  0.00000000E+00
  0.00000000E+00  0.00000000E+00  0.00000000E+00
  0.00000000E+00  0.00000000E+00  0.00000000E+00
  0.00000000E+00  0.00000000E+00  0.00000000E+00
  0.00000000E+00  0.00000000E+00  0.00000000E+00
  0.00000000E+00  0.00000000E+00  0.00000000E+00
  0.00000000E+00  0.00000000E+00  0.00000000E+00
  0.00000000E+00  0.00000000E+00  0.00000000E+00
  0.00000000E+00  0.00000000E+00  0.00000000E+00
  0.00000000E+00  0.00000000E+00  0.00000000E+00
  0.00000000E+00  0.00000000E+00  0.00000000E+00
  0.00000000E+00  0.00000000E+00  0.00000000E+00
  0.00000000E+00  0.00000000E+00  0.00000000E+00
  0.00000000E+00  0.00000000E+00  0.00000000E+00
  0.00000000E+00  0.00000000E+00  0.00000000E+00
  0.00000000E+00  0.00000000E+00  0.00000000E+00
  0.00000000E+00  0.00000000E+00  0.00000000E+00
  0.00000000E+00  0.00000000E+00  0.00000000E+00
  0.00000000E+00  0.00000000E+00  0.00000000E+00
  0.00000000E+00  0.00000000E+00  0.00000000E+00
  0.00000000E+00  0.00000000E+00  0.00000000E+00
  0.00000000E+00  0.00000000E+00  0.00000000E+00
  0.00000000E+00  0.00000000E+00  0.00000000E+00
  0.00000000E+00  0.00000000E+00  0.00000000E+00
  0.00000000E+00  0.00000000E+00  0.00000000E+00
  0.00000000E+00  0.00000000E+00  0.00000000E+00
  0.00000000E+00  0.00000000E+00  0.00000000E+00
  0.00000000E+00  0.00000000E+00  0.00000000E+00
  0.00000000E+00  0.00000000E+00  0.00000000E+00
  0.00000000E+00  0.00000000E+00  0.00000000E+00
  0.00000000E+00  0.00000000E+00  0.00000000E+00
  0.00000000E+00  0.00000000E+00  0.00000000E+00
  0.00000000E+00  0.00000000E+00  0.00000000E+00
  0.00000000E+00  0.00000000E+00  0.00000000E+00
