Rh  C Br                                
   1.00000000000000     
    10.8721879999999995    0.0000000000000000    0.0000000000000000
    -5.4360939999999998    9.4155909999999992    0.0000000000000000
     0.0000000000000000    0.0000000000000000   24.6578279400000042
   Rh   C    Br
    64     6     6
Selective dynamics
Direct
  0.9999999559446024  0.7499999670758868  0.3041630438110658   F   F   F
  0.2499999889626636  0.0000000000000000  0.3041630438110658   F   F   F
  0.2499999891709876  0.2499999893793188  0.3041630438110658   F   F   F
  0.2499999888482805  0.4999999776965680  0.3041630438110658   F   F   F
  0.2499999890566116  0.7499999670758868  0.3041630438110658   F   F   F
  0.4999999779253272  0.0000000000000000  0.3041630438110658   F   F   F
  0.4999999781336513  0.2499999893793188  0.3041630438110658   F   F   F
  0.4999999778109441  0.4999999776965680  0.3041630438110658   F   F   F
  0.7499999668879909  0.0000000000000000  0.3041630438110658   F   F   F
  0.7499999670963149  0.2499999893793188  0.3041630438110658   F   F   F
  0.7499999667736077  0.4999999776965680  0.3041630438110658   F   F   F
  0.7499999669819388  0.7499999670758868  0.3041630438110658   F   F   F
  0.0000000000000000  0.0000000000000000  0.3041630438110658   F   F   F
  0.9999999560589785  0.2499999893793188  0.3041630438110658   F   F   F
  0.9999999998856168  0.4999999776965680  0.3041630438110658   F   F   F
  0.4999999780192752  0.7499999670758868  0.3041630438110658   F   F   F
  0.0833330000000032  0.1666669999999968  0.3941659420955475   F   F   F
  0.0833330000000032  0.4166669999999968  0.3941659420955475   F   F   F
  0.0833330000000032  0.6666669999999968  0.3941659420955475   F   F   F
  0.0833330000000032  0.9166669999999968  0.3941659420955475   F   F   F
  0.3333330000000032  0.1666669999999968  0.3941659420955475   F   F   F
  0.3333330000000032  0.4166669999999968  0.3941659420955475   F   F   F
  0.3333330000000032  0.6666669999999968  0.3941659420955475   F   F   F
  0.3333330000000032  0.9166669999999968  0.3941659420955475   F   F   F
  0.5833330000000032  0.1666669999999968  0.3941659420955475   F   F   F
  0.5833330000000032  0.4166669999999968  0.3941659420955475   F   F   F
  0.5833330000000032  0.6666669999999968  0.3941659420955475   F   F   F
  0.5833330000000032  0.9166669999999968  0.3941659420955475   F   F   F
  0.8333330000000032  0.1666669999999968  0.3941659420955475   F   F   F
  0.8333330000000032  0.4166669999999968  0.3941659420955475   F   F   F
  0.8333330000000032  0.6666669999999968  0.3941659420955475   F   F   F
  0.8333330000000032  0.9166669999999968  0.3941659420955475   F   F   F
  0.9973888005536483  0.9971106787300246  0.5652781385652396   T   T   T
  0.9973683614680466  0.2472305708121890  0.5666581758104347   T   T   T
  0.9993407389260807  0.4969782074752524  0.5662315355272389   T   T   T
  0.9992919578537516  0.7506913000496105  0.5659164776084370   T   T   T
  0.2478544505173953  0.9962108627228402  0.5665852398067029   T   T   T
  0.2463399642542614  0.2458576783020141  0.5691031299772749   T   T   T
  0.2480364905369841  0.5020081528741696  0.5684185771231017   T   T   T
  0.2525858737346723  0.7502061222420431  0.5662506485712450   T   T   T
  0.4998139379110862  0.9991371366520192  0.5664479882976677   T   T   T
  0.5031048253950144  0.2465390484269755  0.5688452793262286   T   T   T
  0.5039249632270385  0.5033281830051570  0.5691954192235636   T   T   T
  0.5027996632210094  0.7525863605469996  0.5666289178504825   T   T   T
  0.7505924621942353  0.9994728441392418  0.5660563187509594   T   T   T
  0.7506608596477803  0.2497300051439477  0.5667773068697918   T   T   T
  0.7536439042381172  0.5022528131005725  0.5667545381548292   T   T   T
  0.7534945874211515  0.7531321612406459  0.5654344429914969   T   T   T
  0.1677789733667216  0.0847609317374716  0.4800646029851033   T   T   T
  0.1673752808381831  0.3331847537772269  0.4802616144657904   T   T   T
  0.1675403371336572  0.5823268192204005  0.4798896475530313   T   T   T
  0.1679968128957768  0.8335572037647208  0.4796049778813208   T   T   T
  0.4156121637827769  0.0830778932585141  0.4805537907885713   T   T   T
  0.4171698499975254  0.3329582898848218  0.4799292847567357   T   T   T
  0.4170259859974992  0.5828789753695393  0.4802590312443960   T   T   T
  0.4165016203369241  0.8327625054280018  0.4807895822730157   T   T   T
  0.6664102687707512  0.0836832128441107  0.4793895411687689   T   T   T
  0.6671451748912491  0.3346893907382559  0.4807688338661688   T   T   T
  0.6653519722707386  0.5824847685623437  0.4801459112846638   T   T   T
  0.6674792092052489  0.8337800564860571  0.4797603371044056   T   T   T
  0.9164947804965009  0.0830954941411315  0.4798178329519828   T   T   T
  0.9171288198350748  0.3335957505806099  0.4808305952691536   T   T   T
  0.9164494095935957  0.5821833413549276  0.4797582521967546   T   T   T
  0.9179543511910837  0.8323230895709731  0.4797389283755778   T   T   T
  0.3044552411974176  0.2220459185678181  0.6506284993621408   T   T   T
  0.2278695905843932  0.2972498939727111  0.6498734735981784   T   T   T
  0.3030089780621256  0.4471015473470202  0.6376737936131734   T   T   T
  0.4528782874644256  0.5218404527283742  0.6499918242107785   T   T   T
  0.5275988582348867  0.4446502573189588  0.6507038576562747   T   T   T
  0.4547092940657910  0.2942208322546196  0.6415603671217625   T   T   T
  0.2158649121322878  0.0188131194566747  0.6696998721246398   T   T   T
  0.0270167796161412  0.2149295105058441  0.6707717114688284   T   T   T
  0.0886747736907671  0.6593356778414073  0.6499220905693529   T   T   T
  0.5363863964145783  0.7228965916888520  0.6708498451343897   T   T   T
  0.7301054594517287  0.5321853810403058  0.6701818587603323   T   T   T
  0.6604381911856809  0.0857861196642993  0.6512757943650989   T   T   T
 
  0.00000000E+00  0.00000000E+00  0.00000000E+00
  0.00000000E+00  0.00000000E+00  0.00000000E+00
  0.00000000E+00  0.00000000E+00  0.00000000E+00
  0.00000000E+00  0.00000000E+00  0.00000000E+00
  0.00000000E+00  0.00000000E+00  0.00000000E+00
  0.00000000E+00  0.00000000E+00  0.00000000E+00
  0.00000000E+00  0.00000000E+00  0.00000000E+00
  0.00000000E+00  0.00000000E+00  0.00000000E+00
  0.00000000E+00  0.00000000E+00  0.00000000E+00
  0.00000000E+00  0.00000000E+00  0.00000000E+00
  0.00000000E+00  0.00000000E+00  0.00000000E+00
  0.00000000E+00  0.00000000E+00  0.00000000E+00
  0.00000000E+00  0.00000000E+00  0.00000000E+00
  0.00000000E+00  0.00000000E+00  0.00000000E+00
  0.00000000E+00  0.00000000E+00  0.00000000E+00
  0.00000000E+00  0.00000000E+00  0.00000000E+00
  0.00000000E+00  0.00000000E+00  0.00000000E+00
  0.00000000E+00  0.00000000E+00  0.00000000E+00
  0.00000000E+00  0.00000000E+00  0.00000000E+00
  0.00000000E+00  0.00000000E+00  0.00000000E+00
  0.00000000E+00  0.00000000E+00  0.00000000E+00
  0.00000000E+00  0.00000000E+00  0.00000000E+00
  0.00000000E+00  0.00000000E+00  0.00000000E+00
  0.00000000E+00  0.00000000E+00  0.00000000E+00
  0.00000000E+00  0.00000000E+00  0.00000000E+00
  0.00000000E+00  0.00000000E+00  0.00000000E+00
  0.00000000E+00  0.00000000E+00  0.00000000E+00
  0.00000000E+00  0.00000000E+00  0.00000000E+00
  0.00000000E+00  0.00000000E+00  0.00000000E+00
  0.00000000E+00  0.00000000E+00  0.00000000E+00
  0.00000000E+00  0.00000000E+00  0.00000000E+00
  0.00000000E+00  0.00000000E+00  0.00000000E+00
  0.00000000E+00  0.00000000E+00  0.00000000E+00
  0.00000000E+00  0.00000000E+00  0.00000000E+00
  0.00000000E+00  0.00000000E+00  0.00000000E+00
  0.00000000E+00  0.00000000E+00  0.00000000E+00
  0.00000000E+00  0.00000000E+00  0.00000000E+00
  0.00000000E+00  0.00000000E+00  0.00000000E+00
  0.00000000E+00  0.00000000E+00  0.00000000E+00
  0.00000000E+00  0.00000000E+00  0.00000000E+00
  0.00000000E+00  0.00000000E+00  0.00000000E+00
  0.00000000E+00  0.00000000E+00  0.00000000E+00
  0.00000000E+00  0.00000000E+00  0.00000000E+00
  0.00000000E+00  0.00000000E+00  0.00000000E+00
  0.00000000E+00  0.00000000E+00  0.00000000E+00
  0.00000000E+00  0.00000000E+00  0.00000000E+00
  0.00000000E+00  0.00000000E+00  0.00000000E+00
  0.00000000E+00  0.00000000E+00  0.00000000E+00
  0.00000000E+00  0.00000000E+00  0.00000000E+00
  0.00000000E+00  0.00000000E+00  0.00000000E+00
  0.00000000E+00  0.00000000E+00  0.00000000E+00
  0.00000000E+00  0.00000000E+00  0.00000000E+00
  0.00000000E+00  0.00000000E+00  0.00000000E+00
  0.00000000E+00  0.00000000E+00  0.00000000E+00
  0.00000000E+00  0.00000000E+00  0.00000000E+00
  0.00000000E+00  0.00000000E+00  0.00000000E+00
  0.00000000E+00  0.00000000E+00  0.00000000E+00
  0.00000000E+00  0.00000000E+00  0.00000000E+00
  0.00000000E+00  0.00000000E+00  0.00000000E+00
  0.00000000E+00  0.00000000E+00  0.00000000E+00
  0.00000000E+00  0.00000000E+00  0.00000000E+00
  0.00000000E+00  0.00000000E+00  0.00000000E+00
  0.00000000E+00  0.00000000E+00  0.00000000E+00
  0.00000000E+00  0.00000000E+00  0.00000000E+00
  0.00000000E+00  0.00000000E+00  0.00000000E+00
  0.00000000E+00  0.00000000E+00  0.00000000E+00
  0.00000000E+00  0.00000000E+00  0.00000000E+00
  0.00000000E+00  0.00000000E+00  0.00000000E+00
  0.00000000E+00  0.00000000E+00  0.00000000E+00
  0.00000000E+00  0.00000000E+00  0.00000000E+00
  0.00000000E+00  0.00000000E+00  0.00000000E+00
  0.00000000E+00  0.00000000E+00  0.00000000E+00
  0.00000000E+00  0.00000000E+00  0.00000000E+00
  0.00000000E+00  0.00000000E+00  0.00000000E+00
  0.00000000E+00  0.00000000E+00  0.00000000E+00
  0.00000000E+00  0.00000000E+00  0.00000000E+00
