Pt48 C6 Cl2 H4                          
    1.000000000000000     
    11.2480068000000006    0.0000000000000000    0.0000000000000000
     0.0000000000000000   15.9070838000000006    0.0000000000000000
     0.0000000000000000    0.0000000000000000   15.6762336999999992
   Pt   C    Cl   H 
    48     6     2     4
Selective dynamics
Direct
  0.2500518550468627  0.2519424429771675  0.4029934615949031   T   T   T
  0.2448886268957366  0.5002828780393926  0.3989135735250500   T   T   T
  0.2535840024452511  0.7461466614201129  0.4066212987737643   T   T   T
  0.2507045013752389  0.0000731558837685  0.4037248216052589   T   T   T
  0.4994635090887130  0.2536247377960450  0.4066704160016599   T   T   T
  0.4999949434360076  0.5000057774199931  0.3867216460972074   T   T   T
  0.5005402496764404  0.7463896300421027  0.4066520793576061   T   T   T
  0.4999955691229871  0.0000030120615762  0.4045559131359084   T   T   T
  0.7464196053881764  0.2538800438509625  0.4066224283959841   T   T   T
  0.7551114727258010  0.4997152868292716  0.3989182378518663   T   T   T
  0.7499684540422180  0.7480740723607155  0.4030204162642619   T   T   T
  0.7493059090904381  0.9999194144100017  0.4037789779693171   T   T   T
  0.9984900580830001  0.2514253187267741  0.4039923810573427   T   T   T
  0.9999839964768853  0.4999929121655668  0.4040710496318525   T   T   T
  0.0014912848253985  0.7486020747760378  0.4040169800834619   T   T   T
  0.9999964950859308  0.9999861767005385  0.4024123373880570   T   T   T
  0.1238863043721281  0.1261387055557890  0.4882120842149362   T   T   T
  0.1219462552086910  0.3753324753961564  0.4907382837022141   T   T   T
  0.1272764570072269  0.6240757678944249  0.4910088970811373   T   T   T
  0.1270858357597220  0.8737292888698036  0.4875764482758882   T   T   T
  0.3739318077131983  0.1269785601308939  0.4883366173357970   T   T   T
  0.3704174183312148  0.3855392606200851  0.4896307156377873   T   T   T
  0.3815250904738861  0.6098352502044548  0.4951054428801882   T   T   T
  0.3766117042835120  0.8732376441725478  0.4886171925541731   T   T   T
  0.6233761653534486  0.1267941304201514  0.4885897789104661   T   T   T
  0.6184983739602927  0.3901700395140537  0.4951152669627206   T   T   T
  0.6296091817549936  0.6144586030717605  0.4896333524101664   T   T   T
  0.6260216702078267  0.8730477985652314  0.4883467671385162   T   T   T
  0.8729658473751911  0.1263037407603633  0.4875592466744294   T   T   T
  0.8727306812945201  0.3759321027609275  0.4909790574718684   T   T   T
  0.8780309203643100  0.6246569863789375  0.4907984220909469   T   T   T
  0.8761246349150724  0.8738657182783385  0.4882459190054789   T   T   T
  0.1250000000000000  0.1250000003143228  0.3189541630780894   F   F   F
  0.1250000000000000  0.3750000003143228  0.3189541630780894   F   F   F
  0.1250000008890453  0.6250000009429755  0.3189541630780894   F   F   F
  0.1250000008890453  0.8750000009429755  0.3189541630780894   F   F   F
  0.3750000008890453  0.1250000003143228  0.3189541630780894   F   F   F
  0.3750000008890453  0.3750000003143228  0.3189541630780894   F   F   F
  0.3750000008890453  0.6250000009429755  0.3189541630780894   F   F   F
  0.3750000008890453  0.8750000009429755  0.3189541630780894   F   F   F
  0.6250000017780906  0.1250000003143228  0.3189541630780894   F   F   F
  0.6250000017780906  0.3750000003143228  0.3189541630780894   F   F   F
  0.6250000017780906  0.6250000009429755  0.3189541630780894   F   F   F
  0.6250000026671358  0.8750000009429755  0.3189541630780894   F   F   F
  0.8750000026671358  0.1250000003143228  0.3189541630780894   F   F   F
  0.8750000026671358  0.3750000003143228  0.3189541630780894   F   F   F
  0.8750000035561882  0.6250000009429755  0.3189541630780894   F   F   F
  0.8750000026671358  0.8750000009429755  0.3189541630780894   F   F   F
  0.4008007110979719  0.4372357946158729  0.6068559190092913   T   T   T
  0.3769594373649170  0.5306105768888969  0.6093831095946598   T   T   T
  0.4724098438203868  0.5896388059093383  0.6168194912793297   T   T   T
  0.5992060784291766  0.5627476862279295  0.6068454840493871   T   T   T
  0.6230811339415681  0.4693769486171391  0.6093763023801841   T   T   T
  0.5275926479314990  0.4103403817069307  0.6168212245975297   T   T   T
  0.3084499293315588  0.3872635403719826  0.6864882679873645   T   T   T
  0.6915624210718860  0.6127369937900511  0.6864687257282185   T   T   T
  0.2913988533529022  0.5468468696732103  0.6379794557624550   T   T   T
  0.4585848916851774  0.6481362787978782  0.6519563584819039   T   T   T
  0.7086065910814554  0.4531449102621394  0.6379802465514501   T   T   T
  0.5414356112333181  0.3518675583557354  0.6519840596149322   T   T   T
 
  0.00000000E+00  0.00000000E+00  0.00000000E+00
  0.00000000E+00  0.00000000E+00  0.00000000E+00
  0.00000000E+00  0.00000000E+00  0.00000000E+00
  0.00000000E+00  0.00000000E+00  0.00000000E+00
  0.00000000E+00  0.00000000E+00  0.00000000E+00
  0.00000000E+00  0.00000000E+00  0.00000000E+00
  0.00000000E+00  0.00000000E+00  0.00000000E+00
  0.00000000E+00  0.00000000E+00  0.00000000E+00
  0.00000000E+00  0.00000000E+00  0.00000000E+00
  0.00000000E+00  0.00000000E+00  0.00000000E+00
  0.00000000E+00  0.00000000E+00  0.00000000E+00
  0.00000000E+00  0.00000000E+00  0.00000000E+00
  0.00000000E+00  0.00000000E+00  0.00000000E+00
  0.00000000E+00  0.00000000E+00  0.00000000E+00
  0.00000000E+00  0.00000000E+00  0.00000000E+00
  0.00000000E+00  0.00000000E+00  0.00000000E+00
  0.00000000E+00  0.00000000E+00  0.00000000E+00
  0.00000000E+00  0.00000000E+00  0.00000000E+00
  0.00000000E+00  0.00000000E+00  0.00000000E+00
  0.00000000E+00  0.00000000E+00  0.00000000E+00
  0.00000000E+00  0.00000000E+00  0.00000000E+00
  0.00000000E+00  0.00000000E+00  0.00000000E+00
  0.00000000E+00  0.00000000E+00  0.00000000E+00
  0.00000000E+00  0.00000000E+00  0.00000000E+00
  0.00000000E+00  0.00000000E+00  0.00000000E+00
  0.00000000E+00  0.00000000E+00  0.00000000E+00
  0.00000000E+00  0.00000000E+00  0.00000000E+00
  0.00000000E+00  0.00000000E+00  0.00000000E+00
  0.00000000E+00  0.00000000E+00  0.00000000E+00
  0.00000000E+00  0.00000000E+00  0.00000000E+00
  0.00000000E+00  0.00000000E+00  0.00000000E+00
  0.00000000E+00  0.00000000E+00  0.00000000E+00
  0.00000000E+00  0.00000000E+00  0.00000000E+00
  0.00000000E+00  0.00000000E+00  0.00000000E+00
  0.00000000E+00  0.00000000E+00  0.00000000E+00
  0.00000000E+00  0.00000000E+00  0.00000000E+00
  0.00000000E+00  0.00000000E+00  0.00000000E+00
  0.00000000E+00  0.00000000E+00  0.00000000E+00
  0.00000000E+00  0.00000000E+00  0.00000000E+00
  0.00000000E+00  0.00000000E+00  0.00000000E+00
  0.00000000E+00  0.00000000E+00  0.00000000E+00
  0.00000000E+00  0.00000000E+00  0.00000000E+00
  0.00000000E+00  0.00000000E+00  0.00000000E+00
  0.00000000E+00  0.00000000E+00  0.00000000E+00
  0.00000000E+00  0.00000000E+00  0.00000000E+00
  0.00000000E+00  0.00000000E+00  0.00000000E+00
  0.00000000E+00  0.00000000E+00  0.00000000E+00
  0.00000000E+00  0.00000000E+00  0.00000000E+00
  0.00000000E+00  0.00000000E+00  0.00000000E+00
  0.00000000E+00  0.00000000E+00  0.00000000E+00
  0.00000000E+00  0.00000000E+00  0.00000000E+00
  0.00000000E+00  0.00000000E+00  0.00000000E+00
  0.00000000E+00  0.00000000E+00  0.00000000E+00
  0.00000000E+00  0.00000000E+00  0.00000000E+00
  0.00000000E+00  0.00000000E+00  0.00000000E+00
  0.00000000E+00  0.00000000E+00  0.00000000E+00
  0.00000000E+00  0.00000000E+00  0.00000000E+00
  0.00000000E+00  0.00000000E+00  0.00000000E+00
  0.00000000E+00  0.00000000E+00  0.00000000E+00
  0.00000000E+00  0.00000000E+00  0.00000000E+00
