Ir48 C6 H2 Br4                          
    1.000000000000000     
    10.9622135000000007    0.0000000000000000    0.0000000000000000
     0.0000000000000000   15.5029109999999992    0.0000000000000000
     0.0000000000000000    0.0000000000000000   15.5469454900000006
   Ir   C    H    Br
    48     6     2     4
Selective dynamics
Direct
  0.2495963367524112  0.9991767021214031  0.3950899107075401   T   T   T
  0.2498906718375054  0.2520677415269716  0.4015877771266574   T   T   T
  0.2523540944202765  0.4999878677382199  0.3932117548102596   T   T   T
  0.2502848458107891  0.7489372698067172  0.4005142578295846   T   T   T
  0.4999853111686718  0.9999936446765929  0.4084862959981237   T   T   T
  0.4991888873652712  0.2498214910374870  0.4064249658657033   T   T   T
  0.4999976799977048  0.5000079483957975  0.3997451077539651   T   T   T
  0.5008269752617522  0.7501796220867902  0.4064480725317310   T   T   T
  0.7503596675817690  0.0008126178723415  0.3950792822817277   T   T   T
  0.7496891509427925  0.2510235547779160  0.4004403961600715   T   T   T
  0.7476368546923240  0.5000204748819996  0.3932317981579700   T   T   T
  0.7500840150391568  0.7479583439746023  0.4015913782157554   T   T   T
  0.9999777828468339  0.0000116693864101  0.4082971659636385   T   T   T
  0.9984775738221074  0.2520243945575942  0.4119659650825014   T   T   T
  0.0000022527824441  0.4999788852893658  0.4062291249891317   T   T   T
  0.0014888092042113  0.7479815619585963  0.4119112212728027   T   T   T
  0.1282293284200406  0.1251128351028967  0.4842010807130848   T   T   T
  0.1253670027792708  0.3786212077950637  0.4856443817143798   T   T   T
  0.1296472542546780  0.6193154968022512  0.4883863615834017   T   T   T
  0.1223740079796443  0.8749230949116864  0.4877512294373574   T   T   T
  0.3709597899574248  0.1245143363527745  0.4840625791077287   T   T   T
  0.3717492686274042  0.3779450934868649  0.4891457501762915   T   T   T
  0.3809979587775487  0.6272380643129836  0.4887591498313384   T   T   T
  0.3770708840444712  0.8751266175431738  0.4875221040834532   T   T   T
  0.6228586707744626  0.1248674040859186  0.4875127746597911   T   T   T
  0.6190492876423122  0.3727716704227646  0.4887182843588604   T   T   T
  0.6282832764812341  0.6220917009601692  0.4891886458638126   T   T   T
  0.6289582594486589  0.8754952870306028  0.4840251538641169   T   T   T
  0.8774942132037751  0.1250594813684103  0.4878063696875614   T   T   T
  0.8703710955188697  0.3806649668013549  0.4883412050129081   T   T   T
  0.8746167299083183  0.6213935966360680  0.4856207400080663   T   T   T
  0.8717065019891876  0.8748857628010924  0.4842289895617782   T   T   T
  0.1249999993158326  0.1249999996774775  0.3216065820270657   F   F   F
  0.1249999993158326  0.3749999996774775  0.3216065820270657   F   F   F
  0.1250000002280558  0.6249999990324397  0.3216065820270657   F   F   F
  0.1250000002280558  0.8749999983874019  0.3216065820270657   F   F   F
  0.3749999988597210  0.1249999996774775  0.3216065820270657   F   F   F
  0.3749999997719442  0.3749999996774775  0.3216065820270657   F   F   F
  0.3749999997719442  0.6249999990324397  0.3216065820270657   F   F   F
  0.3749999997719442  0.8749999983874019  0.3216065820270657   F   F   F
  0.6249999993158326  0.1249999996774775  0.3216065820270657   F   F   F
  0.6249999984036094  0.3749999996774775  0.3216065820270657   F   F   F
  0.6249999993158326  0.6249999990324397  0.3216065820270657   F   F   F
  0.6249999993158326  0.8749999983874019  0.3216065820270657   F   F   F
  0.8749999979474978  0.1249999996774775  0.3216065820270657   F   F   F
  0.8749999988597210  0.3749999996774775  0.3216065820270657   F   F   F
  0.8749999988597210  0.6249999990324397  0.3216065820270657   F   F   F
  0.8749999988597210  0.8749999983874019  0.3216065820270657   F   F   F
  0.5724645469413403  0.5830223980282909  0.6161746902286040   T   T   T
  0.6245359179360435  0.4970260272776486  0.6198178842299384   T   T   T
  0.5647228185471178  0.4216369243144698  0.6002015944867054   T   T   T
  0.4279731880457049  0.4173096197147501  0.6160211155561157   T   T   T
  0.3759647067375482  0.5033089142004670  0.6198646917454127   T   T   T
  0.4355369693835769  0.5787491955159396  0.6003306383059055   T   T   T
  0.6039975292476569  0.6325809716295296  0.6615184200695836   T   T   T
  0.3963981445326752  0.3677893357339173  0.6613514761471748   T   T   T
  0.8184693689477598  0.4863717630067370  0.6153607128163898   T   T   T
  0.7496163229694730  0.1232867407093678  0.6208654614871492   T   T   T
  0.1811423167535224  0.5140128447233749  0.6151208914090702   T   T   T
  0.2502461641941665  0.8767013824459227  0.6208977676786844   T   T   T
 
  0.00000000E+00  0.00000000E+00  0.00000000E+00
  0.00000000E+00  0.00000000E+00  0.00000000E+00
  0.00000000E+00  0.00000000E+00  0.00000000E+00
  0.00000000E+00  0.00000000E+00  0.00000000E+00
  0.00000000E+00  0.00000000E+00  0.00000000E+00
  0.00000000E+00  0.00000000E+00  0.00000000E+00
  0.00000000E+00  0.00000000E+00  0.00000000E+00
  0.00000000E+00  0.00000000E+00  0.00000000E+00
  0.00000000E+00  0.00000000E+00  0.00000000E+00
  0.00000000E+00  0.00000000E+00  0.00000000E+00
  0.00000000E+00  0.00000000E+00  0.00000000E+00
  0.00000000E+00  0.00000000E+00  0.00000000E+00
  0.00000000E+00  0.00000000E+00  0.00000000E+00
  0.00000000E+00  0.00000000E+00  0.00000000E+00
  0.00000000E+00  0.00000000E+00  0.00000000E+00
  0.00000000E+00  0.00000000E+00  0.00000000E+00
  0.00000000E+00  0.00000000E+00  0.00000000E+00
  0.00000000E+00  0.00000000E+00  0.00000000E+00
  0.00000000E+00  0.00000000E+00  0.00000000E+00
  0.00000000E+00  0.00000000E+00  0.00000000E+00
  0.00000000E+00  0.00000000E+00  0.00000000E+00
  0.00000000E+00  0.00000000E+00  0.00000000E+00
  0.00000000E+00  0.00000000E+00  0.00000000E+00
  0.00000000E+00  0.00000000E+00  0.00000000E+00
  0.00000000E+00  0.00000000E+00  0.00000000E+00
  0.00000000E+00  0.00000000E+00  0.00000000E+00
  0.00000000E+00  0.00000000E+00  0.00000000E+00
  0.00000000E+00  0.00000000E+00  0.00000000E+00
  0.00000000E+00  0.00000000E+00  0.00000000E+00
  0.00000000E+00  0.00000000E+00  0.00000000E+00
  0.00000000E+00  0.00000000E+00  0.00000000E+00
  0.00000000E+00  0.00000000E+00  0.00000000E+00
  0.00000000E+00  0.00000000E+00  0.00000000E+00
  0.00000000E+00  0.00000000E+00  0.00000000E+00
  0.00000000E+00  0.00000000E+00  0.00000000E+00
  0.00000000E+00  0.00000000E+00  0.00000000E+00
  0.00000000E+00  0.00000000E+00  0.00000000E+00
  0.00000000E+00  0.00000000E+00  0.00000000E+00
  0.00000000E+00  0.00000000E+00  0.00000000E+00
  0.00000000E+00  0.00000000E+00  0.00000000E+00
  0.00000000E+00  0.00000000E+00  0.00000000E+00
  0.00000000E+00  0.00000000E+00  0.00000000E+00
  0.00000000E+00  0.00000000E+00  0.00000000E+00
  0.00000000E+00  0.00000000E+00  0.00000000E+00
  0.00000000E+00  0.00000000E+00  0.00000000E+00
  0.00000000E+00  0.00000000E+00  0.00000000E+00
  0.00000000E+00  0.00000000E+00  0.00000000E+00
  0.00000000E+00  0.00000000E+00  0.00000000E+00
  0.00000000E+00  0.00000000E+00  0.00000000E+00
  0.00000000E+00  0.00000000E+00  0.00000000E+00
  0.00000000E+00  0.00000000E+00  0.00000000E+00
  0.00000000E+00  0.00000000E+00  0.00000000E+00
  0.00000000E+00  0.00000000E+00  0.00000000E+00
  0.00000000E+00  0.00000000E+00  0.00000000E+00
  0.00000000E+00  0.00000000E+00  0.00000000E+00
  0.00000000E+00  0.00000000E+00  0.00000000E+00
  0.00000000E+00  0.00000000E+00  0.00000000E+00
  0.00000000E+00  0.00000000E+00  0.00000000E+00
  0.00000000E+00  0.00000000E+00  0.00000000E+00
  0.00000000E+00  0.00000000E+00  0.00000000E+00
