Pt48 C4 N2 Br4                          
    1.000000000000000     
    11.2480068000000006    0.0000000000000000    0.0000000000000000
     0.0000000000000000   11.2480068000000006    0.0000000000000000
     0.0000000000000000    0.0000000000000000   16.9136689300000000
   Pt   C    N    Br
    48     4     2     4
Selective dynamics
Direct
  0.2513320525355880  0.9939784156292433  0.4117223217950112   T   T   T
  0.2480278322269243  0.2480245739933125  0.4094163374373281   T   T   T
  0.2499350053779139  0.5000200142124385  0.4121057808170647   T   T   T
  0.2541663317288325  0.7458382269617445  0.4143813947170045   T   T   T
  0.4999995264618065  0.0000013442998039  0.4124976700242868   T   T   T
  0.5000167291536428  0.2499319279558279  0.4121003283944802   T   T   T
  0.5000025046130858  0.4999995826641381  0.4113689316802436   T   T   T
  0.4999829197322470  0.7500662476078190  0.4121030674342094   T   T   T
  0.7486686772102402  0.0060210568553103  0.4117221342269772   T   T   T
  0.7458330707247427  0.2541649145852887  0.4143792798698058   T   T   T
  0.7500639778537774  0.4999785273622379  0.4121024836715392   T   T   T
  0.7519744566736435  0.7519719038114090  0.4094139979469347   T   T   T
  0.9999991883346411  0.9999986262362626  0.4100592590992491   T   T   T
  0.9939733141627229  0.2513306550960337  0.4117263415884125   T   T   T
  0.9999974401872009  0.4999987955671514  0.4125026937608141   T   T   T
  0.0060195508362568  0.7486697637377375  0.4117240802585869   T   T   T
  0.1215643602752152  0.1215696382081930  0.5263335371075257   T   T   T
  0.1180157945244957  0.3689187679355683  0.5250149371922745   T   T   T
  0.1267316733070061  0.6226563096332569  0.5369424983867930   T   T   T
  0.1258772523561618  0.8741232223781381  0.5269430017143932   T   T   T
  0.3689164396962425  0.1180167538512649  0.5250172717250194   T   T   T
  0.3578149484924253  0.3578166623016727  0.5285868059939673   T   T   T
  0.3802251378901218  0.6197826518960454  0.5312034062967470   T   T   T
  0.3773415375217013  0.8732771043386123  0.5369296598807836   T   T   T
  0.6226560845245643  0.1267294329751323  0.5369339840786225   T   T   T
  0.6197738829196737  0.3802147095916553  0.5311995206219464   T   T   T
  0.6421910555249468  0.6421854286627138  0.5285853297732146   T   T   T
  0.6310813941562685  0.8819860664547576  0.5250145395889874   T   T   T
  0.8741174781009775  0.1258784409212907  0.5269410903681546   T   T   T
  0.8732667772290839  0.3773378589137337  0.5369390806693630   T   T   T
  0.8819893148977513  0.6310795090327588  0.5250180312050645   T   T   T
  0.8784320144012483  0.8784319589884717  0.5263318723688215   T   T   T
  0.1250000008890453  0.1250000000000000  0.2956188879357455   F   F   F
  0.1250000008890453  0.3750000008890453  0.2956188879357455   F   F   F
  0.1250000008890453  0.6250000026671358  0.2956188879357455   F   F   F
  0.1250000008890453  0.8750000026671358  0.2956188879357455   F   F   F
  0.3750000017780906  0.1250000000000000  0.2956188879357455   F   F   F
  0.3750000017780906  0.3750000008890453  0.2956188879357455   F   F   F
  0.3750000017780906  0.6250000026671358  0.2956188879357455   F   F   F
  0.3750000017780906  0.8750000026671358  0.2956188879357455   F   F   F
  0.6250000026671358  0.1250000000000000  0.2956188879357455   F   F   F
  0.6250000026671358  0.3750000008890453  0.2956188879357455   F   F   F
  0.6250000026671358  0.6250000026671358  0.2956188879357455   F   F   F
  0.6250000026671358  0.8750000026671358  0.2956188879357455   F   F   F
  0.8750000035561882  0.1250000000000000  0.2956188879357455   F   F   F
  0.8750000026671358  0.3750000008890453  0.2956188879357455   F   F   F
  0.8750000035561882  0.6250000026671358  0.2956188879357455   F   F   F
  0.8750000035561882  0.8750000026671358  0.2956188879357455   F   F   F
  0.4706076474755534  0.6207361373009448  0.6411597088474750   T   T   T
  0.3792703576215004  0.5294200085671221  0.6411514209274642   T   T   T
  0.5293905274256474  0.3792616031146991  0.6411547165694174   T   T   T
  0.6207415774125522  0.4705901863073692  0.6411509160449498   T   T   T
  0.4099619223230420  0.4099457019665635  0.6411466689446286   T   T   T
  0.5900529569842945  0.5900458365241761  0.6411473302574464   T   T   T
  0.7874549473046599  0.4382964592247873  0.6799320581658037   T   T   T
  0.5616747987791939  0.2125524303869142  0.6799392886456559   T   T   T
  0.4383420296298937  0.7874334431961145  0.6799527382236761   T   T   T
  0.2125554204298012  0.5616969094850077  0.6799384751931541   T   T   T
 
  0.00000000E+00  0.00000000E+00  0.00000000E+00
  0.00000000E+00  0.00000000E+00  0.00000000E+00
  0.00000000E+00  0.00000000E+00  0.00000000E+00
  0.00000000E+00  0.00000000E+00  0.00000000E+00
  0.00000000E+00  0.00000000E+00  0.00000000E+00
  0.00000000E+00  0.00000000E+00  0.00000000E+00
  0.00000000E+00  0.00000000E+00  0.00000000E+00
  0.00000000E+00  0.00000000E+00  0.00000000E+00
  0.00000000E+00  0.00000000E+00  0.00000000E+00
  0.00000000E+00  0.00000000E+00  0.00000000E+00
  0.00000000E+00  0.00000000E+00  0.00000000E+00
  0.00000000E+00  0.00000000E+00  0.00000000E+00
  0.00000000E+00  0.00000000E+00  0.00000000E+00
  0.00000000E+00  0.00000000E+00  0.00000000E+00
  0.00000000E+00  0.00000000E+00  0.00000000E+00
  0.00000000E+00  0.00000000E+00  0.00000000E+00
  0.00000000E+00  0.00000000E+00  0.00000000E+00
  0.00000000E+00  0.00000000E+00  0.00000000E+00
  0.00000000E+00  0.00000000E+00  0.00000000E+00
  0.00000000E+00  0.00000000E+00  0.00000000E+00
  0.00000000E+00  0.00000000E+00  0.00000000E+00
  0.00000000E+00  0.00000000E+00  0.00000000E+00
  0.00000000E+00  0.00000000E+00  0.00000000E+00
  0.00000000E+00  0.00000000E+00  0.00000000E+00
  0.00000000E+00  0.00000000E+00  0.00000000E+00
  0.00000000E+00  0.00000000E+00  0.00000000E+00
  0.00000000E+00  0.00000000E+00  0.00000000E+00
  0.00000000E+00  0.00000000E+00  0.00000000E+00
  0.00000000E+00  0.00000000E+00  0.00000000E+00
  0.00000000E+00  0.00000000E+00  0.00000000E+00
  0.00000000E+00  0.00000000E+00  0.00000000E+00
  0.00000000E+00  0.00000000E+00  0.00000000E+00
  0.00000000E+00  0.00000000E+00  0.00000000E+00
  0.00000000E+00  0.00000000E+00  0.00000000E+00
  0.00000000E+00  0.00000000E+00  0.00000000E+00
  0.00000000E+00  0.00000000E+00  0.00000000E+00
  0.00000000E+00  0.00000000E+00  0.00000000E+00
  0.00000000E+00  0.00000000E+00  0.00000000E+00
  0.00000000E+00  0.00000000E+00  0.00000000E+00
  0.00000000E+00  0.00000000E+00  0.00000000E+00
  0.00000000E+00  0.00000000E+00  0.00000000E+00
  0.00000000E+00  0.00000000E+00  0.00000000E+00
  0.00000000E+00  0.00000000E+00  0.00000000E+00
  0.00000000E+00  0.00000000E+00  0.00000000E+00
  0.00000000E+00  0.00000000E+00  0.00000000E+00
  0.00000000E+00  0.00000000E+00  0.00000000E+00
  0.00000000E+00  0.00000000E+00  0.00000000E+00
  0.00000000E+00  0.00000000E+00  0.00000000E+00
  0.00000000E+00  0.00000000E+00  0.00000000E+00
  0.00000000E+00  0.00000000E+00  0.00000000E+00
  0.00000000E+00  0.00000000E+00  0.00000000E+00
  0.00000000E+00  0.00000000E+00  0.00000000E+00
  0.00000000E+00  0.00000000E+00  0.00000000E+00
  0.00000000E+00  0.00000000E+00  0.00000000E+00
  0.00000000E+00  0.00000000E+00  0.00000000E+00
  0.00000000E+00  0.00000000E+00  0.00000000E+00
  0.00000000E+00  0.00000000E+00  0.00000000E+00
  0.00000000E+00  0.00000000E+00  0.00000000E+00
