Cu48 C6 Cl6                             
    1.000000000000000     
    10.2424774999999997    0.0000000000000000    0.0000000000000000
     0.0000000000000000   10.2424774999999997    0.0000000000000000
     0.0000000000000000    0.0000000000000000   16.5495968500000004
   Cu   C    Cl
    48     6     6
Selective dynamics
Direct
  0.2496523803431572  0.0000034812420537  0.4091636795443350   T   T   T
  0.2502120642770507  0.2502392379528047  0.4096027011345313   T   T   T
  0.2498505265252220  0.4985360320435106  0.4090373432568128   T   T   T
  0.2497537475523330  0.7502428599955095  0.4086685620361123   T   T   T
  0.4999918268172578  0.0000199091594624  0.4091694464242863   T   T   T
  0.4984979173891801  0.2498854607795451  0.4090312497762909   T   T   T
  0.4999499351872174  0.5000185545725842  0.4086324767388447   T   T   T
  0.5014464158661411  0.7501457141837307  0.4090262635558020   T   T   T
  0.7503292420022021  0.0000195280424151  0.4091621953304596   T   T   T
  0.7502099002986640  0.2497768154210149  0.4086693743487686   T   T   T
  0.7501008292026796  0.5014839199155574  0.4090291069956251   T   T   T
  0.7497548586887532  0.7497922964485610  0.4095914095077049   T   T   T
  0.0000043035960005  0.0000029379195396  0.4089943459276384   T   T   T
  0.9999828091818657  0.2496680636625825  0.4091725291901511   T   T   T
  0.9999809298728906  0.5000010533923671  0.4091777735102156   T   T   T
  0.9999998818448148  0.7503545713203295  0.4091621260062155   T   T   T
  0.1244149102342291  0.1244312342919045  0.5165165614012963   T   T   T
  0.1238534954936839  0.3739663961885213  0.5159555782564595   T   T   T
  0.1248027417112851  0.6252654606083610  0.5160306903376934   T   T   T
  0.1248049149085517  0.8751987157776568  0.5161996113076270   T   T   T
  0.3739256768870547  0.1238979880638880  0.5159418297546239   T   T   T
  0.3741754107236375  0.3742785362263561  0.5195396630023055   T   T   T
  0.3747212152595907  0.6252598825801456  0.5118993269060326   T   T   T
  0.3747417121937175  0.8751847346336916  0.5160309573618846   T   T   T
  0.6252399703930323  0.1248467299145872  0.5160376220460918   T   T   T
  0.6251510727312706  0.3748160998667487  0.5118574189154543   T   T   T
  0.6256904025608634  0.6257954661501870  0.5194782768507125   T   T   T
  0.6260322966069580  0.8761334883367482  0.5159355249574773   T   T   T
  0.8751901617914655  0.1248051707223112  0.5161708335871182   T   T   T
  0.8751271155332390  0.3747596628639300  0.5160441479049425   T   T   T
  0.8760855324813335  0.6260805105312457  0.5159308913523191   T   T   T
  0.8755652595026788  0.8755910303310657  0.5165100440469672   T   T   T
  0.1250000002440785  0.1249999992677573  0.3021221631752340   F   F   F
  0.1250000002440785  0.3749999997559215  0.3021221631752340   F   F   F
  0.1250000002440785  0.6249999982914289  0.3021221631752340   F   F   F
  0.1250000002440785  0.8749999987795931  0.3021221631752340   F   F   F
  0.3749999997559215  0.1249999992677573  0.3021221631752340   F   F   F
  0.3749999997559215  0.3749999997559215  0.3021221631752340   F   F   F
  0.3749999997559215  0.6249999982914289  0.3021221631752340   F   F   F
  0.3749999997559215  0.8749999987795931  0.3021221631752340   F   F   F
  0.6249999982914289  0.1249999992677573  0.3021221631752340   F   F   F
  0.6249999982914289  0.3749999997559215  0.3021221631752340   F   F   F
  0.6249999992677573  0.6249999982914289  0.3021221631752340   F   F   F
  0.6249999992677573  0.8749999987795931  0.3021221631752340   F   F   F
  0.8749999987795931  0.1249999992677573  0.3021221631752340   F   F   F
  0.8749999978032648  0.3749999997559215  0.3021221631752340   F   F   F
  0.8749999987795931  0.6249999982914289  0.3021221631752340   F   F   F
  0.8749999987795931  0.8749999987795931  0.3021221631752340   F   F   F
  0.3675003931706371  0.5367360263510790  0.6618752494234243   T   T   T
  0.4631956802042012  0.6325245909919772  0.6618346079583262   T   T   T
  0.6010075484751098  0.6008487197788810  0.6475735280318773   T   T   T
  0.6325720314320620  0.4631085358214762  0.6615331823758268   T   T   T
  0.5368938058179040  0.3673624597673495  0.6615983556425533   T   T   T
  0.3990120182070669  0.3990288684723851  0.6476820607396547   T   T   T
  0.2058768853577462  0.5785170126472892  0.6762975194544154   T   T   T
  0.4215438927717514  0.7941939141560113  0.6761857212985731   T   T   T
  0.7130515558483594  0.7127235463085029  0.6920800674059535   T   T   T
  0.7944608321867150  0.4212399627481673  0.6756249288185145   T   T   T
  0.5786865447651621  0.2055996563222067  0.6757530322961145   T   T   T
  0.2873024967800362  0.2870613186913573  0.6922481887701153   T   T   T
 
  0.00000000E+00  0.00000000E+00  0.00000000E+00
  0.00000000E+00  0.00000000E+00  0.00000000E+00
  0.00000000E+00  0.00000000E+00  0.00000000E+00
  0.00000000E+00  0.00000000E+00  0.00000000E+00
  0.00000000E+00  0.00000000E+00  0.00000000E+00
  0.00000000E+00  0.00000000E+00  0.00000000E+00
  0.00000000E+00  0.00000000E+00  0.00000000E+00
  0.00000000E+00  0.00000000E+00  0.00000000E+00
  0.00000000E+00  0.00000000E+00  0.00000000E+00
  0.00000000E+00  0.00000000E+00  0.00000000E+00
  0.00000000E+00  0.00000000E+00  0.00000000E+00
  0.00000000E+00  0.00000000E+00  0.00000000E+00
  0.00000000E+00  0.00000000E+00  0.00000000E+00
  0.00000000E+00  0.00000000E+00  0.00000000E+00
  0.00000000E+00  0.00000000E+00  0.00000000E+00
  0.00000000E+00  0.00000000E+00  0.00000000E+00
  0.00000000E+00  0.00000000E+00  0.00000000E+00
  0.00000000E+00  0.00000000E+00  0.00000000E+00
  0.00000000E+00  0.00000000E+00  0.00000000E+00
  0.00000000E+00  0.00000000E+00  0.00000000E+00
  0.00000000E+00  0.00000000E+00  0.00000000E+00
  0.00000000E+00  0.00000000E+00  0.00000000E+00
  0.00000000E+00  0.00000000E+00  0.00000000E+00
  0.00000000E+00  0.00000000E+00  0.00000000E+00
  0.00000000E+00  0.00000000E+00  0.00000000E+00
  0.00000000E+00  0.00000000E+00  0.00000000E+00
  0.00000000E+00  0.00000000E+00  0.00000000E+00
  0.00000000E+00  0.00000000E+00  0.00000000E+00
  0.00000000E+00  0.00000000E+00  0.00000000E+00
  0.00000000E+00  0.00000000E+00  0.00000000E+00
  0.00000000E+00  0.00000000E+00  0.00000000E+00
  0.00000000E+00  0.00000000E+00  0.00000000E+00
  0.00000000E+00  0.00000000E+00  0.00000000E+00
  0.00000000E+00  0.00000000E+00  0.00000000E+00
  0.00000000E+00  0.00000000E+00  0.00000000E+00
  0.00000000E+00  0.00000000E+00  0.00000000E+00
  0.00000000E+00  0.00000000E+00  0.00000000E+00
  0.00000000E+00  0.00000000E+00  0.00000000E+00
  0.00000000E+00  0.00000000E+00  0.00000000E+00
  0.00000000E+00  0.00000000E+00  0.00000000E+00
  0.00000000E+00  0.00000000E+00  0.00000000E+00
  0.00000000E+00  0.00000000E+00  0.00000000E+00
  0.00000000E+00  0.00000000E+00  0.00000000E+00
  0.00000000E+00  0.00000000E+00  0.00000000E+00
  0.00000000E+00  0.00000000E+00  0.00000000E+00
  0.00000000E+00  0.00000000E+00  0.00000000E+00
  0.00000000E+00  0.00000000E+00  0.00000000E+00
  0.00000000E+00  0.00000000E+00  0.00000000E+00
  0.00000000E+00  0.00000000E+00  0.00000000E+00
  0.00000000E+00  0.00000000E+00  0.00000000E+00
  0.00000000E+00  0.00000000E+00  0.00000000E+00
  0.00000000E+00  0.00000000E+00  0.00000000E+00
  0.00000000E+00  0.00000000E+00  0.00000000E+00
  0.00000000E+00  0.00000000E+00  0.00000000E+00
  0.00000000E+00  0.00000000E+00  0.00000000E+00
  0.00000000E+00  0.00000000E+00  0.00000000E+00
  0.00000000E+00  0.00000000E+00  0.00000000E+00
  0.00000000E+00  0.00000000E+00  0.00000000E+00
  0.00000000E+00  0.00000000E+00  0.00000000E+00
  0.00000000E+00  0.00000000E+00  0.00000000E+00
