H2 Au48 C6 Br4                          
    1.000000000000000     
    11.7981859999999994    0.0000000000000000    0.0000000000000000
    -5.8990929999999997   10.2175279999999997    0.0000000000000000
     0.0000000000000000    0.0000000000000000   17.8223039999999990
   H    Au   C    Br
     2    48     6     4
Selective dynamics
Direct
  0.7460296621054070  0.5028812681797277  0.7943682698254335   T   T   T
  0.5026823062037238  0.7462409724703889  0.7946074678934849   T   T   T
  0.0833330000000032  0.1666669999999968  0.3366570000000024   F   F   F
  0.0833330000000032  0.4166669999999968  0.3366570000000024   F   F   F
  0.0833330000000032  0.6666669999999968  0.3366570000000024   F   F   F
  0.0833330000000032  0.9166669999999968  0.3366570000000024   F   F   F
  0.3333330000000032  0.1666669999999968  0.3366570000000024   F   F   F
  0.3333330000000032  0.4166669999999968  0.3366570000000024   F   F   F
  0.3333330000000032  0.6666669999999968  0.3366570000000024   F   F   F
  0.3333330000000032  0.9166669999999968  0.3366570000000024   F   F   F
  0.5833330000000032  0.1666669999999968  0.3366570000000024   F   F   F
  0.5833330000000032  0.4166669999999968  0.3366570000000024   F   F   F
  0.5833330000000032  0.6666669999999968  0.3366570000000024   F   F   F
  0.5833330000000032  0.9166669999999968  0.3366570000000024   F   F   F
  0.8333330000000032  0.1666669999999968  0.3366570000000024   F   F   F
  0.8333330000000032  0.4166669999999968  0.3366570000000024   F   F   F
  0.8333330000000032  0.6666669999999968  0.3366570000000024   F   F   F
  0.8333330000000032  0.9166669999999968  0.3366570000000024   F   F   F
  0.2500080439637813  0.2499074878478780  0.6125764317760698   T   T   T
  0.2499378386787399  0.5001348259114877  0.6119996124589733   T   T   T
  0.2505328428361722  0.7501258053051103  0.6126096843231750   T   T   T
  0.2501079012357366  0.0001102109853122  0.6124122210313772   T   T   T
  0.5002766237193512  0.2496857523549920  0.6120301394995593   T   T   T
  0.5004120564964651  0.5003067386635962  0.6098102116038646   T   T   T
  0.5002035525640238  0.7500143238818779  0.6124855435316050   T   T   T
  0.5001021206695313  0.9996939613532803  0.6126189688178485   T   T   T
  0.7502992095816126  0.2504459224293569  0.6125923929619077   T   T   T
  0.7499550789288989  0.5002593536539450  0.6124605135746464   T   T   T
  0.7499297704046342  0.7498254510095350  0.6098124742294786   T   T   T
  0.7500945790353200  0.0002900681048459  0.6120173622144378   T   T   T
  0.0000802700845384  0.2501303389085976  0.6124458586588375   T   T   T
  0.9997780642672538  0.4999268397143481  0.6125951219071837   T   T   T
  0.0005326162495223  0.7499484008584432  0.6120361531005258   T   T   T
  0.0003089787213710  0.0002126619427614  0.6125802482590856   T   T   T
  0.1667164879707173  0.0834292047099439  0.4746471756300963   T   T   T
  0.1668287248357814  0.3333723032932596  0.4745673964657797   T   T   T
  0.1666044855642212  0.5832593065910956  0.4745956919066998   T   T   T
  0.1669115394977752  0.8333444527935683  0.4745233713632615   T   T   T
  0.4168036900338592  0.0832374243930190  0.4745192425730878   T   T   T
  0.4163864055500426  0.3327754005616654  0.4741551204613330   T   T   T
  0.4166249027231999  0.5837092016388326  0.4740613743911410   T   T   T
  0.4167408351791266  0.8334147446298843  0.4745220183164989   T   T   T
  0.6669056425284055  0.0835594206559946  0.4746010011247179   T   T   T
  0.6668499377765187  0.3334375524756297  0.4746075369502449   T   T   T
  0.6670298091431732  0.5831016771833291  0.4734724816982450   T   T   T
  0.6664434875606062  0.8335256853419537  0.4740672047154249   T   T   T
  0.9167702626270753  0.0833187058540545  0.4745618776196636   T   T   T
  0.9167904260481592  0.3333747308174040  0.4743870157713488   T   T   T
  0.9167051772846833  0.5833040583586069  0.4746031724915696   T   T   T
  0.9173650044391692  0.8337555717413210  0.4741456091135561   T   T   T
  0.6926200777999298  0.5562421692343946  0.7956390247411562   T   T   T
  0.5558560243158794  0.4873450987800254  0.7968609321557949   T   T   T
  0.4871996602783142  0.5560314157011774  0.7969814742809262   T   T   T
  0.5560980226651324  0.6928150487953246  0.7956969591211305   T   T   T
  0.6928177793001140  0.7617182143950814  0.7970188986317339   T   T   T
  0.7614214652172535  0.6929565387714121  0.7968991900801541   T   T   T
  0.4694732649600724  0.3026923470059657  0.7989935292424377   T   T   T
  0.3024615760737035  0.4696429551656180  0.7991363559169713   T   T   T
  0.7792288402403642  0.9464029706927874  0.7992180563663212   T   T   T
  0.9463028717125965  0.7794649967751965  0.7990626760745130   T   T   T
 
  0.00000000E+00  0.00000000E+00  0.00000000E+00
  0.00000000E+00  0.00000000E+00  0.00000000E+00
  0.00000000E+00  0.00000000E+00  0.00000000E+00
  0.00000000E+00  0.00000000E+00  0.00000000E+00
  0.00000000E+00  0.00000000E+00  0.00000000E+00
  0.00000000E+00  0.00000000E+00  0.00000000E+00
  0.00000000E+00  0.00000000E+00  0.00000000E+00
  0.00000000E+00  0.00000000E+00  0.00000000E+00
  0.00000000E+00  0.00000000E+00  0.00000000E+00
  0.00000000E+00  0.00000000E+00  0.00000000E+00
  0.00000000E+00  0.00000000E+00  0.00000000E+00
  0.00000000E+00  0.00000000E+00  0.00000000E+00
  0.00000000E+00  0.00000000E+00  0.00000000E+00
  0.00000000E+00  0.00000000E+00  0.00000000E+00
  0.00000000E+00  0.00000000E+00  0.00000000E+00
  0.00000000E+00  0.00000000E+00  0.00000000E+00
  0.00000000E+00  0.00000000E+00  0.00000000E+00
  0.00000000E+00  0.00000000E+00  0.00000000E+00
  0.00000000E+00  0.00000000E+00  0.00000000E+00
  0.00000000E+00  0.00000000E+00  0.00000000E+00
  0.00000000E+00  0.00000000E+00  0.00000000E+00
  0.00000000E+00  0.00000000E+00  0.00000000E+00
  0.00000000E+00  0.00000000E+00  0.00000000E+00
  0.00000000E+00  0.00000000E+00  0.00000000E+00
  0.00000000E+00  0.00000000E+00  0.00000000E+00
  0.00000000E+00  0.00000000E+00  0.00000000E+00
  0.00000000E+00  0.00000000E+00  0.00000000E+00
  0.00000000E+00  0.00000000E+00  0.00000000E+00
  0.00000000E+00  0.00000000E+00  0.00000000E+00
  0.00000000E+00  0.00000000E+00  0.00000000E+00
  0.00000000E+00  0.00000000E+00  0.00000000E+00
  0.00000000E+00  0.00000000E+00  0.00000000E+00
  0.00000000E+00  0.00000000E+00  0.00000000E+00
  0.00000000E+00  0.00000000E+00  0.00000000E+00
  0.00000000E+00  0.00000000E+00  0.00000000E+00
  0.00000000E+00  0.00000000E+00  0.00000000E+00
  0.00000000E+00  0.00000000E+00  0.00000000E+00
  0.00000000E+00  0.00000000E+00  0.00000000E+00
  0.00000000E+00  0.00000000E+00  0.00000000E+00
  0.00000000E+00  0.00000000E+00  0.00000000E+00
  0.00000000E+00  0.00000000E+00  0.00000000E+00
  0.00000000E+00  0.00000000E+00  0.00000000E+00
  0.00000000E+00  0.00000000E+00  0.00000000E+00
  0.00000000E+00  0.00000000E+00  0.00000000E+00
  0.00000000E+00  0.00000000E+00  0.00000000E+00
  0.00000000E+00  0.00000000E+00  0.00000000E+00
  0.00000000E+00  0.00000000E+00  0.00000000E+00
  0.00000000E+00  0.00000000E+00  0.00000000E+00
  0.00000000E+00  0.00000000E+00  0.00000000E+00
  0.00000000E+00  0.00000000E+00  0.00000000E+00
  0.00000000E+00  0.00000000E+00  0.00000000E+00
  0.00000000E+00  0.00000000E+00  0.00000000E+00
  0.00000000E+00  0.00000000E+00  0.00000000E+00
  0.00000000E+00  0.00000000E+00  0.00000000E+00
  0.00000000E+00  0.00000000E+00  0.00000000E+00
  0.00000000E+00  0.00000000E+00  0.00000000E+00
  0.00000000E+00  0.00000000E+00  0.00000000E+00
  0.00000000E+00  0.00000000E+00  0.00000000E+00
  0.00000000E+00  0.00000000E+00  0.00000000E+00
  0.00000000E+00  0.00000000E+00  0.00000000E+00
