Cu48 C4 N2 F4                           
    1.000000000000000     
    10.2424774999999997    0.0000000000000000    0.0000000000000000
     0.0000000000000000   14.4850505999999992    0.0000000000000000
     0.0000000000000000    0.0000000000000000   15.4644450100000004
   Cu   C    N    F 
    48     4     2     4
Selective dynamics
Direct
  0.2490164365738323  0.2501143177988325  0.4013778737256288   T   T   T
  0.2503195327080050  0.4992667606892383  0.4010021353373716   T   T   T
  0.2508311531005845  0.7493164149371054  0.4021430073527981   T   T   T
  0.2500536798548794  0.9999666949566830  0.4033964953780327   T   T   T
  0.4993988911488856  0.2500837695261353  0.4005459759201813   T   T   T
  0.4999976761026019  0.5000060298388433  0.3982983559195787   T   T   T
  0.5006164335265595  0.7499351054873173  0.4005402262754956   T   T   T
  0.5000189435258164  0.9999760551917731  0.4035139473038427   T   T   T
  0.7491805408576511  0.2506792897264276  0.4021505319374654   T   T   T
  0.7496684283608488  0.5007428256842843  0.4010117656251282   T   T   T
  0.7509432148535851  0.7498896581082661  0.4013815882194010   T   T   T
  0.7499258284041304  0.0000258488532339  0.4033945849260263   T   T   T
  0.9988664622616028  0.2501714414370682  0.4024036861359761   T   T   T
  0.0000060606084133  0.5000047952745206  0.4022372500203275   T   T   T
  0.0011428310973471  0.7498067975567011  0.4024093395234445   T   T   T
  0.0000031799959359  0.0000168555097346  0.4031839019383199   T   T   T
  0.1245504658264238  0.1258427539262073  0.4818837760206378   T   T   T
  0.1229078809501587  0.3747792851862854  0.4816487887728087   T   T   T
  0.1263070457041593  0.6242314111425813  0.4817204190871465   T   T   T
  0.1255629984236037  0.8742731690122838  0.4819381602884789   T   T   T
  0.3745516867751419  0.1265478885882061  0.4816192182377534   T   T   T
  0.3703251840858641  0.3707778776417854  0.4850879374759884   T   T   T
  0.3773759870923499  0.6249717455625401  0.4828887571358180   T   T   T
  0.3755304299774238  0.8735684610488619  0.4816437555289497   T   T   T
  0.6244844333988837  0.1264390587937498  0.4816385080971202   T   T   T
  0.6226317851293572  0.3750176647665313  0.4828918208919362   T   T   T
  0.6296799399310373  0.6292191802709652  0.4850853015721057   T   T   T
  0.6254605156955151  0.8734612267657269  0.4816019968751135   T   T   T
  0.8744262693510763  0.1257371613139142  0.4819009440830797   T   T   T
  0.8736811653050154  0.3757561278580681  0.4817176202164006   T   T   T
  0.8770856983305322  0.6252075961363914  0.4816495860331571   T   T   T
  0.8754364304409066  0.8741685032552553  0.4818987611393837   T   T   T
  0.1250000002440785  0.1249999996548183  0.3233223046004383   F   F   F
  0.1250000002440785  0.3749999989644479  0.3233223046004383   F   F   F
  0.1250000002440785  0.6249999982740846  0.3233223046004383   F   F   F
  0.1250000002440785  0.8749999975837142  0.3233223046004383   F   F   F
  0.3749999997559215  0.1249999996548183  0.3233223046004383   F   F   F
  0.3749999997559215  0.3749999989644479  0.3233223046004383   F   F   F
  0.3749999997559215  0.6249999982740846  0.3233223046004383   F   F   F
  0.3749999997559215  0.8749999975837142  0.3233223046004383   F   F   F
  0.6249999982914289  0.1249999996548183  0.3233223046004383   F   F   F
  0.6249999992677573  0.3749999989644479  0.3233223046004383   F   F   F
  0.6249999992677573  0.6249999982740846  0.3233223046004383   F   F   F
  0.6249999992677573  0.8749999975837142  0.3233223046004383   F   F   F
  0.8749999987795931  0.1249999996548183  0.3233223046004383   F   F   F
  0.8749999978032648  0.3749999989644479  0.3233223046004383   F   F   F
  0.8749999987795931  0.6249999982740846  0.3233223046004383   F   F   F
  0.8749999987795931  0.8749999975837142  0.3233223046004383   F   F   F
  0.5573993638362111  0.4120207185628288  0.6062652373191639   T   T   T
  0.6282021232383528  0.4965334699654136  0.6187956558910130   T   T   T
  0.4426115894969485  0.5879878291934233  0.6062588956592947   T   T   T
  0.3717930297929399  0.5034670188082799  0.6187983244770550   T   T   T
  0.5815073347834883  0.5793685178629175  0.6057021141284906   T   T   T
  0.4185062549504295  0.4206345266241414  0.6057047581615720   T   T   T
  0.2417967013164031  0.5102880462034420  0.6327417611477060   T   T   T
  0.4043529636845022  0.6622161266083637  0.6581315616859840   T   T   T
  0.5956418089390070  0.3378045967037977  0.6581315493196485   T   T   T
  0.7581860551066342  0.4897236009379284  0.6327253917296787   T   T   T
 
  0.00000000E+00  0.00000000E+00  0.00000000E+00
  0.00000000E+00  0.00000000E+00  0.00000000E+00
  0.00000000E+00  0.00000000E+00  0.00000000E+00
  0.00000000E+00  0.00000000E+00  0.00000000E+00
  0.00000000E+00  0.00000000E+00  0.00000000E+00
  0.00000000E+00  0.00000000E+00  0.00000000E+00
  0.00000000E+00  0.00000000E+00  0.00000000E+00
  0.00000000E+00  0.00000000E+00  0.00000000E+00
  0.00000000E+00  0.00000000E+00  0.00000000E+00
  0.00000000E+00  0.00000000E+00  0.00000000E+00
  0.00000000E+00  0.00000000E+00  0.00000000E+00
  0.00000000E+00  0.00000000E+00  0.00000000E+00
  0.00000000E+00  0.00000000E+00  0.00000000E+00
  0.00000000E+00  0.00000000E+00  0.00000000E+00
  0.00000000E+00  0.00000000E+00  0.00000000E+00
  0.00000000E+00  0.00000000E+00  0.00000000E+00
  0.00000000E+00  0.00000000E+00  0.00000000E+00
  0.00000000E+00  0.00000000E+00  0.00000000E+00
  0.00000000E+00  0.00000000E+00  0.00000000E+00
  0.00000000E+00  0.00000000E+00  0.00000000E+00
  0.00000000E+00  0.00000000E+00  0.00000000E+00
  0.00000000E+00  0.00000000E+00  0.00000000E+00
  0.00000000E+00  0.00000000E+00  0.00000000E+00
  0.00000000E+00  0.00000000E+00  0.00000000E+00
  0.00000000E+00  0.00000000E+00  0.00000000E+00
  0.00000000E+00  0.00000000E+00  0.00000000E+00
  0.00000000E+00  0.00000000E+00  0.00000000E+00
  0.00000000E+00  0.00000000E+00  0.00000000E+00
  0.00000000E+00  0.00000000E+00  0.00000000E+00
  0.00000000E+00  0.00000000E+00  0.00000000E+00
  0.00000000E+00  0.00000000E+00  0.00000000E+00
  0.00000000E+00  0.00000000E+00  0.00000000E+00
  0.00000000E+00  0.00000000E+00  0.00000000E+00
  0.00000000E+00  0.00000000E+00  0.00000000E+00
  0.00000000E+00  0.00000000E+00  0.00000000E+00
  0.00000000E+00  0.00000000E+00  0.00000000E+00
  0.00000000E+00  0.00000000E+00  0.00000000E+00
  0.00000000E+00  0.00000000E+00  0.00000000E+00
  0.00000000E+00  0.00000000E+00  0.00000000E+00
  0.00000000E+00  0.00000000E+00  0.00000000E+00
  0.00000000E+00  0.00000000E+00  0.00000000E+00
  0.00000000E+00  0.00000000E+00  0.00000000E+00
  0.00000000E+00  0.00000000E+00  0.00000000E+00
  0.00000000E+00  0.00000000E+00  0.00000000E+00
  0.00000000E+00  0.00000000E+00  0.00000000E+00
  0.00000000E+00  0.00000000E+00  0.00000000E+00
  0.00000000E+00  0.00000000E+00  0.00000000E+00
  0.00000000E+00  0.00000000E+00  0.00000000E+00
  0.00000000E+00  0.00000000E+00  0.00000000E+00
  0.00000000E+00  0.00000000E+00  0.00000000E+00
  0.00000000E+00  0.00000000E+00  0.00000000E+00
  0.00000000E+00  0.00000000E+00  0.00000000E+00
  0.00000000E+00  0.00000000E+00  0.00000000E+00
  0.00000000E+00  0.00000000E+00  0.00000000E+00
  0.00000000E+00  0.00000000E+00  0.00000000E+00
  0.00000000E+00  0.00000000E+00  0.00000000E+00
  0.00000000E+00  0.00000000E+00  0.00000000E+00
  0.00000000E+00  0.00000000E+00  0.00000000E+00
