Pt48 C6 Br2 H4                          
    1.000000000000000     
    11.2480068000000006    0.0000000000000000    0.0000000000000000
     0.0000000000000000   15.9070838000000006    0.0000000000000000
     0.0000000000000000    0.0000000000000000   15.6777274200000001
   Pt   C    Br   H 
    48     6     2     4
Selective dynamics
Direct
  0.2503670679388676  0.2518763940131095  0.4023067548764629   T   T   T
  0.2448627194837556  0.5003275856800187  0.3988178455135483   T   T   T
  0.2528399127924672  0.7461192376908699  0.4063937992728768   T   T   T
  0.2507521176012162  0.0001409974678808  0.4041159958790175   T   T   T
  0.5001902914320766  0.2532628945846014  0.4062086334472568   T   T   T
  0.5000092893920467  0.5000128279471738  0.3865019937982623   T   T   T
  0.4997668736827876  0.7467094079759278  0.4061983929253046   T   T   T
  0.4999539817156560  0.0000335411426562  0.4043655831533357   T   T   T
  0.7471351169811271  0.2539022317862418  0.4064238125402611   T   T   T
  0.7551245130367903  0.4996527119718337  0.3988509661011577   T   T   T
  0.7497063335803702  0.7481108666584646  0.4022982306245240   T   T   T
  0.7493004453278616  0.9998931331133818  0.4040714581843758   T   T   T
  0.9987895833381444  0.2517305602852815  0.4040603799634539   T   T   T
  0.0000095499091586  0.4999935671915523  0.4043838542380342   T   T   T
  0.0012124519615000  0.7482837172997634  0.4040856266157462   T   T   T
  0.0000025127925696  0.9999985459860596  0.4023738168722630   T   T   T
  0.1244564443544860  0.1264042789941300  0.4883281066855005   T   T   T
  0.1231626850616578  0.3753686186479896  0.4914566998969292   T   T   T
  0.1269178255566032  0.6238043002174010  0.4915321457979687   T   T   T
  0.1262978688675460  0.8736642797335747  0.4876193079480515   T   T   T
  0.3749866155791963  0.1273337286135785  0.4884068095046743   T   T   T
  0.3722788465414197  0.3854109249344617  0.4883690766271300   T   T   T
  0.3802082800766300  0.6101492901124246  0.4956796127308749   T   T   T
  0.3756360479880669  0.8731425910396382  0.4887412804223175   T   T   T
  0.6243659823307155  0.1268956867629214  0.4887697431234841   T   T   T
  0.6197994028224016  0.3898126201415408  0.4956872889544996   T   T   T
  0.6276955727686229  0.6145441254885000  0.4883752627428635   T   T   T
  0.6249934572643454  0.8726948942404249  0.4882747699355932   T   T   T
  0.8737369827290280  0.1263656482901112  0.4877174711645083   T   T   T
  0.8730949798917038  0.3761609052894812  0.4915495466093347   T   T   T
  0.8768652751938717  0.6246136583213442  0.4915121026626466   T   T   T
  0.8755430356644993  0.8736534849394459  0.4882870791069749   T   T   T
  0.1250000000000000  0.1250000003143228  0.3189237742213535   F   F   F
  0.1250000000000000  0.3750000003143228  0.3189237742213535   F   F   F
  0.1250000008890453  0.6250000009429755  0.3189237742213535   F   F   F
  0.1250000008890453  0.8750000009429755  0.3189237742213535   F   F   F
  0.3750000008890453  0.1250000003143228  0.3189237742213535   F   F   F
  0.3750000008890453  0.3750000003143228  0.3189237742213535   F   F   F
  0.3750000008890453  0.6250000009429755  0.3189237742213535   F   F   F
  0.3750000008890453  0.8750000009429755  0.3189237742213535   F   F   F
  0.6250000017780906  0.1250000003143228  0.3189237742213535   F   F   F
  0.6250000017780906  0.3750000003143228  0.3189237742213535   F   F   F
  0.6250000017780906  0.6250000009429755  0.3189237742213535   F   F   F
  0.6250000026671358  0.8750000009429755  0.3189237742213535   F   F   F
  0.8750000026671358  0.1250000003143228  0.3189237742213535   F   F   F
  0.8750000026671358  0.3750000003143228  0.3189237742213535   F   F   F
  0.8750000035561882  0.6250000009429755  0.3189237742213535   F   F   F
  0.8750000026671358  0.8750000009429755  0.3189237742213535   F   F   F
  0.4015893421160328  0.4374733045632624  0.6044913287259135   T   T   T
  0.3767929754044417  0.5303188380980686  0.6096079366291249   T   T   T
  0.4723303809796136  0.5893690210643001  0.6170574630983268   T   T   T
  0.5983611835417051  0.5625028393740976  0.6044852340262210   T   T   T
  0.6232039566912775  0.4697405598154063  0.6095993219041063   T   T   T
  0.5275947764982902  0.4105831371419768  0.6170796836664749   T   T   T
  0.2927227362008580  0.3778868690885631  0.6857725427800858   T   T   T
  0.7072022840420331  0.6220974204316931  0.6857549251362514   T   T   T
  0.2914308229828109  0.5462103122034634  0.6385464032779780   T   T   T
  0.4587618067926797  0.6475962954445365  0.6526209823144242   T   T   T
  0.7085209494409028  0.4537579413202906  0.6385607630160735   T   T   T
  0.5411970368551593  0.3523700174936764  0.6526627642537335   T   T   T
 
  0.00000000E+00  0.00000000E+00  0.00000000E+00
  0.00000000E+00  0.00000000E+00  0.00000000E+00
  0.00000000E+00  0.00000000E+00  0.00000000E+00
  0.00000000E+00  0.00000000E+00  0.00000000E+00
  0.00000000E+00  0.00000000E+00  0.00000000E+00
  0.00000000E+00  0.00000000E+00  0.00000000E+00
  0.00000000E+00  0.00000000E+00  0.00000000E+00
  0.00000000E+00  0.00000000E+00  0.00000000E+00
  0.00000000E+00  0.00000000E+00  0.00000000E+00
  0.00000000E+00  0.00000000E+00  0.00000000E+00
  0.00000000E+00  0.00000000E+00  0.00000000E+00
  0.00000000E+00  0.00000000E+00  0.00000000E+00
  0.00000000E+00  0.00000000E+00  0.00000000E+00
  0.00000000E+00  0.00000000E+00  0.00000000E+00
  0.00000000E+00  0.00000000E+00  0.00000000E+00
  0.00000000E+00  0.00000000E+00  0.00000000E+00
  0.00000000E+00  0.00000000E+00  0.00000000E+00
  0.00000000E+00  0.00000000E+00  0.00000000E+00
  0.00000000E+00  0.00000000E+00  0.00000000E+00
  0.00000000E+00  0.00000000E+00  0.00000000E+00
  0.00000000E+00  0.00000000E+00  0.00000000E+00
  0.00000000E+00  0.00000000E+00  0.00000000E+00
  0.00000000E+00  0.00000000E+00  0.00000000E+00
  0.00000000E+00  0.00000000E+00  0.00000000E+00
  0.00000000E+00  0.00000000E+00  0.00000000E+00
  0.00000000E+00  0.00000000E+00  0.00000000E+00
  0.00000000E+00  0.00000000E+00  0.00000000E+00
  0.00000000E+00  0.00000000E+00  0.00000000E+00
  0.00000000E+00  0.00000000E+00  0.00000000E+00
  0.00000000E+00  0.00000000E+00  0.00000000E+00
  0.00000000E+00  0.00000000E+00  0.00000000E+00
  0.00000000E+00  0.00000000E+00  0.00000000E+00
  0.00000000E+00  0.00000000E+00  0.00000000E+00
  0.00000000E+00  0.00000000E+00  0.00000000E+00
  0.00000000E+00  0.00000000E+00  0.00000000E+00
  0.00000000E+00  0.00000000E+00  0.00000000E+00
  0.00000000E+00  0.00000000E+00  0.00000000E+00
  0.00000000E+00  0.00000000E+00  0.00000000E+00
  0.00000000E+00  0.00000000E+00  0.00000000E+00
  0.00000000E+00  0.00000000E+00  0.00000000E+00
  0.00000000E+00  0.00000000E+00  0.00000000E+00
  0.00000000E+00  0.00000000E+00  0.00000000E+00
  0.00000000E+00  0.00000000E+00  0.00000000E+00
  0.00000000E+00  0.00000000E+00  0.00000000E+00
  0.00000000E+00  0.00000000E+00  0.00000000E+00
  0.00000000E+00  0.00000000E+00  0.00000000E+00
  0.00000000E+00  0.00000000E+00  0.00000000E+00
  0.00000000E+00  0.00000000E+00  0.00000000E+00
  0.00000000E+00  0.00000000E+00  0.00000000E+00
  0.00000000E+00  0.00000000E+00  0.00000000E+00
  0.00000000E+00  0.00000000E+00  0.00000000E+00
  0.00000000E+00  0.00000000E+00  0.00000000E+00
  0.00000000E+00  0.00000000E+00  0.00000000E+00
  0.00000000E+00  0.00000000E+00  0.00000000E+00
  0.00000000E+00  0.00000000E+00  0.00000000E+00
  0.00000000E+00  0.00000000E+00  0.00000000E+00
  0.00000000E+00  0.00000000E+00  0.00000000E+00
  0.00000000E+00  0.00000000E+00  0.00000000E+00
  0.00000000E+00  0.00000000E+00  0.00000000E+00
  0.00000000E+00  0.00000000E+00  0.00000000E+00
