Pt48 C4 N2 F4                           
    1.000000000000000     
    11.2480069999999994    0.0000000000000000    0.0000000000000000
    -5.6240030000000001    9.7410599999999992    0.0000000000000000
     0.0000000000000000    0.0000000000000000   16.5919799999999995
   Pt   C    N    F 
    48     4     2     4
Selective dynamics
Direct
  0.0833330000000032  0.1666669999999968  0.3616209999999995   F   F   F
  0.0833330000000032  0.4166669999999968  0.3616209999999995   F   F   F
  0.0833330000000032  0.6666669999999968  0.3616209999999995   F   F   F
  0.0833330000000032  0.9166669999999968  0.3616209999999995   F   F   F
  0.3333330000000032  0.1666669999999968  0.3616209999999995   F   F   F
  0.3333330000000032  0.4166669999999968  0.3616209999999995   F   F   F
  0.3333330000000032  0.6666669999999968  0.3616209999999995   F   F   F
  0.3333330000000032  0.9166669999999968  0.3616209999999995   F   F   F
  0.5833330000000032  0.1666669999999968  0.3616209999999995   F   F   F
  0.5833330000000032  0.4166669999999968  0.3616209999999995   F   F   F
  0.5833330000000032  0.6666669999999968  0.3616209999999995   F   F   F
  0.5833330000000032  0.9166669999999968  0.3616209999999995   F   F   F
  0.8333330000000032  0.1666669999999968  0.3616209999999995   F   F   F
  0.8333330000000032  0.4166669999999968  0.3616209999999995   F   F   F
  0.8333330000000032  0.6666669999999968  0.3616209999999995   F   F   F
  0.8333330000000032  0.9166669999999968  0.3616209999999995   F   F   F
  0.2443384547908138  0.2446528906468615  0.6412761299076593   T   T   T
  0.2418128277964655  0.4973744343069342  0.6390672910787387   T   T   T
  0.2496071198163392  0.7493047443169516  0.6421314108479308   T   T   T
  0.2510477119784653  0.9989541948638632  0.6415935961679011   T   T   T
  0.4968563858114692  0.2427089211277931  0.6388783239611939   T   T   T
  0.4879058633376445  0.4890043659812449  0.6466496369457815   T   T   T
  0.4992368710141406  0.7507640334430050  0.6491398304474671   T   T   T
  0.5006898089714085  0.0003929489231354  0.6421349927977573   T   T   T
  0.7498484588660119  0.2510696211090035  0.6422030396503615   T   T   T
  0.7488626359059509  0.5011293819409985  0.6481675929976092   T   T   T
  0.7609904917906789  0.7620848846729871  0.6466481070430987   T   T   T
  0.7526189908560923  0.0081794379671365  0.6390594042660425   T   T   T
  0.9986100918555465  0.2513844897624580  0.6420740779398244   T   T   T
  0.9989267981084708  0.5001455898276674  0.6422072974385031   T   T   T
  0.0072874726072101  0.7531398585980611  0.6388721749064956   T   T   T
  0.0053456424652367  0.0056573091537118  0.6412750840466330   T   T   T
  0.1680016684443544  0.0819907300782319  0.5001434678598073   T   T   T
  0.1667047239136821  0.3325622952199510  0.5005940246324414   T   T   T
  0.1656349795414442  0.5836231594980958  0.5001656575287043   T   T   T
  0.1681617421304935  0.8328411436823302  0.4997253699304522   T   T   T
  0.4171566653050007  0.0818363428011182  0.4997269175460346   T   T   T
  0.4169936762862605  0.3345199697179240  0.5026211417852764   T   T   T
  0.4173460177237942  0.5832169118459305  0.5040352220030542   T   T   T
  0.4192434117713688  0.8307531072074639  0.5051991066300516   T   T   T
  0.6663736065154069  0.0843623262340572  0.5001624012734709   T   T   T
  0.6671646882552906  0.3359919087675678  0.5032898857922703   T   T   T
  0.6657077020682323  0.5842918313653200  0.5048842213213192   T   T   T
  0.6667791903890148  0.8326451986978469  0.5040302327768913   T   T   T
  0.9174407366874249  0.0832924732298750  0.5005900031095791   T   T   T
  0.9165293584018386  0.3334732235516853  0.5012685599062934   T   T   T
  0.9140016913973525  0.5828307421481753  0.5032888762093819   T   T   T
  0.9154733143347542  0.8330011627661236  0.5026152378671469   T   T   T
  0.4849837437405498  0.5601130780395067  0.7678279919371960   T   T   T
  0.5593366510330924  0.4854592032144041  0.7676737028490876   T   T   T
  0.7645366443984614  0.6906490984719937  0.7676779276073944   T   T   T
  0.6898929832738361  0.7650140843770075  0.7678269675325922   T   T   T
  0.7014610768107943  0.5485272226175297  0.7657144619611955   T   T   T
  0.5479448091463226  0.7020789613698497  0.7661498483470339   T   T   T
  0.7516404579056513  0.8895862730662500  0.8043892123284095   T   T   T
  0.8889344461807056  0.7518643106562948  0.8045140786834111   T   T   T
  0.3604105843475267  0.4983789610986946  0.8044025292729060   T   T   T
  0.4981153165991259  0.3610659911886316  0.8045241652737687   T   T   T
 
  0.00000000E+00  0.00000000E+00  0.00000000E+00
  0.00000000E+00  0.00000000E+00  0.00000000E+00
  0.00000000E+00  0.00000000E+00  0.00000000E+00
  0.00000000E+00  0.00000000E+00  0.00000000E+00
  0.00000000E+00  0.00000000E+00  0.00000000E+00
  0.00000000E+00  0.00000000E+00  0.00000000E+00
  0.00000000E+00  0.00000000E+00  0.00000000E+00
  0.00000000E+00  0.00000000E+00  0.00000000E+00
  0.00000000E+00  0.00000000E+00  0.00000000E+00
  0.00000000E+00  0.00000000E+00  0.00000000E+00
  0.00000000E+00  0.00000000E+00  0.00000000E+00
  0.00000000E+00  0.00000000E+00  0.00000000E+00
  0.00000000E+00  0.00000000E+00  0.00000000E+00
  0.00000000E+00  0.00000000E+00  0.00000000E+00
  0.00000000E+00  0.00000000E+00  0.00000000E+00
  0.00000000E+00  0.00000000E+00  0.00000000E+00
  0.00000000E+00  0.00000000E+00  0.00000000E+00
  0.00000000E+00  0.00000000E+00  0.00000000E+00
  0.00000000E+00  0.00000000E+00  0.00000000E+00
  0.00000000E+00  0.00000000E+00  0.00000000E+00
  0.00000000E+00  0.00000000E+00  0.00000000E+00
  0.00000000E+00  0.00000000E+00  0.00000000E+00
  0.00000000E+00  0.00000000E+00  0.00000000E+00
  0.00000000E+00  0.00000000E+00  0.00000000E+00
  0.00000000E+00  0.00000000E+00  0.00000000E+00
  0.00000000E+00  0.00000000E+00  0.00000000E+00
  0.00000000E+00  0.00000000E+00  0.00000000E+00
  0.00000000E+00  0.00000000E+00  0.00000000E+00
  0.00000000E+00  0.00000000E+00  0.00000000E+00
  0.00000000E+00  0.00000000E+00  0.00000000E+00
  0.00000000E+00  0.00000000E+00  0.00000000E+00
  0.00000000E+00  0.00000000E+00  0.00000000E+00
  0.00000000E+00  0.00000000E+00  0.00000000E+00
  0.00000000E+00  0.00000000E+00  0.00000000E+00
  0.00000000E+00  0.00000000E+00  0.00000000E+00
  0.00000000E+00  0.00000000E+00  0.00000000E+00
  0.00000000E+00  0.00000000E+00  0.00000000E+00
  0.00000000E+00  0.00000000E+00  0.00000000E+00
  0.00000000E+00  0.00000000E+00  0.00000000E+00
  0.00000000E+00  0.00000000E+00  0.00000000E+00
  0.00000000E+00  0.00000000E+00  0.00000000E+00
  0.00000000E+00  0.00000000E+00  0.00000000E+00
  0.00000000E+00  0.00000000E+00  0.00000000E+00
  0.00000000E+00  0.00000000E+00  0.00000000E+00
  0.00000000E+00  0.00000000E+00  0.00000000E+00
  0.00000000E+00  0.00000000E+00  0.00000000E+00
  0.00000000E+00  0.00000000E+00  0.00000000E+00
  0.00000000E+00  0.00000000E+00  0.00000000E+00
  0.00000000E+00  0.00000000E+00  0.00000000E+00
  0.00000000E+00  0.00000000E+00  0.00000000E+00
  0.00000000E+00  0.00000000E+00  0.00000000E+00
  0.00000000E+00  0.00000000E+00  0.00000000E+00
  0.00000000E+00  0.00000000E+00  0.00000000E+00
  0.00000000E+00  0.00000000E+00  0.00000000E+00
  0.00000000E+00  0.00000000E+00  0.00000000E+00
  0.00000000E+00  0.00000000E+00  0.00000000E+00
  0.00000000E+00  0.00000000E+00  0.00000000E+00
  0.00000000E+00  0.00000000E+00  0.00000000E+00
