Pt48 C6 Br6                             
    1.000000000000000     
    11.2480069999999994    0.0000000000000000    0.0000000000000000
    -5.6240030000000001    9.7410599999999992    0.0000000000000000
     0.0000000000000000    0.0000000000000000   17.5933840000000004
   Pt   C    Br
    48     6     6
Selective dynamics
Direct
  0.0833330000000032  0.1666669999999968  0.3410370000000000   F   F   F
  0.0833330000000032  0.4166669999999968  0.3410370000000000   F   F   F
  0.0833330000000032  0.6666669999999968  0.3410370000000000   F   F   F
  0.0833330000000032  0.9166669999999968  0.3410370000000000   F   F   F
  0.3333330000000032  0.1666669999999968  0.3410370000000000   F   F   F
  0.3333330000000032  0.4166669999999968  0.3410370000000000   F   F   F
  0.3333330000000032  0.6666669999999968  0.3410370000000000   F   F   F
  0.3333330000000032  0.9166669999999968  0.3410370000000000   F   F   F
  0.5833330000000032  0.1666669999999968  0.3410370000000000   F   F   F
  0.5833330000000032  0.4166669999999968  0.3410370000000000   F   F   F
  0.5833330000000032  0.6666669999999968  0.3410370000000000   F   F   F
  0.5833330000000032  0.9166669999999968  0.3410370000000000   F   F   F
  0.8333330000000032  0.1666669999999968  0.3410370000000000   F   F   F
  0.8333330000000032  0.4166669999999968  0.3410370000000000   F   F   F
  0.8333330000000032  0.6666669999999968  0.3410370000000000   F   F   F
  0.8333330000000032  0.9166669999999968  0.3410370000000000   F   F   F
  0.2494727332325510  0.2500054610578601  0.6055059022146523   T   T   T
  0.2496412291250607  0.5003356192156190  0.6069153356567369   T   T   T
  0.2496391850245274  0.7504594862590253  0.6063619028435667   T   T   T
  0.2496711224020913  0.0003594576310348  0.6063548792482720   T   T   T
  0.4999286868197359  0.2498524353231844  0.6068687447143688   T   T   T
  0.5002413934428276  0.5006804789066450  0.6027330038323910   T   T   T
  0.4994650890171570  0.7505642423985606  0.6038361400258765   T   T   T
  0.4995730675964793  0.0003941817229673  0.6063439174226630   T   T   T
  0.7501030653789016  0.2503212932635321  0.6062184698759836   T   T   T
  0.7497494870288008  0.5002741535367861  0.6039441344363823   T   T   T
  0.7493416985728132  0.7497883774937151  0.6027495890692549   T   T   T
  0.7496987452833821  0.0004019216709708  0.6069160006026380   T   T   T
  0.9996444966919498  0.2503554635371472  0.6060422358028461   T   T   T
  0.9996946993109077  0.4999249073534813  0.6062143403838149   T   T   T
  0.0001708616758407  0.7501002360456397  0.6069064347654347   T   T   T
  0.0000189795861161  0.0005635077791339  0.6055081690727704   T   T   T
  0.1665575738466103  0.0834650045703356  0.4733000166248118   T   T   T
  0.1664842627757537  0.3335556419796504  0.4733128089431844   T   T   T
  0.1667512077631415  0.5829749289220914  0.4738618958855056   T   T   T
  0.1669625422973624  0.8337616259529597  0.4736887834857555   T   T   T
  0.4162397085686607  0.0830395663580532  0.4736729378441282   T   T   T
  0.4162676906282314  0.3324841337828630  0.4728807001935991   T   T   T
  0.4155990768446713  0.5833400156590827  0.4723991675031129   T   T   T
  0.4158854670437790  0.8341190399240475  0.4730304742745872   T   T   T
  0.6670756873597767  0.0832908821928271  0.4738715220979159   T   T   T
  0.6660547359186069  0.3325628383144235  0.4731360549536205   T   T   T
  0.6669724951653322  0.5830462967369741  0.4715304009332257   T   T   T
  0.6666832928037891  0.8344221750300207  0.4724020801306352   T   T   T
  0.9164444260963407  0.0835299370759017  0.4733147046036663   T   T   T
  0.9163864377217692  0.3335869449378279  0.4735040859579769   T   T   T
  0.9174468126284978  0.5839820864394270  0.4731356461694816   T   T   T
  0.9175243897966965  0.8337356513852825  0.4728856702699460   T   T   T
  0.6968955290215320  0.7695542229233965  0.7863081683372855   T   T   T
  0.7691632567745401  0.6971260691278829  0.7864310585113543   T   T   T
  0.6971384570116896  0.5527721462831252  0.7886142446923756   T   T   T
  0.5527429915443065  0.4807907598086771  0.7864521655008403   T   T   T
  0.4803514160179319  0.5530666873596530  0.7863065665721720   T   T   T
  0.5525130154067242  0.6974713420333316  0.7883029280732927   T   T   T
  0.7930496268763605  0.9631912398025335  0.7809408896163248   T   T   T
  0.9628966732692703  0.7934122845714455  0.7807901597446545   T   T   T
  0.7938388443014048  0.4559465757488823  0.7899859548251698   T   T   T
  0.4563267822661317  0.2869386571864112  0.7808560166747753   T   T   T
  0.2866985113828875  0.4569679596943530  0.7809087603587344   T   T   T
  0.4557566774665887  0.7942658151523290  0.7894077352127553   T   T   T
 
  0.00000000E+00  0.00000000E+00  0.00000000E+00
  0.00000000E+00  0.00000000E+00  0.00000000E+00
  0.00000000E+00  0.00000000E+00  0.00000000E+00
  0.00000000E+00  0.00000000E+00  0.00000000E+00
  0.00000000E+00  0.00000000E+00  0.00000000E+00
  0.00000000E+00  0.00000000E+00  0.00000000E+00
  0.00000000E+00  0.00000000E+00  0.00000000E+00
  0.00000000E+00  0.00000000E+00  0.00000000E+00
  0.00000000E+00  0.00000000E+00  0.00000000E+00
  0.00000000E+00  0.00000000E+00  0.00000000E+00
  0.00000000E+00  0.00000000E+00  0.00000000E+00
  0.00000000E+00  0.00000000E+00  0.00000000E+00
  0.00000000E+00  0.00000000E+00  0.00000000E+00
  0.00000000E+00  0.00000000E+00  0.00000000E+00
  0.00000000E+00  0.00000000E+00  0.00000000E+00
  0.00000000E+00  0.00000000E+00  0.00000000E+00
  0.00000000E+00  0.00000000E+00  0.00000000E+00
  0.00000000E+00  0.00000000E+00  0.00000000E+00
  0.00000000E+00  0.00000000E+00  0.00000000E+00
  0.00000000E+00  0.00000000E+00  0.00000000E+00
  0.00000000E+00  0.00000000E+00  0.00000000E+00
  0.00000000E+00  0.00000000E+00  0.00000000E+00
  0.00000000E+00  0.00000000E+00  0.00000000E+00
  0.00000000E+00  0.00000000E+00  0.00000000E+00
  0.00000000E+00  0.00000000E+00  0.00000000E+00
  0.00000000E+00  0.00000000E+00  0.00000000E+00
  0.00000000E+00  0.00000000E+00  0.00000000E+00
  0.00000000E+00  0.00000000E+00  0.00000000E+00
  0.00000000E+00  0.00000000E+00  0.00000000E+00
  0.00000000E+00  0.00000000E+00  0.00000000E+00
  0.00000000E+00  0.00000000E+00  0.00000000E+00
  0.00000000E+00  0.00000000E+00  0.00000000E+00
  0.00000000E+00  0.00000000E+00  0.00000000E+00
  0.00000000E+00  0.00000000E+00  0.00000000E+00
  0.00000000E+00  0.00000000E+00  0.00000000E+00
  0.00000000E+00  0.00000000E+00  0.00000000E+00
  0.00000000E+00  0.00000000E+00  0.00000000E+00
  0.00000000E+00  0.00000000E+00  0.00000000E+00
  0.00000000E+00  0.00000000E+00  0.00000000E+00
  0.00000000E+00  0.00000000E+00  0.00000000E+00
  0.00000000E+00  0.00000000E+00  0.00000000E+00
  0.00000000E+00  0.00000000E+00  0.00000000E+00
  0.00000000E+00  0.00000000E+00  0.00000000E+00
  0.00000000E+00  0.00000000E+00  0.00000000E+00
  0.00000000E+00  0.00000000E+00  0.00000000E+00
  0.00000000E+00  0.00000000E+00  0.00000000E+00
  0.00000000E+00  0.00000000E+00  0.00000000E+00
  0.00000000E+00  0.00000000E+00  0.00000000E+00
  0.00000000E+00  0.00000000E+00  0.00000000E+00
  0.00000000E+00  0.00000000E+00  0.00000000E+00
  0.00000000E+00  0.00000000E+00  0.00000000E+00
  0.00000000E+00  0.00000000E+00  0.00000000E+00
  0.00000000E+00  0.00000000E+00  0.00000000E+00
  0.00000000E+00  0.00000000E+00  0.00000000E+00
  0.00000000E+00  0.00000000E+00  0.00000000E+00
  0.00000000E+00  0.00000000E+00  0.00000000E+00
  0.00000000E+00  0.00000000E+00  0.00000000E+00
  0.00000000E+00  0.00000000E+00  0.00000000E+00
  0.00000000E+00  0.00000000E+00  0.00000000E+00
  0.00000000E+00  0.00000000E+00  0.00000000E+00
