Ag  C  H Br                             
    1.000000000000000     
    11.7702790000000004    0.0000000000000000    0.0000000000000000
     0.0000000000000000   11.7702790000000004    0.0000000000000000
     0.0000000000000000    0.0000000000000000   24.2421330600000005
   Ag   C    H    Br
    64     6     2     4
Selective dynamics
Direct
  0.0000000000000000  0.2499999991504041  0.3093787160328390   F   F   F
  0.7499999974512050  0.7499999974512050  0.3093787160328390   F   F   F
  0.0000000000000000  0.4999999983008081  0.3093787160328390   F   F   F
  0.0000000000000000  0.7499999974512050  0.3093787160328390   F   F   F
  0.0000000000000000  0.0000000000000000  0.3093787160328390   F   F   F
  0.2499999991504041  0.2499999991504041  0.3093787160328390   F   F   F
  0.2499999991504041  0.4999999983008081  0.3093787160328390   F   F   F
  0.7499999974512050  0.0000000000000000  0.3093787160328390   F   F   F
  0.2499999991504041  0.7499999974512050  0.3093787160328390   F   F   F
  0.2499999991504041  0.0000000000000000  0.3093787160328390   F   F   F
  0.4999999983008081  0.2499999991504041  0.3093787160328390   F   F   F
  0.4999999983008081  0.4999999983008081  0.3093787160328390   F   F   F
  0.4999999983008081  0.7499999974512050  0.3093787160328390   F   F   F
  0.4999999983008081  0.0000000000000000  0.3093787160328390   F   F   F
  0.7499999974512050  0.2499999991504041  0.3093787160328390   F   F   F
  0.7499999974512050  0.4999999983008081  0.3093787160328390   F   F   F
  0.0001358943682338  0.2498763811196951  0.4740477097634679   T   T   T
  0.9999975351363091  0.4999918042379641  0.4741157240901390   T   T   T
  0.9998612254074042  0.7501220980660521  0.4740458997038464   T   T   T
  0.9999992296458194  0.0000007423439567  0.4740893147025705   T   T   T
  0.2497829205237996  0.2497789585140875  0.4740882230507222   T   T   T
  0.2493316386884276  0.4998690896237729  0.4737575869069373   T   T   T
  0.2495448622032747  0.7504599267723829  0.4738923616518834   T   T   T
  0.2498799081294629  0.0001369918901696  0.4740467325965410   T   T   T
  0.4998828288473107  0.2493206437018078  0.4737616974405499   T   T   T
  0.5000043744232242  0.4999944771020677  0.4736595732307710   T   T   T
  0.5001271411577843  0.7506741720912399  0.4737626454199158   T   T   T
  0.5000035782219387 -0.0000000477852184  0.4741193993384213   T   T   T
  0.7504595968218787  0.2495358105009042  0.4738985845178172   T   T   T
  0.7506789036401931  0.5001143869291852  0.4737619605811313   T   T   T
  0.7502199580728872  0.7502185196246305  0.4740899855987484   T   T   T
  0.7501182804216648  0.9998662002440180  0.4740504954875076   T   T   T
  0.1250632032409602  0.1250560789860698  0.5525134236688529   T   T   T
  0.1248960316429844  0.3748031749754981  0.5524434388113875   T   T   T
  0.1246020358842511  0.6252255703983927  0.5520918158821078   T   T   T
  0.1246840778507851  0.8753119494480612  0.5522774027993440   T   T   T
  0.3748051290843207  0.1248865022544782  0.5524453356499963   T   T   T
  0.3750003115523981  0.3749758467609961  0.5513865017330336   T   T   T
  0.3748830446133677  0.6251167712073967  0.5507570259289761   T   T   T
  0.3747715777990466  0.8753905265534939  0.5521007336377657   T   T   T
  0.6252293325058718  0.1246004789232841  0.5521043099309807   T   T   T
  0.6251233788934079  0.3748776336652363  0.5507649090571199   T   T   T
  0.6250237627264863  0.6249987702184289  0.5513867134955568   T   T   T
  0.6251966918337721  0.8751025965643487  0.5524495834935090   T   T   T
  0.8753216349258025  0.1246754262869904  0.5522765544884256   T   T   T
  0.8754020648280028  0.3747629011916340  0.5521015824363678   T   T   T
  0.8751137132421261  0.6251908836752063  0.5524480580598142   T   T   T
  0.8749425190961370  0.8749368198743502  0.5525194604322125   T   T   T
  0.1249999995752020  0.1249999995752020  0.3952090765398992   F   F   F
  0.1249999995752020  0.3749999987256061  0.3952090765398992   F   F   F
  0.1249999995752020  0.6249999978760030  0.3952090765398992   F   F   F
  0.1249999995752020  0.8749999970264071  0.3952090765398992   F   F   F
  0.3749999987256061  0.1249999995752020  0.3952090765398992   F   F   F
  0.3749999987256061  0.3749999987256061  0.3952090765398992   F   F   F
  0.3749999987256061  0.6249999978760030  0.3952090765398992   F   F   F
  0.3749999987256061  0.8749999970264071  0.3952090765398992   F   F   F
  0.6249999978760030  0.1249999995752020  0.3952090765398992   F   F   F
  0.6249999978760030  0.3749999987256061  0.3952090765398992   F   F   F
  0.6249999978760030  0.6249999978760030  0.3952090765398992   F   F   F
  0.6249999978760030  0.8749999970264071  0.3952090765398992   F   F   F
  0.8749999970264071  0.1249999995752020  0.3952090765398992   F   F   F
  0.8749999970264071  0.3749999987256061  0.3952090765398992   F   F   F
  0.8749999970264071  0.6249999978760030  0.3952090765398992   F   F   F
  0.8749999970264071  0.8749999970264071  0.3952090765398992   F   F   F
  0.5839196675801919  0.5839140809046275  0.6756146104115995   T   T   T
  0.6149700084689776  0.4693405472732821  0.6766755269628466   T   T   T
  0.5306708828142334  0.3850155170112248  0.6766785184859906   T   T   T
  0.4160663548996778  0.4161192190428737  0.6756108201523512   T   T   T
  0.3849755413787579  0.5306727939563769  0.6766571894654382   T   T   T
  0.4693132565578931  0.6149826096372848  0.6766733912583418   T   T   T
  0.6494176008591358  0.6494837056333390  0.6752290105163049   T   T   T
  0.3505534203254723  0.3505819268021073  0.6752230556267005   T   T   T
  0.7717831970774401  0.4343738012403623  0.6780711291131344   T   T   T
  0.5656853797018732  0.2282389778993667  0.6780640298320582   T   T   T
  0.2280973324114966  0.5658414813429892  0.6781512563103073   T   T   T
  0.4343153517655520  0.7718366292622640  0.6782274462309231   T   T   T
 
  0.00000000E+00  0.00000000E+00  0.00000000E+00
  0.00000000E+00  0.00000000E+00  0.00000000E+00
  0.00000000E+00  0.00000000E+00  0.00000000E+00
  0.00000000E+00  0.00000000E+00  0.00000000E+00
  0.00000000E+00  0.00000000E+00  0.00000000E+00
  0.00000000E+00  0.00000000E+00  0.00000000E+00
  0.00000000E+00  0.00000000E+00  0.00000000E+00
  0.00000000E+00  0.00000000E+00  0.00000000E+00
  0.00000000E+00  0.00000000E+00  0.00000000E+00
  0.00000000E+00  0.00000000E+00  0.00000000E+00
  0.00000000E+00  0.00000000E+00  0.00000000E+00
  0.00000000E+00  0.00000000E+00  0.00000000E+00
  0.00000000E+00  0.00000000E+00  0.00000000E+00
  0.00000000E+00  0.00000000E+00  0.00000000E+00
  0.00000000E+00  0.00000000E+00  0.00000000E+00
  0.00000000E+00  0.00000000E+00  0.00000000E+00
  0.00000000E+00  0.00000000E+00  0.00000000E+00
  0.00000000E+00  0.00000000E+00  0.00000000E+00
  0.00000000E+00  0.00000000E+00  0.00000000E+00
  0.00000000E+00  0.00000000E+00  0.00000000E+00
  0.00000000E+00  0.00000000E+00  0.00000000E+00
  0.00000000E+00  0.00000000E+00  0.00000000E+00
  0.00000000E+00  0.00000000E+00  0.00000000E+00
  0.00000000E+00  0.00000000E+00  0.00000000E+00
  0.00000000E+00  0.00000000E+00  0.00000000E+00
  0.00000000E+00  0.00000000E+00  0.00000000E+00
  0.00000000E+00  0.00000000E+00  0.00000000E+00
  0.00000000E+00  0.00000000E+00  0.00000000E+00
  0.00000000E+00  0.00000000E+00  0.00000000E+00
  0.00000000E+00  0.00000000E+00  0.00000000E+00
  0.00000000E+00  0.00000000E+00  0.00000000E+00
  0.00000000E+00  0.00000000E+00  0.00000000E+00
  0.00000000E+00  0.00000000E+00  0.00000000E+00
  0.00000000E+00  0.00000000E+00  0.00000000E+00
  0.00000000E+00  0.00000000E+00  0.00000000E+00
  0.00000000E+00  0.00000000E+00  0.00000000E+00
  0.00000000E+00  0.00000000E+00  0.00000000E+00
  0.00000000E+00  0.00000000E+00  0.00000000E+00
  0.00000000E+00  0.00000000E+00  0.00000000E+00
  0.00000000E+00  0.00000000E+00  0.00000000E+00
  0.00000000E+00  0.00000000E+00  0.00000000E+00
  0.00000000E+00  0.00000000E+00  0.00000000E+00
  0.00000000E+00  0.00000000E+00  0.00000000E+00
  0.00000000E+00  0.00000000E+00  0.00000000E+00
  0.00000000E+00  0.00000000E+00  0.00000000E+00
  0.00000000E+00  0.00000000E+00  0.00000000E+00
  0.00000000E+00  0.00000000E+00  0.00000000E+00
  0.00000000E+00  0.00000000E+00  0.00000000E+00
  0.00000000E+00  0.00000000E+00  0.00000000E+00
  0.00000000E+00  0.00000000E+00  0.00000000E+00
  0.00000000E+00  0.00000000E+00  0.00000000E+00
  0.00000000E+00  0.00000000E+00  0.00000000E+00
  0.00000000E+00  0.00000000E+00  0.00000000E+00
  0.00000000E+00  0.00000000E+00  0.00000000E+00
  0.00000000E+00  0.00000000E+00  0.00000000E+00
  0.00000000E+00  0.00000000E+00  0.00000000E+00
  0.00000000E+00  0.00000000E+00  0.00000000E+00
  0.00000000E+00  0.00000000E+00  0.00000000E+00
  0.00000000E+00  0.00000000E+00  0.00000000E+00
  0.00000000E+00  0.00000000E+00  0.00000000E+00
  0.00000000E+00  0.00000000E+00  0.00000000E+00
  0.00000000E+00  0.00000000E+00  0.00000000E+00
  0.00000000E+00  0.00000000E+00  0.00000000E+00
  0.00000000E+00  0.00000000E+00  0.00000000E+00
  0.00000000E+00  0.00000000E+00  0.00000000E+00
  0.00000000E+00  0.00000000E+00  0.00000000E+00
  0.00000000E+00  0.00000000E+00  0.00000000E+00
  0.00000000E+00  0.00000000E+00  0.00000000E+00
  0.00000000E+00  0.00000000E+00  0.00000000E+00
  0.00000000E+00  0.00000000E+00  0.00000000E+00
  0.00000000E+00  0.00000000E+00  0.00000000E+00
  0.00000000E+00  0.00000000E+00  0.00000000E+00
  0.00000000E+00  0.00000000E+00  0.00000000E+00
  0.00000000E+00  0.00000000E+00  0.00000000E+00
  0.00000000E+00  0.00000000E+00  0.00000000E+00
  0.00000000E+00  0.00000000E+00  0.00000000E+00
