Rh48 C6 Br2 H4                          
    1.000000000000000     
    10.8856652999999994    0.0000000000000000    0.0000000000000000
     0.0000000000000000   10.8856652999999994    0.0000000000000000
     0.0000000000000000    0.0000000000000000   16.5565959400000011
   Rh   C    Br   H 
    48     6     2     4
Selective dynamics
Direct
  0.9999935986990423  0.9999832109399946  0.4091738790297654   T   T   T
  0.9997620410873580  0.2499141038340156  0.4092145041092721   T   T   T
  0.0000025196397146  0.4999933040245423  0.4094114126031130   T   T   T
  0.0002346060948497  0.7501051716129865  0.4092347016283782   T   T   T
  0.2499072449415252  0.9997620038949933  0.4092233180910085   T   T   T
  0.2499419884011402  0.2499401465355433  0.4095484548673838   T   T   T
  0.2499124851565924  0.5003291905719749  0.4096314273100390   T   T   T
  0.2515441068798054  0.7484477131741585  0.4102524635671543   T   T   T
  0.5000041416902334  0.0000106012115921  0.4094137618619840   T   T   T
  0.5003300954218872  0.2499068386055043  0.4096270308400278   T   T   T
  0.5000019409945082  0.4999962207986783  0.4085959517800859   T   T   T
  0.4996686029750634  0.7500790274636699  0.4096248678715497   T   T   T
  0.7500843912235808  0.0002324578524124  0.4092300872426478   T   T   T
  0.7484331763926946  0.2515473451057844  0.4102437595523654   T   T   T
  0.7500735320911858  0.4996681461695971  0.4096254697248582   T   T   T
  0.7500527314918415  0.7500664544311846  0.4095556943731680   T   T   T
  0.1245563969831380  0.1245536907427791  0.5168841261338528   T   T   T
  0.1236841757673233  0.3746510988249270  0.5174823464591469   T   T   T
  0.1236894331237011  0.6253167007105702  0.5170134594352973   T   T   T
  0.1250964227328808  0.8748993625028518  0.5166334555844898   T   T   T
  0.3746535808394924  0.1236781070114930  0.5174758022419965   T   T   T
  0.3753933237019709  0.3753939541628526  0.5165003304450124   T   T   T
  0.3740653876294786  0.6259300954911993  0.5215904725192502   T   T   T
  0.3746782370198147  0.8763098608273623  0.5170130216757585   T   T   T
  0.6253124032160500  0.1236878027102364  0.5170369839660651   T   T   T
  0.6259229256922012  0.3740636737253453  0.5215820924938086   T   T   T
  0.6245977717246731  0.6246069983017719  0.5165091535915352   T   T   T
  0.6253372945210245  0.8763084473453375  0.5174886175378433   T   T   T
  0.8748978987115592  0.1250905720297837  0.5166213891099574   T   T   T
  0.8763090683871368  0.3746707786488912  0.5170218252309979   T   T   T
  0.8763128506833624  0.6253468758422613  0.5174683491490200   T   T   T
  0.8754388497485763  0.8754422315782264  0.5168856783095279   T   T   T
  0.1249999997703384  0.1249999997703384  0.3019944448798313   F   F   F
  0.1250000006889778  0.3750000002296616  0.3019944448798313   F   F   F
  0.1250000006889778  0.6250000006889778  0.3019944448798313   F   F   F
  0.1250000006889778  0.8750000011483010  0.3019944448798313   F   F   F
  0.3750000011483010  0.1249999997703384  0.3019944448798313   F   F   F
  0.3750000011483010  0.3750000002296616  0.3019944448798313   F   F   F
  0.3750000011483010  0.6250000006889778  0.3019944448798313   F   F   F
  0.3750000011483010  0.8750000011483010  0.3019944448798313   F   F   F
  0.6250000006889778  0.1249999997703384  0.3019944448798313   F   F   F
  0.6250000006889778  0.3750000002296616  0.3019944448798313   F   F   F
  0.6250000016076172  0.6250000006889778  0.3019944448798313   F   F   F
  0.6250000016076172  0.8750000011483010  0.3019944448798313   F   F   F
  0.8750000011483010  0.1249999997703384  0.3019944448798313   F   F   F
  0.8750000011483010  0.3750000002296616  0.3019944448798313   F   F   F
  0.8750000011483010  0.6250000006889778  0.3019944448798313   F   F   F
  0.8750000020669404  0.8750000011483010  0.3019944448798313   F   F   F
  0.4057097296391916  0.4056984688213987  0.6376657490793960   T   T   T
  0.3718267401457496  0.5354957616033076  0.6441887256875489   T   T   T
  0.4644991171632427  0.6282351139523925  0.6441959581720198   T   T   T
  0.5943715474447373  0.5943796765929079  0.6376681809771867   T   T   T
  0.6281985508421570  0.4644451511370633  0.6441959381494655   T   T   T
  0.5354466854378543  0.3717897047744785  0.6441998671626408   T   T   T
  0.2905434118282884  0.2906005236461766  0.6898172402229434   T   T   T
  0.7094615405454618  0.7094054273250308  0.6898575684217363   T   T   T
  0.2806596769102043  0.5575398188731597  0.6674943265561168   T   T   T
  0.4425235405116155  0.7193355238114449  0.6674831153387757   T   T   T
  0.7193566688237922  0.4424623093375644  0.6674995000321715   T   T   T
  0.5574751810662519  0.2806756742200065  0.6674757472941906   T   T   T
 
  0.00000000E+00  0.00000000E+00  0.00000000E+00
  0.00000000E+00  0.00000000E+00  0.00000000E+00
  0.00000000E+00  0.00000000E+00  0.00000000E+00
  0.00000000E+00  0.00000000E+00  0.00000000E+00
  0.00000000E+00  0.00000000E+00  0.00000000E+00
  0.00000000E+00  0.00000000E+00  0.00000000E+00
  0.00000000E+00  0.00000000E+00  0.00000000E+00
  0.00000000E+00  0.00000000E+00  0.00000000E+00
  0.00000000E+00  0.00000000E+00  0.00000000E+00
  0.00000000E+00  0.00000000E+00  0.00000000E+00
  0.00000000E+00  0.00000000E+00  0.00000000E+00
  0.00000000E+00  0.00000000E+00  0.00000000E+00
  0.00000000E+00  0.00000000E+00  0.00000000E+00
  0.00000000E+00  0.00000000E+00  0.00000000E+00
  0.00000000E+00  0.00000000E+00  0.00000000E+00
  0.00000000E+00  0.00000000E+00  0.00000000E+00
  0.00000000E+00  0.00000000E+00  0.00000000E+00
  0.00000000E+00  0.00000000E+00  0.00000000E+00
  0.00000000E+00  0.00000000E+00  0.00000000E+00
  0.00000000E+00  0.00000000E+00  0.00000000E+00
  0.00000000E+00  0.00000000E+00  0.00000000E+00
  0.00000000E+00  0.00000000E+00  0.00000000E+00
  0.00000000E+00  0.00000000E+00  0.00000000E+00
  0.00000000E+00  0.00000000E+00  0.00000000E+00
  0.00000000E+00  0.00000000E+00  0.00000000E+00
  0.00000000E+00  0.00000000E+00  0.00000000E+00
  0.00000000E+00  0.00000000E+00  0.00000000E+00
  0.00000000E+00  0.00000000E+00  0.00000000E+00
  0.00000000E+00  0.00000000E+00  0.00000000E+00
  0.00000000E+00  0.00000000E+00  0.00000000E+00
  0.00000000E+00  0.00000000E+00  0.00000000E+00
  0.00000000E+00  0.00000000E+00  0.00000000E+00
  0.00000000E+00  0.00000000E+00  0.00000000E+00
  0.00000000E+00  0.00000000E+00  0.00000000E+00
  0.00000000E+00  0.00000000E+00  0.00000000E+00
  0.00000000E+00  0.00000000E+00  0.00000000E+00
  0.00000000E+00  0.00000000E+00  0.00000000E+00
  0.00000000E+00  0.00000000E+00  0.00000000E+00
  0.00000000E+00  0.00000000E+00  0.00000000E+00
  0.00000000E+00  0.00000000E+00  0.00000000E+00
  0.00000000E+00  0.00000000E+00  0.00000000E+00
  0.00000000E+00  0.00000000E+00  0.00000000E+00
  0.00000000E+00  0.00000000E+00  0.00000000E+00
  0.00000000E+00  0.00000000E+00  0.00000000E+00
  0.00000000E+00  0.00000000E+00  0.00000000E+00
  0.00000000E+00  0.00000000E+00  0.00000000E+00
  0.00000000E+00  0.00000000E+00  0.00000000E+00
  0.00000000E+00  0.00000000E+00  0.00000000E+00
  0.00000000E+00  0.00000000E+00  0.00000000E+00
  0.00000000E+00  0.00000000E+00  0.00000000E+00
  0.00000000E+00  0.00000000E+00  0.00000000E+00
  0.00000000E+00  0.00000000E+00  0.00000000E+00
  0.00000000E+00  0.00000000E+00  0.00000000E+00
  0.00000000E+00  0.00000000E+00  0.00000000E+00
  0.00000000E+00  0.00000000E+00  0.00000000E+00
  0.00000000E+00  0.00000000E+00  0.00000000E+00
  0.00000000E+00  0.00000000E+00  0.00000000E+00
  0.00000000E+00  0.00000000E+00  0.00000000E+00
  0.00000000E+00  0.00000000E+00  0.00000000E+00
  0.00000000E+00  0.00000000E+00  0.00000000E+00
