Pt48 C6 Br2 H4                          
    1.000000000000000     
    11.2480068000000006    0.0000000000000000    0.0000000000000000
     0.0000000000000000   11.2480068000000006    0.0000000000000000
     0.0000000000000000    0.0000000000000000   16.9169490799999984
   Pt   C    Br   H 
    48     6     2     4
Selective dynamics
Direct
  0.2500530823827134  0.9999847603313512  0.4113207612415835   T   T   T
  0.2498699339158179  0.2498713356360796  0.4113437385135228   T   T   T
  0.2496397613592265  0.5004547362312763  0.4111610279322377   T   T   T
  0.2500604114033180  0.7499393598319202  0.4113414852084887   T   T   T
  0.5000005854770535  0.9999986662453750  0.4111653712091439   T   T   T
  0.5004533386529602  0.2496398867397858  0.4111619221873966   T   T   T
  0.4999990906893785  0.5000014749154857  0.4112617270273375   T   T   T
  0.4995455546240137  0.7503594158008440  0.4111612846876653   T   T   T
  0.7499469165179065  0.0000134198673010  0.4113204550318699   T   T   T
  0.7499408048081193  0.2500592624326998  0.4113415355002417   T   T   T
  0.7503602072492939  0.4995475646949004  0.4111619549213898   T   T   T
  0.7501296485577669  0.7501301937166431  0.4113423176506998   T   T   T
  0.9999989096942556  0.9999993936717644  0.4110977774055868   T   T   T
  0.9999858771145256  0.2500536644708120  0.4113198836165850   T   T   T
  0.0000000507922664  0.5000005132606375  0.4111642621656060   T   T   T
  0.0000142826709535  0.7499464622094791  0.4113206834186016   T   T   T
  0.1248960969132540  0.1248962575581487  0.5268509148690086   T   T   T
  0.1243241774753443  0.3752472179872939  0.5274763907202313   T   T   T
  0.1250011309939012  0.6250195167887824  0.5270428277902752   T   T   T
  0.1250550435518321  0.8749437878396904  0.5270229555922157   T   T   T
  0.3752459371363770  0.1243245572385163  0.5274762092816161   T   T   T
  0.3752851403892734  0.3752843877463121  0.5253503166706324   T   T   T
  0.3738581457205115  0.6261433049291227  0.5286869415555131   T   T   T
  0.3749815657054683  0.8749977711096264  0.5270446937903017   T   T   T
  0.6250193391712102  0.1250005711924018  0.5270404457495985   T   T   T
  0.6261432751888805  0.3738588468990187  0.5286823820027209   T   T   T
  0.6247175422880105  0.6247203315628127  0.5253519472985104   T   T   T
  0.6247560871883309  0.8756713573908286  0.5274771337156707   T   T   T
  0.8749437785254557  0.1250546118218097  0.5270230544229761   T   T   T
  0.8749983317342895  0.3749810139860514  0.5270440308193258   T   T   T
  0.8756722093299771  0.6247563734015600  0.5274790679368024   T   T   T
  0.8751018549300866  0.8751031006837451  0.5268526267838212   T   T   T
  0.1250000008890453  0.1250000000000000  0.2955615682446648   F   F   F
  0.1250000008890453  0.3750000008890453  0.2955615682446648   F   F   F
  0.1250000008890453  0.6250000026671358  0.2955615682446648   F   F   F
  0.1250000008890453  0.8750000026671358  0.2955615682446648   F   F   F
  0.3750000017780906  0.1250000000000000  0.2955615682446648   F   F   F
  0.3750000017780906  0.3750000008890453  0.2955615682446648   F   F   F
  0.3750000017780906  0.6250000026671358  0.2955615682446648   F   F   F
  0.3750000017780906  0.8750000026671358  0.2955615682446648   F   F   F
  0.6250000026671358  0.1250000000000000  0.2955615682446648   F   F   F
  0.6250000026671358  0.3750000008890453  0.2955615682446648   F   F   F
  0.6250000026671358  0.6250000026671358  0.2955615682446648   F   F   F
  0.6250000026671358  0.8750000026671358  0.2955615682446648   F   F   F
  0.8750000035561882  0.1250000000000000  0.2955615682446648   F   F   F
  0.8750000026671358  0.3750000008890453  0.2955615682446648   F   F   F
  0.8750000035561882  0.6250000026671358  0.2955615682446648   F   F   F
  0.8750000035561882  0.8750000026671358  0.2955615682446648   F   F   F
  0.4129131467104727  0.4129220597601559  0.7039882741911967   T   T   T
  0.3793131736500186  0.5325723585400794  0.7035008004915966   T   T   T
  0.4674410127551667  0.6206881190878661  0.7035163169886474   T   T   T
  0.5870814594749305  0.5870725082781689  0.7040186026365518   T   T   T
  0.6206900674313687  0.4674286025178631  0.7035191355272516   T   T   T
  0.5325595037978630  0.3793105399044805  0.7035031811566341   T   T   T
  0.2928215660911704  0.2928459275499264  0.7060213867105531   T   T   T
  0.7071756933494484  0.7071486767837030  0.7060874488504538   T   T   T
  0.2857302380379920  0.5578629958555368  0.7040579629223842   T   T   T
  0.4421560539922567  0.7142730991267712  0.7040852625590617   T   T   T
  0.7142664894879189  0.4421358441266889  0.7040908795111562   T   T   T
  0.5578444302545549  0.2857231476195352  0.7040614294742298   T   T   T
 
  0.00000000E+00  0.00000000E+00  0.00000000E+00
  0.00000000E+00  0.00000000E+00  0.00000000E+00
  0.00000000E+00  0.00000000E+00  0.00000000E+00
  0.00000000E+00  0.00000000E+00  0.00000000E+00
  0.00000000E+00  0.00000000E+00  0.00000000E+00
  0.00000000E+00  0.00000000E+00  0.00000000E+00
  0.00000000E+00  0.00000000E+00  0.00000000E+00
  0.00000000E+00  0.00000000E+00  0.00000000E+00
  0.00000000E+00  0.00000000E+00  0.00000000E+00
  0.00000000E+00  0.00000000E+00  0.00000000E+00
  0.00000000E+00  0.00000000E+00  0.00000000E+00
  0.00000000E+00  0.00000000E+00  0.00000000E+00
  0.00000000E+00  0.00000000E+00  0.00000000E+00
  0.00000000E+00  0.00000000E+00  0.00000000E+00
  0.00000000E+00  0.00000000E+00  0.00000000E+00
  0.00000000E+00  0.00000000E+00  0.00000000E+00
  0.00000000E+00  0.00000000E+00  0.00000000E+00
  0.00000000E+00  0.00000000E+00  0.00000000E+00
  0.00000000E+00  0.00000000E+00  0.00000000E+00
  0.00000000E+00  0.00000000E+00  0.00000000E+00
  0.00000000E+00  0.00000000E+00  0.00000000E+00
  0.00000000E+00  0.00000000E+00  0.00000000E+00
  0.00000000E+00  0.00000000E+00  0.00000000E+00
  0.00000000E+00  0.00000000E+00  0.00000000E+00
  0.00000000E+00  0.00000000E+00  0.00000000E+00
  0.00000000E+00  0.00000000E+00  0.00000000E+00
  0.00000000E+00  0.00000000E+00  0.00000000E+00
  0.00000000E+00  0.00000000E+00  0.00000000E+00
  0.00000000E+00  0.00000000E+00  0.00000000E+00
  0.00000000E+00  0.00000000E+00  0.00000000E+00
  0.00000000E+00  0.00000000E+00  0.00000000E+00
  0.00000000E+00  0.00000000E+00  0.00000000E+00
  0.00000000E+00  0.00000000E+00  0.00000000E+00
  0.00000000E+00  0.00000000E+00  0.00000000E+00
  0.00000000E+00  0.00000000E+00  0.00000000E+00
  0.00000000E+00  0.00000000E+00  0.00000000E+00
  0.00000000E+00  0.00000000E+00  0.00000000E+00
  0.00000000E+00  0.00000000E+00  0.00000000E+00
  0.00000000E+00  0.00000000E+00  0.00000000E+00
  0.00000000E+00  0.00000000E+00  0.00000000E+00
  0.00000000E+00  0.00000000E+00  0.00000000E+00
  0.00000000E+00  0.00000000E+00  0.00000000E+00
  0.00000000E+00  0.00000000E+00  0.00000000E+00
  0.00000000E+00  0.00000000E+00  0.00000000E+00
  0.00000000E+00  0.00000000E+00  0.00000000E+00
  0.00000000E+00  0.00000000E+00  0.00000000E+00
  0.00000000E+00  0.00000000E+00  0.00000000E+00
  0.00000000E+00  0.00000000E+00  0.00000000E+00
  0.00000000E+00  0.00000000E+00  0.00000000E+00
  0.00000000E+00  0.00000000E+00  0.00000000E+00
  0.00000000E+00  0.00000000E+00  0.00000000E+00
  0.00000000E+00  0.00000000E+00  0.00000000E+00
  0.00000000E+00  0.00000000E+00  0.00000000E+00
  0.00000000E+00  0.00000000E+00  0.00000000E+00
  0.00000000E+00  0.00000000E+00  0.00000000E+00
  0.00000000E+00  0.00000000E+00  0.00000000E+00
  0.00000000E+00  0.00000000E+00  0.00000000E+00
  0.00000000E+00  0.00000000E+00  0.00000000E+00
  0.00000000E+00  0.00000000E+00  0.00000000E+00
  0.00000000E+00  0.00000000E+00  0.00000000E+00
