Pt  C  F                                
    1.000000000000000     
    11.2480068000000006    0.0000000000000000    0.0000000000000000
     0.0000000000000000   11.2480068000000006    0.0000000000000000
     0.0000000000000000    0.0000000000000000   23.9651564400000012
   Pt   C    F 
    64     6     6
Selective dynamics
Direct
  0.2500000008890453  0.0000000000000000  0.3129543518222917   F   F   F
  0.0000000000000000  0.5000000017780906  0.3129543518222917   F   F   F
  0.2500000008890453  0.2500000008890453  0.3129543518222917   F   F   F
  0.2500000008890453  0.5000000017780906  0.3129543518222917   F   F   F
  0.2500000008890453  0.7500000026671358  0.3129543518222917   F   F   F
  0.5000000017780906  0.0000000000000000  0.3129543518222917   F   F   F
  0.5000000017780906  0.2500000008890453  0.3129543518222917   F   F   F
  0.0000000000000000  0.7500000026671358  0.3129543518222917   F   F   F
  0.5000000017780906  0.5000000017780906  0.3129543518222917   F   F   F
  0.5000000017780906  0.7500000026671358  0.3129543518222917   F   F   F
  0.7500000026671358  0.0000000000000000  0.3129543518222917   F   F   F
  0.7500000026671358  0.2500000008890453  0.3129543518222917   F   F   F
  0.7500000026671358  0.5000000017780906  0.3129543518222917   F   F   F
  0.7500000026671358  0.7500000026671358  0.3129543518222917   F   F   F
  0.0000000000000000  0.0000000000000000  0.3129543518222917   F   F   F
  0.0000000000000000  0.2500000008890453  0.3129543518222917   F   F   F
  0.2498505502619391  0.9984349519545814  0.4774680990334029   T   T   T
  0.2508521238178276  0.2508567909348081  0.4775547262283766   T   T   T
  0.2538607727168614  0.5011115806574736  0.4794801357621247   T   T   T
  0.2538587556416088  0.7461404238799415  0.4799119986703649   T   T   T
  0.5000000017780906  0.0000000000000000  0.4774472426866130   T   T   T
  0.5011111088045290  0.2538633722760333  0.4794791489716018   T   T   T
  0.5000000017780906  0.5000000017780906  0.4806390743028529   T   T   T
  0.4988888947516520  0.7461366312801477  0.4794791489716018   T   T   T
  0.7501494532942420  0.0015650480454188  0.4774680990334029   T   T   T
  0.7461412479145725  0.2538595796762396  0.4799119986703649   T   T   T
  0.7461392308393199  0.4988884228987076  0.4794801357621247   T   T   T
  0.7491478797383535  0.7491432126213732  0.4775547262283766   T   T   T
  0.0000000000000000  0.0000000000000000  0.4775820172097350   T   T   T
  0.9984358465152041  0.2498538336816149  0.4774688926590053   T   T   T
  0.0000000000000000  0.5000000017780906  0.4774465001899096   T   T   T
  0.0015641534847958  0.7501461698745663  0.4774688926590053   T   T   T
  0.1241763404486274  0.1241790092777064  0.5589008079361297   T   T   T
  0.1226975130117336  0.3741324283563147  0.5592365623122050   T   T   T
  0.1235908156026249  0.6239940937256058  0.5598722903834258   T   T   T
  0.1252794581178335  0.8747199743386157  0.5595926974550834   T   T   T
  0.3741284550611874  0.1227011568659295  0.5592425298292311   T   T   T
  0.3667056019367138  0.3667036993366427  0.5635579958366336   T   T   T
  0.3750359456715472  0.6249442660422581  0.5702804355161322   T   T   T
  0.3760020038686020  0.8764107819219172  0.5598776601774071   T   T   T
  0.6239980005766246  0.1235892207452184  0.5598776601774071   T   T   T
  0.6249640587736793  0.3750557375139230  0.5702804355161322   T   T   T
  0.6332944025085127  0.6332963042195384  0.5635579958366336   T   T   T
  0.6258715493840389  0.8772988458012064  0.5592425298292311   T   T   T
  0.8747205463274000  0.1252800283285201  0.5595926974550834   T   T   T
  0.8764091879535562  0.3760059098305754  0.5598722903834258   T   T   T
  0.8773024914334929  0.6258675751998664  0.5592365623122050   T   T   T
  0.8758236639966060  0.8758209933894294  0.5589008079361297   T   T   T
  0.1250000008890453  0.1250000000000000  0.3959242036977884   F   F   F
  0.1250000008890453  0.3750000008890453  0.3959242036977884   F   F   F
  0.1250000008890453  0.6250000026671358  0.3959242036977884   F   F   F
  0.1250000008890453  0.8750000026671358  0.3959242036977884   F   F   F
  0.3750000017780906  0.1250000000000000  0.3959242036977884   F   F   F
  0.3750000017780906  0.3750000008890453  0.3959242036977884   F   F   F
  0.3750000017780906  0.6250000026671358  0.3959242036977884   F   F   F
  0.3750000017780906  0.8750000026671358  0.3959242036977884   F   F   F
  0.6250000026671358  0.1250000000000000  0.3959242036977884   F   F   F
  0.6250000026671358  0.3750000008890453  0.3959242036977884   F   F   F
  0.6250000026671358  0.6250000026671358  0.3959242036977884   F   F   F
  0.6250000026671358  0.8750000026671358  0.3959242036977884   F   F   F
  0.8750000035561882  0.1250000000000000  0.3959242036977884   F   F   F
  0.8750000026671358  0.3750000008890453  0.3959242036977884   F   F   F
  0.8750000035561882  0.6250000026671358  0.3959242036977884   F   F   F
  0.8750000035561882  0.8750000026671358  0.3959242036977884   F   F   F
  0.6264890170065983  0.4648442325007615  0.6486126816755730   T   T   T
  0.5351583254258950  0.3734841591919858  0.6486143387687022   T   T   T
  0.4045214697525707  0.4045242448665889  0.6447676621259071   T   T   T
  0.3735110158881128  0.5351557843911201  0.6486126816755730   T   T   T
  0.4648416505698541  0.6265158310285092  0.6486143387687022   T   T   T
  0.5954785346926559  0.5954757586895922  0.6447676621259071   T   T   T
  0.7252795148630391  0.4437546910751128  0.6796611465868304   T   T   T
  0.5562468381256529  0.2747351029519776  0.6796633322464347   T   T   T
  0.3392823343547247  0.3392763962210255  0.6826927841094550   T   T   T
  0.2747204895821946  0.5562453124810682  0.6796611465868304   T   T   T
  0.4437530969739562  0.7252648828232766  0.6796633322464347   T   T   T
  0.6607176425300696  0.6607235939994693  0.6826927841094550   T   T   T
 
  0.00000000E+00  0.00000000E+00  0.00000000E+00
  0.00000000E+00  0.00000000E+00  0.00000000E+00
  0.00000000E+00  0.00000000E+00  0.00000000E+00
  0.00000000E+00  0.00000000E+00  0.00000000E+00
  0.00000000E+00  0.00000000E+00  0.00000000E+00
  0.00000000E+00  0.00000000E+00  0.00000000E+00
  0.00000000E+00  0.00000000E+00  0.00000000E+00
  0.00000000E+00  0.00000000E+00  0.00000000E+00
  0.00000000E+00  0.00000000E+00  0.00000000E+00
  0.00000000E+00  0.00000000E+00  0.00000000E+00
  0.00000000E+00  0.00000000E+00  0.00000000E+00
  0.00000000E+00  0.00000000E+00  0.00000000E+00
  0.00000000E+00  0.00000000E+00  0.00000000E+00
  0.00000000E+00  0.00000000E+00  0.00000000E+00
  0.00000000E+00  0.00000000E+00  0.00000000E+00
  0.00000000E+00  0.00000000E+00  0.00000000E+00
  0.00000000E+00  0.00000000E+00  0.00000000E+00
  0.00000000E+00  0.00000000E+00  0.00000000E+00
  0.00000000E+00  0.00000000E+00  0.00000000E+00
  0.00000000E+00  0.00000000E+00  0.00000000E+00
  0.00000000E+00  0.00000000E+00  0.00000000E+00
  0.00000000E+00  0.00000000E+00  0.00000000E+00
  0.00000000E+00  0.00000000E+00  0.00000000E+00
  0.00000000E+00  0.00000000E+00  0.00000000E+00
  0.00000000E+00  0.00000000E+00  0.00000000E+00
  0.00000000E+00  0.00000000E+00  0.00000000E+00
  0.00000000E+00  0.00000000E+00  0.00000000E+00
  0.00000000E+00  0.00000000E+00  0.00000000E+00
  0.00000000E+00  0.00000000E+00  0.00000000E+00
  0.00000000E+00  0.00000000E+00  0.00000000E+00
  0.00000000E+00  0.00000000E+00  0.00000000E+00
  0.00000000E+00  0.00000000E+00  0.00000000E+00
  0.00000000E+00  0.00000000E+00  0.00000000E+00
  0.00000000E+00  0.00000000E+00  0.00000000E+00
  0.00000000E+00  0.00000000E+00  0.00000000E+00
  0.00000000E+00  0.00000000E+00  0.00000000E+00
  0.00000000E+00  0.00000000E+00  0.00000000E+00
  0.00000000E+00  0.00000000E+00  0.00000000E+00
  0.00000000E+00  0.00000000E+00  0.00000000E+00
  0.00000000E+00  0.00000000E+00  0.00000000E+00
  0.00000000E+00  0.00000000E+00  0.00000000E+00
  0.00000000E+00  0.00000000E+00  0.00000000E+00
  0.00000000E+00  0.00000000E+00  0.00000000E+00
  0.00000000E+00  0.00000000E+00  0.00000000E+00
  0.00000000E+00  0.00000000E+00  0.00000000E+00
  0.00000000E+00  0.00000000E+00  0.00000000E+00
  0.00000000E+00  0.00000000E+00  0.00000000E+00
  0.00000000E+00  0.00000000E+00  0.00000000E+00
  0.00000000E+00  0.00000000E+00  0.00000000E+00
  0.00000000E+00  0.00000000E+00  0.00000000E+00
  0.00000000E+00  0.00000000E+00  0.00000000E+00
  0.00000000E+00  0.00000000E+00  0.00000000E+00
  0.00000000E+00  0.00000000E+00  0.00000000E+00
  0.00000000E+00  0.00000000E+00  0.00000000E+00
  0.00000000E+00  0.00000000E+00  0.00000000E+00
  0.00000000E+00  0.00000000E+00  0.00000000E+00
  0.00000000E+00  0.00000000E+00  0.00000000E+00
  0.00000000E+00  0.00000000E+00  0.00000000E+00
  0.00000000E+00  0.00000000E+00  0.00000000E+00
  0.00000000E+00  0.00000000E+00  0.00000000E+00
  0.00000000E+00  0.00000000E+00  0.00000000E+00
  0.00000000E+00  0.00000000E+00  0.00000000E+00
  0.00000000E+00  0.00000000E+00  0.00000000E+00
  0.00000000E+00  0.00000000E+00  0.00000000E+00
  0.00000000E+00  0.00000000E+00  0.00000000E+00
  0.00000000E+00  0.00000000E+00  0.00000000E+00
  0.00000000E+00  0.00000000E+00  0.00000000E+00
  0.00000000E+00  0.00000000E+00  0.00000000E+00
  0.00000000E+00  0.00000000E+00  0.00000000E+00
  0.00000000E+00  0.00000000E+00  0.00000000E+00
  0.00000000E+00  0.00000000E+00  0.00000000E+00
  0.00000000E+00  0.00000000E+00  0.00000000E+00
  0.00000000E+00  0.00000000E+00  0.00000000E+00
  0.00000000E+00  0.00000000E+00  0.00000000E+00
  0.00000000E+00  0.00000000E+00  0.00000000E+00
  0.00000000E+00  0.00000000E+00  0.00000000E+00
