Pt48 C6 F2 H4                           
    1.000000000000000     
    11.2480068000000006    0.0000000000000000    0.0000000000000000
     0.0000000000000000   15.9070838000000006    0.0000000000000000
     0.0000000000000000    0.0000000000000000   15.6756726099999995
   Pt   C    F    H 
    48     6     2     4
Selective dynamics
Direct
  0.2503476691101270  0.2520966633310948  0.4038290225845458   T   T   T
  0.2452767331782582  0.5002102489370941  0.3992504683299529   T   T   T
  0.2532398150934085  0.7460130120411961  0.4069125400274345   T   T   T
  0.2506187870550249  0.9999353680197842  0.4037669546856648   T   T   T
  0.4996912222561107  0.2538090790159657  0.4068457474255354   T   T   T
  0.5000286522008679  0.4999862644370623  0.3886705611035808   T   T   T
  0.5003696260786796  0.7462163366816199  0.4068206642979888   T   T   T
  0.5000257580010654  0.0000093823351435  0.4047836736142614   T   T   T
  0.7467484652765037  0.2539858220599314  0.4069380506973275   T   T   T
  0.7547005233736073  0.4998202069767714  0.3992608318684105   T   T   T
  0.7496806025821670  0.7478996923445109  0.4038521504677277   T   T   T
  0.7493959787861257  0.0000793489898712  0.4038054153900177   T   T   T
  0.9984714032255724  0.2515945488729585  0.4037214938375442   T   T   T
  0.0000024045153211  0.5000309712703768  0.4041870800269010   T   T   T
  0.0014919318203894  0.7483708904294772  0.4037349274786521   T   T   T
  0.9999701536620336  0.0000030980438126  0.4030182143062362   T   T   T
  0.1244400485560817  0.1263553749665576  0.4880991032141608   T   T   T
  0.1217502651167308  0.3753301030630496  0.4907284076526608   T   T   T
  0.1271153725890670  0.6237373980608965  0.4913563270780443   T   T   T
  0.1266229149188050  0.8735071989931953  0.4876711659032793   T   T   T
  0.3748364536957638  0.1270244172715138  0.4882640275350383   T   T   T
  0.3701168666295089  0.3854052403530162  0.4905633013898338   T   T   T
  0.3805437977126900  0.6101832409595431  0.4964554379352180   T   T   T
  0.3760873245583056  0.8731020536597782  0.4886163715883143   T   T   T
  0.6239300626263216  0.1269381129742655  0.4886638179679466   T   T   T
  0.6194968508050422  0.3898615478705025  0.4964629306595967   T   T   T
  0.6299510180048742  0.6146263487070414  0.4905338713167282   T   T   T
  0.6251716630515816  0.8729867311544837  0.4882378509466747   T   T   T
  0.8733941139176196  0.1265210110110999  0.4877455951470537   T   T   T
  0.8728653109600515  0.3762314369188928  0.4912796210994088   T   T   T
  0.8782558788033299  0.6246510423817853  0.4907777932760951   T   T   T
  0.8755647676477025  0.8736874341621856  0.4881199037989532   T   T   T
  0.1250000000000000  0.1250000003143228  0.3189655796211497   F   F   F
  0.1250000000000000  0.3750000003143228  0.3189655796211497   F   F   F
  0.1250000008890453  0.6250000009429755  0.3189655796211497   F   F   F
  0.1250000008890453  0.8750000009429755  0.3189655796211497   F   F   F
  0.3750000008890453  0.1250000003143228  0.3189655796211497   F   F   F
  0.3750000008890453  0.3750000003143228  0.3189655796211497   F   F   F
  0.3750000008890453  0.6250000009429755  0.3189655796211497   F   F   F
  0.3750000008890453  0.8750000009429755  0.3189655796211497   F   F   F
  0.6250000017780906  0.1250000003143228  0.3189655796211497   F   F   F
  0.6250000017780906  0.3750000003143228  0.3189655796211497   F   F   F
  0.6250000017780906  0.6250000009429755  0.3189655796211497   F   F   F
  0.6250000026671358  0.8750000009429755  0.3189655796211497   F   F   F
  0.8750000026671358  0.1250000003143228  0.3189655796211497   F   F   F
  0.8750000026671358  0.3750000003143228  0.3189655796211497   F   F   F
  0.8750000035561882  0.6250000009429755  0.3189655796211497   F   F   F
  0.8750000026671358  0.8750000009429755  0.3189655796211497   F   F   F
  0.4006106843549304  0.4377569956594272  0.6068259192552574   T   T   T
  0.3768945503049039  0.5311526397095321  0.6099788822253203   T   T   T
  0.4730169322427429  0.5898021792358676  0.6171963087694081   T   T   T
  0.5993968454563117  0.5623361078563889  0.6068629983628568   T   T   T
  0.6231216639949722  0.4689599940887490  0.6099727221222508   T   T   T
  0.5270174643082512  0.4103368173552226  0.6172271823166611   T   T   T
  0.3298381056805297  0.3998930273579688  0.6708539123002737   T   T   T
  0.6701781642968143  0.6002254377484419  0.6708485151946206   T   T   T
  0.2927753436194322  0.5456916984194962  0.6417257642024410   T   T   T
  0.4620871877901749  0.6474441594951017  0.6544272241613527   T   T   T
  0.7072365409670454  0.4544461086217524  0.6417513928608329   T   T   T
  0.5379252301895647  0.3527065372022165  0.6544976477102296   T   T   T
 
  0.00000000E+00  0.00000000E+00  0.00000000E+00
  0.00000000E+00  0.00000000E+00  0.00000000E+00
  0.00000000E+00  0.00000000E+00  0.00000000E+00
  0.00000000E+00  0.00000000E+00  0.00000000E+00
  0.00000000E+00  0.00000000E+00  0.00000000E+00
  0.00000000E+00  0.00000000E+00  0.00000000E+00
  0.00000000E+00  0.00000000E+00  0.00000000E+00
  0.00000000E+00  0.00000000E+00  0.00000000E+00
  0.00000000E+00  0.00000000E+00  0.00000000E+00
  0.00000000E+00  0.00000000E+00  0.00000000E+00
  0.00000000E+00  0.00000000E+00  0.00000000E+00
  0.00000000E+00  0.00000000E+00  0.00000000E+00
  0.00000000E+00  0.00000000E+00  0.00000000E+00
  0.00000000E+00  0.00000000E+00  0.00000000E+00
  0.00000000E+00  0.00000000E+00  0.00000000E+00
  0.00000000E+00  0.00000000E+00  0.00000000E+00
  0.00000000E+00  0.00000000E+00  0.00000000E+00
  0.00000000E+00  0.00000000E+00  0.00000000E+00
  0.00000000E+00  0.00000000E+00  0.00000000E+00
  0.00000000E+00  0.00000000E+00  0.00000000E+00
  0.00000000E+00  0.00000000E+00  0.00000000E+00
  0.00000000E+00  0.00000000E+00  0.00000000E+00
  0.00000000E+00  0.00000000E+00  0.00000000E+00
  0.00000000E+00  0.00000000E+00  0.00000000E+00
  0.00000000E+00  0.00000000E+00  0.00000000E+00
  0.00000000E+00  0.00000000E+00  0.00000000E+00
  0.00000000E+00  0.00000000E+00  0.00000000E+00
  0.00000000E+00  0.00000000E+00  0.00000000E+00
  0.00000000E+00  0.00000000E+00  0.00000000E+00
  0.00000000E+00  0.00000000E+00  0.00000000E+00
  0.00000000E+00  0.00000000E+00  0.00000000E+00
  0.00000000E+00  0.00000000E+00  0.00000000E+00
  0.00000000E+00  0.00000000E+00  0.00000000E+00
  0.00000000E+00  0.00000000E+00  0.00000000E+00
  0.00000000E+00  0.00000000E+00  0.00000000E+00
  0.00000000E+00  0.00000000E+00  0.00000000E+00
  0.00000000E+00  0.00000000E+00  0.00000000E+00
  0.00000000E+00  0.00000000E+00  0.00000000E+00
  0.00000000E+00  0.00000000E+00  0.00000000E+00
  0.00000000E+00  0.00000000E+00  0.00000000E+00
  0.00000000E+00  0.00000000E+00  0.00000000E+00
  0.00000000E+00  0.00000000E+00  0.00000000E+00
  0.00000000E+00  0.00000000E+00  0.00000000E+00
  0.00000000E+00  0.00000000E+00  0.00000000E+00
  0.00000000E+00  0.00000000E+00  0.00000000E+00
  0.00000000E+00  0.00000000E+00  0.00000000E+00
  0.00000000E+00  0.00000000E+00  0.00000000E+00
  0.00000000E+00  0.00000000E+00  0.00000000E+00
  0.00000000E+00  0.00000000E+00  0.00000000E+00
  0.00000000E+00  0.00000000E+00  0.00000000E+00
  0.00000000E+00  0.00000000E+00  0.00000000E+00
  0.00000000E+00  0.00000000E+00  0.00000000E+00
  0.00000000E+00  0.00000000E+00  0.00000000E+00
  0.00000000E+00  0.00000000E+00  0.00000000E+00
  0.00000000E+00  0.00000000E+00  0.00000000E+00
  0.00000000E+00  0.00000000E+00  0.00000000E+00
  0.00000000E+00  0.00000000E+00  0.00000000E+00
  0.00000000E+00  0.00000000E+00  0.00000000E+00
  0.00000000E+00  0.00000000E+00  0.00000000E+00
  0.00000000E+00  0.00000000E+00  0.00000000E+00
