Au  C  H Br                             
    1.000000000000000     
    11.7981856999999994    0.0000000000000000    0.0000000000000000
     0.0000000000000000   11.7981856999999994    0.0000000000000000
     0.0000000000000000    0.0000000000000000   24.2569328400000011
   Au   C    H    Br
    64     6     2     4
Selective dynamics
Direct
  0.2500000004237961  0.0000000000000000  0.3091899561032889   F   F   F
  0.0000000000000000  0.5000000008475851  0.3091899561032889   F   F   F
  0.2500000004237961  0.2500000004237961  0.3091899561032889   F   F   F
  0.2500000004237961  0.5000000008475851  0.3091899561032889   F   F   F
  0.2500000004237961  0.7500000012713812  0.3091899561032889   F   F   F
  0.5000000008475851  0.0000000000000000  0.3091899561032889   F   F   F
  0.5000000008475851  0.2500000004237961  0.3091899561032889   F   F   F
  0.0000000000000000  0.7500000012713812  0.3091899561032889   F   F   F
  0.5000000008475851  0.5000000008475851  0.3091899561032889   F   F   F
  0.5000000008475851  0.7500000012713812  0.3091899561032889   F   F   F
  0.7500000012713812  0.0000000000000000  0.3091899561032889   F   F   F
  0.7500000012713812  0.2500000004237961  0.3091899561032889   F   F   F
  0.7500000012713812  0.5000000008475851  0.3091899561032889   F   F   F
  0.7500000012713812  0.7500000012713812  0.3091899561032889   F   F   F
  0.0000000000000000  0.0000000000000000  0.3091899561032889   F   F   F
  0.0000000000000000  0.2500000004237961  0.3091899561032889   F   F   F
  0.2489728906729620  0.0002141302338403  0.4806972103054890   T   T   T
  0.2492373161953078  0.2492462738269836  0.4807841939005921   T   T   T
  0.2488162879656714  0.4994118346113997  0.4805187291462303   T   T   T
  0.2491867691092585  0.7508177443991595  0.4807360376031196   T   T   T
  0.5000215658145802 -0.0000100175503051  0.4812608561507334   T   T   T
  0.4994142145845443  0.2488034585201980  0.4805131688282859   T   T   T
  0.4999965263786668  0.5000061073946037  0.4804152162988035   T   T   T
  0.5005658838011469  0.7511723575825177  0.4805067523049291   T   T   T
  0.7509934489095005  0.9997679497615274  0.4807195417801183   T   T   T
  0.7510238569338872  0.2492019687658449  0.4805644779168809   T   T   T
  0.7512008057759337  0.5005834423459921  0.4805455840471737   T   T   T
  0.7507687509849379  0.7507596955309179  0.4807818592990928   T   T   T
 -0.0000034979161715  0.0000041394878794  0.4812473180613583   T   T   T
  0.0002332272851247  0.2489735801126208  0.4806962399374511   T   T   T
 -0.0000039393486910  0.5000049520253078  0.4812499580430070   T   T   T
  0.9997824785148158  0.7510267164516222  0.4806972569769822   T   T   T
  0.1250203961366856  0.1250244370013314  0.5680475393233361   T   T   T
  0.1246238849013642  0.3736312181838602  0.5680348447659000   T   T   T
  0.1245652831355584  0.6253308746663899  0.5666897842526222   T   T   T
  0.1243166317153758  0.8756887504820803  0.5678196910801222   T   T   T
  0.3736338764393425  0.1246259616904965  0.5680178668841381   T   T   T
  0.3746364753882791  0.3746589016644962  0.5666041645638203   T   T   T
  0.3742626949658263  0.6257379634973393  0.5649357703929797   T   T   T
  0.3746686033144871  0.8754142648654553  0.5667032895545441   T   T   T
  0.6253236507850666  0.1245346759210984  0.5666901790917812   T   T   T
  0.6253830498053397  0.3739913871391869  0.5648740567727699   T   T   T
  0.6253421367774564  0.6252829883337963  0.5666065557827360   T   T   T
  0.6261514835593300  0.8739726176918716  0.5680364080020278   T   T   T
  0.8757684974778966  0.1243958316027285  0.5678398825561081   T   T   T
  0.8754338492069598  0.3746619173391097  0.5666825390487451   T   T   T
  0.8753751782353619  0.6263626454345450  0.5680319822418349   T   T   T
  0.8749839071966048  0.8750106150814153  0.5680355170885651   T   T   T
  0.1249999997881019  0.1250000006356942  0.3951713245539921   F   F   F
  0.1250000006356942  0.3750000010594832  0.3951713245539921   F   F   F
  0.1250000006356942  0.6250000006356942  0.3951713245539921   F   F   F
  0.1250000006356942  0.8750000019070754  0.3951713245539921   F   F   F
  0.3750000010594832  0.1250000006356942  0.3951713245539921   F   F   F
  0.3750000010594832  0.3750000010594832  0.3951713245539921   F   F   F
  0.3750000010594832  0.6250000006356942  0.3951713245539921   F   F   F
  0.3750000010594832  0.8750000019070754  0.3951713245539921   F   F   F
  0.6250000006356942  0.1250000006356942  0.3951713245539921   F   F   F
  0.6250000014832793  0.3750000010594832  0.3951713245539921   F   F   F
  0.6250000014832793  0.6250000006356942  0.3951713245539921   F   F   F
  0.6250000014832793  0.8750000019070754  0.3951713245539921   F   F   F
  0.8750000019070754  0.1250000006356942  0.3951713245539921   F   F   F
  0.8750000019070754  0.3750000010594832  0.3951713245539921   F   F   F
  0.8750000019070754  0.6250000006356942  0.3951713245539921   F   F   F
  0.8750000019070754  0.8750000019070754  0.3951713245539921   F   F   F
  0.4163536936024861  0.4163615176930269  0.6958689784725207   T   T   T
  0.3852740196824144  0.5307033328481783  0.6969542822689960   T   T   T
  0.4693126502078753  0.6147329251881908  0.6969490498526391   T   T   T
  0.5836552432834567  0.5836839068987797  0.6958671957775792   T   T   T
  0.6147430908193851  0.4693543196741015  0.6969574767099905   T   T   T
  0.5307073836207075  0.3853161463813803  0.6969561104016395   T   T   T
  0.3510838228707511  0.3510914996388950  0.6956270320124064   T   T   T
  0.6489248879371089  0.6489694333103201  0.6956265130258651   T   T   T
  0.2290873092474253  0.5662901926535322  0.6988954752325730   T   T   T
  0.4336703122183612  0.7709088585378164  0.6988860651557808   T   T   T
  0.7709278759505865  0.4338080595389213  0.6988805062923533   T   T   T
  0.5663471423975389  0.2291171017508137  0.6988928370228256   T   T   T
 
  0.00000000E+00  0.00000000E+00  0.00000000E+00
  0.00000000E+00  0.00000000E+00  0.00000000E+00
  0.00000000E+00  0.00000000E+00  0.00000000E+00
  0.00000000E+00  0.00000000E+00  0.00000000E+00
  0.00000000E+00  0.00000000E+00  0.00000000E+00
  0.00000000E+00  0.00000000E+00  0.00000000E+00
  0.00000000E+00  0.00000000E+00  0.00000000E+00
  0.00000000E+00  0.00000000E+00  0.00000000E+00
  0.00000000E+00  0.00000000E+00  0.00000000E+00
  0.00000000E+00  0.00000000E+00  0.00000000E+00
  0.00000000E+00  0.00000000E+00  0.00000000E+00
  0.00000000E+00  0.00000000E+00  0.00000000E+00
  0.00000000E+00  0.00000000E+00  0.00000000E+00
  0.00000000E+00  0.00000000E+00  0.00000000E+00
  0.00000000E+00  0.00000000E+00  0.00000000E+00
  0.00000000E+00  0.00000000E+00  0.00000000E+00
  0.00000000E+00  0.00000000E+00  0.00000000E+00
  0.00000000E+00  0.00000000E+00  0.00000000E+00
  0.00000000E+00  0.00000000E+00  0.00000000E+00
  0.00000000E+00  0.00000000E+00  0.00000000E+00
  0.00000000E+00  0.00000000E+00  0.00000000E+00
  0.00000000E+00  0.00000000E+00  0.00000000E+00
  0.00000000E+00  0.00000000E+00  0.00000000E+00
  0.00000000E+00  0.00000000E+00  0.00000000E+00
  0.00000000E+00  0.00000000E+00  0.00000000E+00
  0.00000000E+00  0.00000000E+00  0.00000000E+00
  0.00000000E+00  0.00000000E+00  0.00000000E+00
  0.00000000E+00  0.00000000E+00  0.00000000E+00
  0.00000000E+00  0.00000000E+00  0.00000000E+00
  0.00000000E+00  0.00000000E+00  0.00000000E+00
  0.00000000E+00  0.00000000E+00  0.00000000E+00
  0.00000000E+00  0.00000000E+00  0.00000000E+00
  0.00000000E+00  0.00000000E+00  0.00000000E+00
  0.00000000E+00  0.00000000E+00  0.00000000E+00
  0.00000000E+00  0.00000000E+00  0.00000000E+00
  0.00000000E+00  0.00000000E+00  0.00000000E+00
  0.00000000E+00  0.00000000E+00  0.00000000E+00
  0.00000000E+00  0.00000000E+00  0.00000000E+00
  0.00000000E+00  0.00000000E+00  0.00000000E+00
  0.00000000E+00  0.00000000E+00  0.00000000E+00
  0.00000000E+00  0.00000000E+00  0.00000000E+00
  0.00000000E+00  0.00000000E+00  0.00000000E+00
  0.00000000E+00  0.00000000E+00  0.00000000E+00
  0.00000000E+00  0.00000000E+00  0.00000000E+00
  0.00000000E+00  0.00000000E+00  0.00000000E+00
  0.00000000E+00  0.00000000E+00  0.00000000E+00
  0.00000000E+00  0.00000000E+00  0.00000000E+00
  0.00000000E+00  0.00000000E+00  0.00000000E+00
  0.00000000E+00  0.00000000E+00  0.00000000E+00
  0.00000000E+00  0.00000000E+00  0.00000000E+00
  0.00000000E+00  0.00000000E+00  0.00000000E+00
  0.00000000E+00  0.00000000E+00  0.00000000E+00
  0.00000000E+00  0.00000000E+00  0.00000000E+00
  0.00000000E+00  0.00000000E+00  0.00000000E+00
  0.00000000E+00  0.00000000E+00  0.00000000E+00
  0.00000000E+00  0.00000000E+00  0.00000000E+00
  0.00000000E+00  0.00000000E+00  0.00000000E+00
  0.00000000E+00  0.00000000E+00  0.00000000E+00
  0.00000000E+00  0.00000000E+00  0.00000000E+00
  0.00000000E+00  0.00000000E+00  0.00000000E+00
  0.00000000E+00  0.00000000E+00  0.00000000E+00
  0.00000000E+00  0.00000000E+00  0.00000000E+00
  0.00000000E+00  0.00000000E+00  0.00000000E+00
  0.00000000E+00  0.00000000E+00  0.00000000E+00
  0.00000000E+00  0.00000000E+00  0.00000000E+00
  0.00000000E+00  0.00000000E+00  0.00000000E+00
  0.00000000E+00  0.00000000E+00  0.00000000E+00
  0.00000000E+00  0.00000000E+00  0.00000000E+00
  0.00000000E+00  0.00000000E+00  0.00000000E+00
  0.00000000E+00  0.00000000E+00  0.00000000E+00
  0.00000000E+00  0.00000000E+00  0.00000000E+00
  0.00000000E+00  0.00000000E+00  0.00000000E+00
  0.00000000E+00  0.00000000E+00  0.00000000E+00
  0.00000000E+00  0.00000000E+00  0.00000000E+00
  0.00000000E+00  0.00000000E+00  0.00000000E+00
  0.00000000E+00  0.00000000E+00  0.00000000E+00
