Ag  C  H  F                             
    1.000000000000000     
    11.7702790000000004    0.0000000000000000    0.0000000000000000
     0.0000000000000000   11.7702790000000004    0.0000000000000000
     0.0000000000000000    0.0000000000000000   24.2421330600000005
   Ag   C    H    F 
    64     6     2     4
Selective dynamics
Direct
  0.0000000000000000  0.2499999991504041  0.3093787160328390   F   F   F
  0.7499999974512050  0.7499999974512050  0.3093787160328390   F   F   F
  0.0000000000000000  0.4999999983008081  0.3093787160328390   F   F   F
  0.0000000000000000  0.7499999974512050  0.3093787160328390   F   F   F
  0.0000000000000000  0.0000000000000000  0.3093787160328390   F   F   F
  0.2499999991504041  0.2499999991504041  0.3093787160328390   F   F   F
  0.2499999991504041  0.4999999983008081  0.3093787160328390   F   F   F
  0.7499999974512050  0.0000000000000000  0.3093787160328390   F   F   F
  0.2499999991504041  0.7499999974512050  0.3093787160328390   F   F   F
  0.2499999991504041  0.0000000000000000  0.3093787160328390   F   F   F
  0.4999999983008081  0.2499999991504041  0.3093787160328390   F   F   F
  0.4999999983008081  0.4999999983008081  0.3093787160328390   F   F   F
  0.4999999983008081  0.7499999974512050  0.3093787160328390   F   F   F
  0.4999999983008081  0.0000000000000000  0.3093787160328390   F   F   F
  0.7499999974512050  0.2499999991504041  0.3093787160328390   F   F   F
  0.7499999974512050  0.4999999983008081  0.3093787160328390   F   F   F
  0.0000093581383159  0.2499570183092310  0.4740673968261233   T   T   T
  0.9999986769877003  0.4999989866141608  0.4740927519136351   T   T   T
  0.9999883775861077  0.7500417930777711  0.4740670144916354   T   T   T
 -0.0000009189331098 -0.0000004645854696  0.4740939726684391   T   T   T
  0.2498980756114123  0.2498978520850574  0.4740707003888179   T   T   T
  0.2495295084010329  0.4998046281321369  0.4738651474986988   T   T   T
  0.2496107063169605  0.7503882360353819  0.4739515443504241   T   T   T
  0.2499569894062216  0.0000098897352070  0.4740670347514732   T   T   T
  0.4998065009645347  0.2495307711490504  0.4738661364869154   T   T   T
  0.5000002866685798  0.4999975273740799  0.4737090306987051   T   T   T
  0.5001920996614302  0.7504683899810640  0.4738653123848223   T   T   T
  0.4999991742159547 -0.0000006286907074  0.4740926958183465   T   T   T
  0.7503873790438146  0.2496112445279325  0.4739524707300586   T   T   T
  0.7504679625902697  0.5001915301024509  0.4738657746757770   T   T   T
  0.7501008312855612  0.7501008124089164  0.4740702557927324   T   T   T
  0.7500415692572915  0.9999890831299031  0.4740673129129600   T   T   T
  0.1250256754388193  0.1250259829483157  0.5522076603475977   T   T   T
  0.1250315166894423  0.3749107618796315  0.5521567615511571   T   T   T
  0.1250077222691896  0.6248712049099272  0.5521117906066956   T   T   T
  0.1248672412068396  0.8751310908876559  0.5521653261745088   T   T   T
  0.3749113411225873  0.1250319101511966  0.5521569906488543   T   T   T
  0.3751247189984199  0.3751234538811469  0.5516394171768082   T   T   T
  0.3748117177272732  0.6251815853743112  0.5508895540971258   T   T   T
  0.3751272024390280  0.8749899342536885  0.5521116770826424   T   T   T
  0.6248712893955827  0.1250081508846023  0.5521128095779114   T   T   T
  0.6251853423153552  0.3748124537904892  0.5508941442415537   T   T   T
  0.6248743579591738  0.6248740082668978  0.5516373543963528   T   T   T
  0.6250878205366656  0.8749672498426803  0.5521563996038427   T   T   T
  0.8751305203934190  0.1248678029099206  0.5521653619459747   T   T   T
  0.8749901380325787  0.3751270654533712  0.5521127467519219   T   T   T
  0.8749667270029338  0.6250873367374034  0.5521568309128997   T   T   T
  0.8749724841364189  0.8749728714818453  0.5522077725596057   T   T   T
  0.1249999995752020  0.1249999995752020  0.3952090765398992   F   F   F
  0.1249999995752020  0.3749999987256061  0.3952090765398992   F   F   F
  0.1249999995752020  0.6249999978760030  0.3952090765398992   F   F   F
  0.1249999995752020  0.8749999970264071  0.3952090765398992   F   F   F
  0.3749999987256061  0.1249999995752020  0.3952090765398992   F   F   F
  0.3749999987256061  0.3749999987256061  0.3952090765398992   F   F   F
  0.3749999987256061  0.6249999978760030  0.3952090765398992   F   F   F
  0.3749999987256061  0.8749999970264071  0.3952090765398992   F   F   F
  0.6249999978760030  0.1249999995752020  0.3952090765398992   F   F   F
  0.6249999978760030  0.3749999987256061  0.3952090765398992   F   F   F
  0.6249999978760030  0.6249999978760030  0.3952090765398992   F   F   F
  0.6249999978760030  0.8749999970264071  0.3952090765398992   F   F   F
  0.8749999970264071  0.1249999995752020  0.3952090765398992   F   F   F
  0.8749999970264071  0.3749999987256061  0.3952090765398992   F   F   F
  0.8749999970264071  0.6249999978760030  0.3952090765398992   F   F   F
  0.8749999970264071  0.8749999970264071  0.3952090765398992   F   F   F
  0.5847381821606773  0.5847638629236546  0.6752827874926808   T   T   T
  0.6138602931169652  0.4700855005363074  0.6755897562246485   T   T   T
  0.5299480491534175  0.3861373151616169  0.6755917208121406   T   T   T
  0.4152529224739098  0.4152757044518301  0.6753063782412382   T   T   T
  0.3861522825633842  0.5299236678387147  0.6755714076644115   T   T   T
  0.4700313615354668  0.6138625297209596  0.6755598713764276   T   T   T
  0.6502350279153528  0.6502532333241815  0.6758081033748150   T   T   T
  0.3498323801045283  0.3498168931259177  0.6758384869918720   T   T   T
  0.7246046220446567  0.4392581818163325  0.6764813018596592   T   T   T
  0.5608468068348049  0.2754931804454664  0.6764926055637418   T   T   T
  0.2755004907741964  0.5608020986465894  0.6764472950032163   T   T   T
  0.4392140194018113  0.7245662014394139  0.6764348580548427   T   T   T
 
  0.00000000E+00  0.00000000E+00  0.00000000E+00
  0.00000000E+00  0.00000000E+00  0.00000000E+00
  0.00000000E+00  0.00000000E+00  0.00000000E+00
  0.00000000E+00  0.00000000E+00  0.00000000E+00
  0.00000000E+00  0.00000000E+00  0.00000000E+00
  0.00000000E+00  0.00000000E+00  0.00000000E+00
  0.00000000E+00  0.00000000E+00  0.00000000E+00
  0.00000000E+00  0.00000000E+00  0.00000000E+00
  0.00000000E+00  0.00000000E+00  0.00000000E+00
  0.00000000E+00  0.00000000E+00  0.00000000E+00
  0.00000000E+00  0.00000000E+00  0.00000000E+00
  0.00000000E+00  0.00000000E+00  0.00000000E+00
  0.00000000E+00  0.00000000E+00  0.00000000E+00
  0.00000000E+00  0.00000000E+00  0.00000000E+00
  0.00000000E+00  0.00000000E+00  0.00000000E+00
  0.00000000E+00  0.00000000E+00  0.00000000E+00
  0.00000000E+00  0.00000000E+00  0.00000000E+00
  0.00000000E+00  0.00000000E+00  0.00000000E+00
  0.00000000E+00  0.00000000E+00  0.00000000E+00
  0.00000000E+00  0.00000000E+00  0.00000000E+00
  0.00000000E+00  0.00000000E+00  0.00000000E+00
  0.00000000E+00  0.00000000E+00  0.00000000E+00
  0.00000000E+00  0.00000000E+00  0.00000000E+00
  0.00000000E+00  0.00000000E+00  0.00000000E+00
  0.00000000E+00  0.00000000E+00  0.00000000E+00
  0.00000000E+00  0.00000000E+00  0.00000000E+00
  0.00000000E+00  0.00000000E+00  0.00000000E+00
  0.00000000E+00  0.00000000E+00  0.00000000E+00
  0.00000000E+00  0.00000000E+00  0.00000000E+00
  0.00000000E+00  0.00000000E+00  0.00000000E+00
  0.00000000E+00  0.00000000E+00  0.00000000E+00
  0.00000000E+00  0.00000000E+00  0.00000000E+00
  0.00000000E+00  0.00000000E+00  0.00000000E+00
  0.00000000E+00  0.00000000E+00  0.00000000E+00
  0.00000000E+00  0.00000000E+00  0.00000000E+00
  0.00000000E+00  0.00000000E+00  0.00000000E+00
  0.00000000E+00  0.00000000E+00  0.00000000E+00
  0.00000000E+00  0.00000000E+00  0.00000000E+00
  0.00000000E+00  0.00000000E+00  0.00000000E+00
  0.00000000E+00  0.00000000E+00  0.00000000E+00
  0.00000000E+00  0.00000000E+00  0.00000000E+00
  0.00000000E+00  0.00000000E+00  0.00000000E+00
  0.00000000E+00  0.00000000E+00  0.00000000E+00
  0.00000000E+00  0.00000000E+00  0.00000000E+00
  0.00000000E+00  0.00000000E+00  0.00000000E+00
  0.00000000E+00  0.00000000E+00  0.00000000E+00
  0.00000000E+00  0.00000000E+00  0.00000000E+00
  0.00000000E+00  0.00000000E+00  0.00000000E+00
  0.00000000E+00  0.00000000E+00  0.00000000E+00
  0.00000000E+00  0.00000000E+00  0.00000000E+00
  0.00000000E+00  0.00000000E+00  0.00000000E+00
  0.00000000E+00  0.00000000E+00  0.00000000E+00
  0.00000000E+00  0.00000000E+00  0.00000000E+00
  0.00000000E+00  0.00000000E+00  0.00000000E+00
  0.00000000E+00  0.00000000E+00  0.00000000E+00
  0.00000000E+00  0.00000000E+00  0.00000000E+00
  0.00000000E+00  0.00000000E+00  0.00000000E+00
  0.00000000E+00  0.00000000E+00  0.00000000E+00
  0.00000000E+00  0.00000000E+00  0.00000000E+00
  0.00000000E+00  0.00000000E+00  0.00000000E+00
  0.00000000E+00  0.00000000E+00  0.00000000E+00
  0.00000000E+00  0.00000000E+00  0.00000000E+00
  0.00000000E+00  0.00000000E+00  0.00000000E+00
  0.00000000E+00  0.00000000E+00  0.00000000E+00
  0.00000000E+00  0.00000000E+00  0.00000000E+00
  0.00000000E+00  0.00000000E+00  0.00000000E+00
  0.00000000E+00  0.00000000E+00  0.00000000E+00
  0.00000000E+00  0.00000000E+00  0.00000000E+00
  0.00000000E+00  0.00000000E+00  0.00000000E+00
  0.00000000E+00  0.00000000E+00  0.00000000E+00
  0.00000000E+00  0.00000000E+00  0.00000000E+00
  0.00000000E+00  0.00000000E+00  0.00000000E+00
  0.00000000E+00  0.00000000E+00  0.00000000E+00
  0.00000000E+00  0.00000000E+00  0.00000000E+00
  0.00000000E+00  0.00000000E+00  0.00000000E+00
  0.00000000E+00  0.00000000E+00  0.00000000E+00
