H2 Pd48 C6 Cl4                          
    1.000000000000000     
    11.1922750000000004    0.0000000000000000    0.0000000000000000
    -5.5961369999999997    9.6927939999999992    0.0000000000000000
     0.0000000000000000    0.0000000000000000   16.5713299999999997
   H    Pd   C    Cl
     2    48     6     4
Selective dynamics
Direct
  0.2489630205186728  0.2494851399743538  0.7916946056445369   T   T   T
  0.7513301330029947  0.5006318054079770  0.7916949427115014   T   T   T
  0.0833330000000032  0.1666669999999968  0.3620710000000003   F   F   F
  0.0833330000000032  0.4166669999999968  0.3620710000000003   F   F   F
  0.0833330000000032  0.6666669999999968  0.3620710000000003   F   F   F
  0.0833330000000032  0.9166669999999968  0.3620710000000003   F   F   F
  0.3333330000000032  0.1666669999999968  0.3620710000000003   F   F   F
  0.3333330000000032  0.4166669999999968  0.3620710000000003   F   F   F
  0.3333330000000032  0.6666669999999968  0.3620710000000003   F   F   F
  0.3333330000000032  0.9166669999999968  0.3620710000000003   F   F   F
  0.5833330000000032  0.1666669999999968  0.3620710000000003   F   F   F
  0.5833330000000032  0.4166669999999968  0.3620710000000003   F   F   F
  0.5833330000000032  0.6666669999999968  0.3620710000000003   F   F   F
  0.5833330000000032  0.9166669999999968  0.3620710000000003   F   F   F
  0.8333330000000032  0.1666669999999968  0.3620710000000003   F   F   F
  0.8333330000000032  0.4166669999999968  0.3620710000000003   F   F   F
  0.8333330000000032  0.6666669999999968  0.3620710000000003   F   F   F
  0.8333330000000032  0.9166669999999968  0.3620710000000003   F   F   F
  0.2466339145458534  0.9929819085587468  0.6348210179852103   T   T   T
  0.2569561964665894  0.2534814477238783  0.6400341209701494   T   T   T
  0.2466400529068835  0.5036631130838387  0.6348136806344868   T   T   T
  0.2480075701715592  0.7490066652139760  0.6336129470039324   T   T   T
  0.5006652546163366  0.9953763118621879  0.6317226449045492   T   T   T
  0.5021281652753657  0.2426261555967315  0.6383393520450511   T   T   T
  0.5021407893228300  0.5095089535007844  0.6383484217244373   T   T   T
  0.5006689817130763  0.7552940141930335  0.6317257878597857   T   T   T
  0.7539298660090239  0.0019678264711587  0.6337337892908650   T   T   T
  0.7554534245368885  0.2477756260596138  0.6355655004514631   T   T   T
  0.7481112629851907  0.4990580417329937  0.6406165677257505   T   T   T
  0.7554529912852814  0.7576851410579977  0.6355663332281196   T   T   T
  0.0032901736827782  0.0025546050364795  0.6346607493636611   T   T   T
  0.0032906093156200  0.2507515812640051  0.6346359827781924   T   T   T
  0.9988215107675416  0.5000804801045149  0.6349025043133381   T   T   T
  0.9988251608565193  0.7487474458681262  0.6349018237445350   T   T   T
  0.1688374297120916  0.0856238417492250  0.4998737703310994   T   T   T
  0.1688530593921556  0.3332132782747337  0.4998708887125787   T   T   T
  0.1650735602516278  0.5821287359226730  0.4975546288825612   T   T   T
  0.1650747983838059  0.8329552582320900  0.4975532954157060   T   T   T
  0.4167506784374027  0.0845181136702635  0.4987444213791719   T   T   T
  0.4184707286793596  0.3342310143724490  0.4989922648446878   T   T   T
  0.4167710817978403  0.5822461464468134  0.4987446374237692   T   T   T
  0.4156750028693637  0.8328396084516569  0.4962086423429142   T   T   T
  0.6673488218587167  0.0832840575903546  0.4973758984644903   T   T   T
  0.6664285866995741  0.3329119052031544  0.4998446241988077   T   T   T
  0.6664298987519928  0.5835184180156503  0.4998460967085094   T   T   T
  0.6673459721852382  0.8340640518112750  0.4973776244620538   T   T   T
  0.9185968085158791  0.0842920156839071  0.4978193246532854   T   T   T
  0.9163687900158592  0.3325763384104832  0.4983825396119670   T   T   T
  0.9129201559365612  0.5814637760988504  0.5002223352471518   T   T   T
  0.9163644555780905  0.8337964084756493  0.4983839598759232   T   T   T
  0.3466815373022740  0.2982969872507297  0.7583897665968848   T   T   T
  0.4259010280966606  0.4491144967064287  0.7613332036976388   T   T   T
  0.5742915541546267  0.5232411008959517  0.7612868747211152   T   T   T
  0.6537296686629830  0.4518761410070056  0.7581630719678216   T   T   T
  0.5742748712344294  0.3009937665424616  0.7612832769291344   T   T   T
  0.4258329829556828  0.2267618350483787  0.7613300267179426   T   T   T
  0.3346129951404109  0.5270569088171655  0.7977418275403423   T   T   T
  0.6657969448246774  0.6926326347879979  0.7977188051832727   T   T   T
  0.6657683018521467  0.2231254463030936  0.7976938674184950   T   T   T
  0.3345890480560811  0.0575199358808831  0.7977473227529046   T   T   T
 
  0.00000000E+00  0.00000000E+00  0.00000000E+00
  0.00000000E+00  0.00000000E+00  0.00000000E+00
  0.00000000E+00  0.00000000E+00  0.00000000E+00
  0.00000000E+00  0.00000000E+00  0.00000000E+00
  0.00000000E+00  0.00000000E+00  0.00000000E+00
  0.00000000E+00  0.00000000E+00  0.00000000E+00
  0.00000000E+00  0.00000000E+00  0.00000000E+00
  0.00000000E+00  0.00000000E+00  0.00000000E+00
  0.00000000E+00  0.00000000E+00  0.00000000E+00
  0.00000000E+00  0.00000000E+00  0.00000000E+00
  0.00000000E+00  0.00000000E+00  0.00000000E+00
  0.00000000E+00  0.00000000E+00  0.00000000E+00
  0.00000000E+00  0.00000000E+00  0.00000000E+00
  0.00000000E+00  0.00000000E+00  0.00000000E+00
  0.00000000E+00  0.00000000E+00  0.00000000E+00
  0.00000000E+00  0.00000000E+00  0.00000000E+00
  0.00000000E+00  0.00000000E+00  0.00000000E+00
  0.00000000E+00  0.00000000E+00  0.00000000E+00
  0.00000000E+00  0.00000000E+00  0.00000000E+00
  0.00000000E+00  0.00000000E+00  0.00000000E+00
  0.00000000E+00  0.00000000E+00  0.00000000E+00
  0.00000000E+00  0.00000000E+00  0.00000000E+00
  0.00000000E+00  0.00000000E+00  0.00000000E+00
  0.00000000E+00  0.00000000E+00  0.00000000E+00
  0.00000000E+00  0.00000000E+00  0.00000000E+00
  0.00000000E+00  0.00000000E+00  0.00000000E+00
  0.00000000E+00  0.00000000E+00  0.00000000E+00
  0.00000000E+00  0.00000000E+00  0.00000000E+00
  0.00000000E+00  0.00000000E+00  0.00000000E+00
  0.00000000E+00  0.00000000E+00  0.00000000E+00
  0.00000000E+00  0.00000000E+00  0.00000000E+00
  0.00000000E+00  0.00000000E+00  0.00000000E+00
  0.00000000E+00  0.00000000E+00  0.00000000E+00
  0.00000000E+00  0.00000000E+00  0.00000000E+00
  0.00000000E+00  0.00000000E+00  0.00000000E+00
  0.00000000E+00  0.00000000E+00  0.00000000E+00
  0.00000000E+00  0.00000000E+00  0.00000000E+00
  0.00000000E+00  0.00000000E+00  0.00000000E+00
  0.00000000E+00  0.00000000E+00  0.00000000E+00
  0.00000000E+00  0.00000000E+00  0.00000000E+00
  0.00000000E+00  0.00000000E+00  0.00000000E+00
  0.00000000E+00  0.00000000E+00  0.00000000E+00
  0.00000000E+00  0.00000000E+00  0.00000000E+00
  0.00000000E+00  0.00000000E+00  0.00000000E+00
  0.00000000E+00  0.00000000E+00  0.00000000E+00
  0.00000000E+00  0.00000000E+00  0.00000000E+00
  0.00000000E+00  0.00000000E+00  0.00000000E+00
  0.00000000E+00  0.00000000E+00  0.00000000E+00
  0.00000000E+00  0.00000000E+00  0.00000000E+00
  0.00000000E+00  0.00000000E+00  0.00000000E+00
  0.00000000E+00  0.00000000E+00  0.00000000E+00
  0.00000000E+00  0.00000000E+00  0.00000000E+00
  0.00000000E+00  0.00000000E+00  0.00000000E+00
  0.00000000E+00  0.00000000E+00  0.00000000E+00
  0.00000000E+00  0.00000000E+00  0.00000000E+00
  0.00000000E+00  0.00000000E+00  0.00000000E+00
  0.00000000E+00  0.00000000E+00  0.00000000E+00
  0.00000000E+00  0.00000000E+00  0.00000000E+00
  0.00000000E+00  0.00000000E+00  0.00000000E+00
  0.00000000E+00  0.00000000E+00  0.00000000E+00
