Pd48 C6 Cl2 H4                          
    1.000000000000000     
    11.1817229999999999    0.0000000000000000    0.0000000000000000
     0.0000000000000000   11.1817229999999999    0.0000000000000000
     0.0000000000000000    0.0000000000000000   16.9021466999999994
   Pd   C    Cl   H 
    48     6     2     4
Selective dynamics
Direct
  0.9994207650408313  0.2494984733115118  0.4105595430400939   T   T   T
  0.0000071811126006  0.4999978306456399  0.4099068175479701   T   T   T
  0.0005729495312039  0.7505001022270150  0.4105619619180700   T   T   T
  0.9999971660019185  0.0000011910467421  0.4100933539490512   T   T   T
  0.2502960718890890  0.2503143776105290  0.4112793971258597   T   T   T
  0.2520220110486733  0.5002769947215597  0.4121561248744428   T   T   T
  0.2520853647831842  0.7479109846303231  0.4118626673278953   T   T   T
  0.2494946607405595  0.9994194941385146  0.4105515707398624   T   T   T
  0.5002774369215857  0.2520351082702916  0.4121491730584310   T   T   T
  0.4999930805480730  0.5000015686136479  0.4118331083531643   T   T   T
  0.4997169065360865  0.7479787427761124  0.4121500680833208   T   T   T
  0.4999999383720279  0.9999969615254756  0.4098944533228845   T   T   T
  0.7479096870320276  0.2520842618561687  0.4118603591261945   T   T   T
  0.7479657004221991  0.4997253366289414  0.4121424631324970   T   T   T
  0.7496997575542750  0.7497002212205288  0.4112766989132766   T   T   T
  0.7505107817035395  0.0005722234789474  0.4105554690699691   T   T   T
  0.1238259412887928  0.1238333602508561  0.5257629194101057   T   T   T
  0.1226888641013701  0.3752407568654661  0.5260921754266619   T   T   T
  0.1234491477593949  0.6247310582374226  0.5258437192701422   T   T   T
  0.1254777558351279  0.8745170687687391  0.5263442555696827   T   T   T
  0.3752400602083412  0.1226962810540400  0.5260686801721164   T   T   T
  0.3704248369602752  0.3704428383624787  0.5306208044009395   T   T   T
  0.3734892130067067  0.6265066272625859  0.5348579466872039   T   T   T
  0.3752642443137617  0.8765554589009241  0.5258566004466800   T   T   T
  0.6247375240950745  0.1234327471037346  0.5258337966576718   T   T   T
  0.6265004498140527  0.3734781224720365  0.5348552572631817   T   T   T
  0.6295651364427997  0.6295623224722462  0.5306238213599173   T   T   T
  0.6247557281480027  0.8773101861045021  0.5260770212464081   T   T   T
  0.8745221499546432  0.1254853403987255  0.5263414652149621   T   T   T
  0.8765503341334409  0.3752658557262407  0.5258327063299504   T   T   T
  0.8773173743657239  0.6247471682978158  0.5260802831946023   T   T   T
  0.8761764537608485  0.8761756873743849  0.5257654082535836   T   T   T
  0.1249999995528412  0.1249999995528412  0.2958204119716967   F   F   F
  0.1249999995528412  0.3749999986585237  0.2958204119716967   F   F   F
  0.1249999995528412  0.6249999977642062  0.2958204119716967   F   F   F
  0.1249999995528412  0.8749999968698887  0.2958204119716967   F   F   F
  0.3749999986585237  0.1249999995528412  0.2958204119716967   F   F   F
  0.3749999986585237  0.3749999986585237  0.2958204119716967   F   F   F
  0.3749999986585237  0.6249999977642062  0.2958204119716967   F   F   F
  0.3749999986585237  0.8749999968698887  0.2958204119716967   F   F   F
  0.6249999977642062  0.1249999995528412  0.2958204119716967   F   F   F
  0.6249999977642062  0.3749999986585237  0.2958204119716967   F   F   F
  0.6249999977642062  0.6249999977642062  0.2958204119716967   F   F   F
  0.6249999977642062  0.8749999968698887  0.2958204119716967   F   F   F
  0.8749999968698887  0.1249999995528412  0.2958204119716967   F   F   F
  0.8749999968698887  0.3749999986585237  0.2958204119716967   F   F   F
  0.8749999968698887  0.6249999977642062  0.2958204119716967   F   F   F
  0.8749999968698887  0.8749999968698887  0.2958204119716967   F   F   F
  0.5920736455079236  0.5920619839722008  0.6478059529289908   T   T   T
  0.6247727129565988  0.4656802343630773  0.6506103104856322   T   T   T
  0.5343025648759152  0.3752560536771767  0.6505952303461058   T   T   T
  0.4079746632431167  0.4079716365843140  0.6477975958869280   T   T   T
  0.3752619180893646  0.5343219348335921  0.6505943587013832   T   T   T
  0.4656718434263780  0.6247283660406282  0.6505985544917223   T   T   T
  0.6888299094781303  0.6888287103086412  0.7008319420195406   T   T   T
  0.3111846795704665  0.3111739242317171  0.7008408120089626   T   T   T
  0.7134726607459640  0.4446247577087235  0.6736159384404914   T   T   T
  0.5553866897033899  0.2865078911719507  0.6736286471733521   T   T   T
  0.2865240636040980  0.5553870575753876  0.6736255238597835   T   T   T
  0.4446273284398998  0.7134994498622547  0.6736258577878758   T   T   T
 
  0.00000000E+00  0.00000000E+00  0.00000000E+00
  0.00000000E+00  0.00000000E+00  0.00000000E+00
  0.00000000E+00  0.00000000E+00  0.00000000E+00
  0.00000000E+00  0.00000000E+00  0.00000000E+00
  0.00000000E+00  0.00000000E+00  0.00000000E+00
  0.00000000E+00  0.00000000E+00  0.00000000E+00
  0.00000000E+00  0.00000000E+00  0.00000000E+00
  0.00000000E+00  0.00000000E+00  0.00000000E+00
  0.00000000E+00  0.00000000E+00  0.00000000E+00
  0.00000000E+00  0.00000000E+00  0.00000000E+00
  0.00000000E+00  0.00000000E+00  0.00000000E+00
  0.00000000E+00  0.00000000E+00  0.00000000E+00
  0.00000000E+00  0.00000000E+00  0.00000000E+00
  0.00000000E+00  0.00000000E+00  0.00000000E+00
  0.00000000E+00  0.00000000E+00  0.00000000E+00
  0.00000000E+00  0.00000000E+00  0.00000000E+00
  0.00000000E+00  0.00000000E+00  0.00000000E+00
  0.00000000E+00  0.00000000E+00  0.00000000E+00
  0.00000000E+00  0.00000000E+00  0.00000000E+00
  0.00000000E+00  0.00000000E+00  0.00000000E+00
  0.00000000E+00  0.00000000E+00  0.00000000E+00
  0.00000000E+00  0.00000000E+00  0.00000000E+00
  0.00000000E+00  0.00000000E+00  0.00000000E+00
  0.00000000E+00  0.00000000E+00  0.00000000E+00
  0.00000000E+00  0.00000000E+00  0.00000000E+00
  0.00000000E+00  0.00000000E+00  0.00000000E+00
  0.00000000E+00  0.00000000E+00  0.00000000E+00
  0.00000000E+00  0.00000000E+00  0.00000000E+00
  0.00000000E+00  0.00000000E+00  0.00000000E+00
  0.00000000E+00  0.00000000E+00  0.00000000E+00
  0.00000000E+00  0.00000000E+00  0.00000000E+00
  0.00000000E+00  0.00000000E+00  0.00000000E+00
  0.00000000E+00  0.00000000E+00  0.00000000E+00
  0.00000000E+00  0.00000000E+00  0.00000000E+00
  0.00000000E+00  0.00000000E+00  0.00000000E+00
  0.00000000E+00  0.00000000E+00  0.00000000E+00
  0.00000000E+00  0.00000000E+00  0.00000000E+00
  0.00000000E+00  0.00000000E+00  0.00000000E+00
  0.00000000E+00  0.00000000E+00  0.00000000E+00
  0.00000000E+00  0.00000000E+00  0.00000000E+00
  0.00000000E+00  0.00000000E+00  0.00000000E+00
  0.00000000E+00  0.00000000E+00  0.00000000E+00
  0.00000000E+00  0.00000000E+00  0.00000000E+00
  0.00000000E+00  0.00000000E+00  0.00000000E+00
  0.00000000E+00  0.00000000E+00  0.00000000E+00
  0.00000000E+00  0.00000000E+00  0.00000000E+00
  0.00000000E+00  0.00000000E+00  0.00000000E+00
  0.00000000E+00  0.00000000E+00  0.00000000E+00
  0.00000000E+00  0.00000000E+00  0.00000000E+00
  0.00000000E+00  0.00000000E+00  0.00000000E+00
  0.00000000E+00  0.00000000E+00  0.00000000E+00
  0.00000000E+00  0.00000000E+00  0.00000000E+00
  0.00000000E+00  0.00000000E+00  0.00000000E+00
  0.00000000E+00  0.00000000E+00  0.00000000E+00
  0.00000000E+00  0.00000000E+00  0.00000000E+00
  0.00000000E+00  0.00000000E+00  0.00000000E+00
  0.00000000E+00  0.00000000E+00  0.00000000E+00
  0.00000000E+00  0.00000000E+00  0.00000000E+00
  0.00000000E+00  0.00000000E+00  0.00000000E+00
  0.00000000E+00  0.00000000E+00  0.00000000E+00
