Cu  C  H Br                             
    1.000000000000000     
    10.2424774999999997    0.0000000000000000    0.0000000000000000
     0.0000000000000000   14.4850505999999992    0.0000000000000000
     0.0000000000000000    0.0000000000000000   21.8409290399999989
   Cu   C    H    Br
    64     6     2     4
Selective dynamics
Direct
  0.2499999995118358  0.2499999993096296  0.3433919860398049   F   F   F
  0.0000000000000000  0.7499999965481621  0.3433919860398049   F   F   F
  0.2499999995118358  0.4999999986192663  0.3433919860398049   F   F   F
  0.2499999995118358  0.7499999979288958  0.3433919860398049   F   F   F
  0.2499999995118358  0.0000000000000000  0.3433919860398049   F   F   F
  0.4999999990236716  0.2499999993096296  0.3433919860398049   F   F   F
  0.4999999990236716  0.4999999986192663  0.3433919860398049   F   F   F
  0.0000000000000000  0.0000000000000000  0.3433919860398049   F   F   F
  0.4999999990236716  0.7499999979288958  0.3433919860398049   F   F   F
  0.4999999990236716  0.0000000000000000  0.3433919860398049   F   F   F
  0.7499999985355075  0.2499999993096296  0.3433919860398049   F   F   F
  0.7499999985355075  0.4999999986192663  0.3433919860398049   F   F   F
  0.7499999985355075  0.7499999979288958  0.3433919860398049   F   F   F
  0.7499999985355075  0.0000000000000000  0.3433919860398049   F   F   F
  0.9999999980473504  0.2499999993096296  0.3433919860398049   F   F   F
  0.0000000000000000  0.4999999986192663  0.3433919860398049   F   F   F
  0.2498742757720260  0.2505663680860946  0.4619042842329260   T   T   T
  0.2506746458466484  0.5008189435804602  0.4595250818764655   T   T   T
  0.2504294783537591  0.7486618467018867  0.4614062979867973   T   T   T
  0.2501135348593787  0.9997647915085243  0.4619952540764156   T   T   T
  0.4993569912612610  0.2500970515157634  0.4605329013175987   T   T   T
  0.5000116229494164  0.4999915197808515  0.4588297858931989   T   T   T
  0.5006654426563674  0.7499005687073118  0.4605334549837953   T   T   T
  0.5000038115893560  0.0000061301695729  0.4619887059331323   T   T   T
  0.7495772491723408  0.2513331527669485  0.4614211396694176   T   T   T
  0.7493436834794005  0.4991564823130943  0.4595552899417534   T   T   T
  0.7501173575027328  0.7494235388033458  0.4619069912142748   T   T   T
  0.7498836799448333  0.0002508199028765  0.4620005567911736   T   T   T
  0.9997510806781721  0.2507241949321958  0.4618585415339782   T   T   T
 -0.0000042957214523  0.4999947224465265  0.4603409857443252   T   T   T
  0.0002496515916331  0.7492599497009323  0.4618522767280079   T   T   T
 -0.0000002294817044  0.0000089200997722  0.4619956120768280   T   T   T
  0.1249304520096051  0.1254145813942881  0.5163484630074123   T   T   T
  0.1247848503874039  0.3762425761071698  0.5161562273556799   T   T   T
  0.1253040655231784  0.6236915125925326  0.5169135466274877   T   T   T
  0.1251817779502066  0.8741476177576738  0.5162910423181326   T   T   T
  0.3748188874955290  0.1256375814027018  0.5161867441576941   T   T   T
  0.3743236341976820  0.3759332572866039  0.5162424386932767   T   T   T
  0.3781648580997158  0.6251696590204623  0.5180762640775110   T   T   T
  0.3751556088060268  0.8736071552414869  0.5163795523560925   T   T   T
  0.6248511567793804  0.1263992909316105  0.5163970915591727   T   T   T
  0.6218648009189086  0.3748344192559057  0.5180927341805465   T   T   T
  0.6256907371076209  0.6240477517609277  0.5162595064684167   T   T   T
  0.6251781540408268  0.8743757851038620  0.5161968479610224   T   T   T
  0.8748267251060080  0.1258562229049980  0.5162988610385225   T   T   T
  0.8747132183371171  0.3762900943451185  0.5169176254373322   T   T   T
  0.8752116794718068  0.6237443882695743  0.5161636106631465   T   T   T
  0.8750731738953077  0.8745876021093956  0.5163550236365514   T   T   T
  0.1250000002440785  0.1249999996548183  0.4020117305412967   F   F   F
  0.1250000002440785  0.3749999989644479  0.4020117305412967   F   F   F
  0.1250000002440785  0.6249999982740846  0.4020117305412967   F   F   F
  0.1250000002440785  0.8749999975837142  0.4020117305412967   F   F   F
  0.3749999997559215  0.1249999996548183  0.4020117305412967   F   F   F
  0.3749999997559215  0.3749999989644479  0.4020117305412967   F   F   F
  0.3749999997559215  0.6249999982740846  0.4020117305412967   F   F   F
  0.3749999997559215  0.8749999975837142  0.4020117305412967   F   F   F
  0.6249999982914289  0.1249999996548183  0.4020117305412967   F   F   F
  0.6249999992677573  0.3749999989644479  0.4020117305412967   F   F   F
  0.6249999992677573  0.6249999982740846  0.4020117305412967   F   F   F
  0.6249999992677573  0.8749999975837142  0.4020117305412967   F   F   F
  0.8749999987795931  0.1249999996548183  0.4020117305412967   F   F   F
  0.8749999978032648  0.3749999989644479  0.4020117305412967   F   F   F
  0.8749999987795931  0.6249999982740846  0.4020117305412967   F   F   F
  0.8749999987795931  0.8749999975837142  0.4020117305412967   F   F   F
  0.5789417394955658  0.5804399325317786  0.6126921978668209   T   T   T
  0.6347351180886449  0.4938386792141310  0.6171266111931227   T   T   T
  0.5639127519328034  0.4090182161629205  0.6063478340133959   T   T   T
  0.4209366606047699  0.4194808969363512  0.6126873102751723   T   T   T
  0.3651741567953981  0.5061081440482257  0.6170346027985917   T   T   T
  0.4360014300812116  0.5909247037175644  0.6062779552408187   T   T   T
  0.6361448077537327  0.6421278878075770  0.6236261110618014   T   T   T
  0.3637150009574062  0.3577818897399283  0.6235824401023412   T   T   T
  0.8205618352611420  0.4866611190943956  0.6255340218927667   T   T   T
  0.6271730444238610  0.2988218823699230  0.6526941873939521   T   T   T
  0.1792586029480031  0.5134037267655780  0.6251254441394234   T   T   T
  0.3728219864044583  0.7011594409293164  0.6527312779392559   T   T   T
 
  0.00000000E+00  0.00000000E+00  0.00000000E+00
  0.00000000E+00  0.00000000E+00  0.00000000E+00
  0.00000000E+00  0.00000000E+00  0.00000000E+00
  0.00000000E+00  0.00000000E+00  0.00000000E+00
  0.00000000E+00  0.00000000E+00  0.00000000E+00
  0.00000000E+00  0.00000000E+00  0.00000000E+00
  0.00000000E+00  0.00000000E+00  0.00000000E+00
  0.00000000E+00  0.00000000E+00  0.00000000E+00
  0.00000000E+00  0.00000000E+00  0.00000000E+00
  0.00000000E+00  0.00000000E+00  0.00000000E+00
  0.00000000E+00  0.00000000E+00  0.00000000E+00
  0.00000000E+00  0.00000000E+00  0.00000000E+00
  0.00000000E+00  0.00000000E+00  0.00000000E+00
  0.00000000E+00  0.00000000E+00  0.00000000E+00
  0.00000000E+00  0.00000000E+00  0.00000000E+00
  0.00000000E+00  0.00000000E+00  0.00000000E+00
  0.00000000E+00  0.00000000E+00  0.00000000E+00
  0.00000000E+00  0.00000000E+00  0.00000000E+00
  0.00000000E+00  0.00000000E+00  0.00000000E+00
  0.00000000E+00  0.00000000E+00  0.00000000E+00
  0.00000000E+00  0.00000000E+00  0.00000000E+00
  0.00000000E+00  0.00000000E+00  0.00000000E+00
  0.00000000E+00  0.00000000E+00  0.00000000E+00
  0.00000000E+00  0.00000000E+00  0.00000000E+00
  0.00000000E+00  0.00000000E+00  0.00000000E+00
  0.00000000E+00  0.00000000E+00  0.00000000E+00
  0.00000000E+00  0.00000000E+00  0.00000000E+00
  0.00000000E+00  0.00000000E+00  0.00000000E+00
  0.00000000E+00  0.00000000E+00  0.00000000E+00
  0.00000000E+00  0.00000000E+00  0.00000000E+00
  0.00000000E+00  0.00000000E+00  0.00000000E+00
  0.00000000E+00  0.00000000E+00  0.00000000E+00
  0.00000000E+00  0.00000000E+00  0.00000000E+00
  0.00000000E+00  0.00000000E+00  0.00000000E+00
  0.00000000E+00  0.00000000E+00  0.00000000E+00
  0.00000000E+00  0.00000000E+00  0.00000000E+00
  0.00000000E+00  0.00000000E+00  0.00000000E+00
  0.00000000E+00  0.00000000E+00  0.00000000E+00
  0.00000000E+00  0.00000000E+00  0.00000000E+00
  0.00000000E+00  0.00000000E+00  0.00000000E+00
  0.00000000E+00  0.00000000E+00  0.00000000E+00
  0.00000000E+00  0.00000000E+00  0.00000000E+00
  0.00000000E+00  0.00000000E+00  0.00000000E+00
  0.00000000E+00  0.00000000E+00  0.00000000E+00
  0.00000000E+00  0.00000000E+00  0.00000000E+00
  0.00000000E+00  0.00000000E+00  0.00000000E+00
  0.00000000E+00  0.00000000E+00  0.00000000E+00
  0.00000000E+00  0.00000000E+00  0.00000000E+00
  0.00000000E+00  0.00000000E+00  0.00000000E+00
  0.00000000E+00  0.00000000E+00  0.00000000E+00
  0.00000000E+00  0.00000000E+00  0.00000000E+00
  0.00000000E+00  0.00000000E+00  0.00000000E+00
  0.00000000E+00  0.00000000E+00  0.00000000E+00
  0.00000000E+00  0.00000000E+00  0.00000000E+00
  0.00000000E+00  0.00000000E+00  0.00000000E+00
  0.00000000E+00  0.00000000E+00  0.00000000E+00
  0.00000000E+00  0.00000000E+00  0.00000000E+00
  0.00000000E+00  0.00000000E+00  0.00000000E+00
  0.00000000E+00  0.00000000E+00  0.00000000E+00
  0.00000000E+00  0.00000000E+00  0.00000000E+00
  0.00000000E+00  0.00000000E+00  0.00000000E+00
  0.00000000E+00  0.00000000E+00  0.00000000E+00
  0.00000000E+00  0.00000000E+00  0.00000000E+00
  0.00000000E+00  0.00000000E+00  0.00000000E+00
  0.00000000E+00  0.00000000E+00  0.00000000E+00
  0.00000000E+00  0.00000000E+00  0.00000000E+00
  0.00000000E+00  0.00000000E+00  0.00000000E+00
  0.00000000E+00  0.00000000E+00  0.00000000E+00
  0.00000000E+00  0.00000000E+00  0.00000000E+00
  0.00000000E+00  0.00000000E+00  0.00000000E+00
  0.00000000E+00  0.00000000E+00  0.00000000E+00
  0.00000000E+00  0.00000000E+00  0.00000000E+00
  0.00000000E+00  0.00000000E+00  0.00000000E+00
  0.00000000E+00  0.00000000E+00  0.00000000E+00
  0.00000000E+00  0.00000000E+00  0.00000000E+00
  0.00000000E+00  0.00000000E+00  0.00000000E+00
