Pt  C  H Br                             
   1.00000000000000     
    11.2480069999999994    0.0000000000000000    0.0000000000000000
    -5.6240030000000001    9.7410599999999992    0.0000000000000000
     0.0000000000000000    0.0000000000000000   24.8879693399999979
   Pt   C    H    Br
    64     6     4     2
Selective dynamics
Direct
  0.9999999587182344  0.7499999743354451  0.3013504194553178   F   F   F
  0.2499999964438118  0.0000000000000000  0.3013504194553178   F   F   F
  0.2499999825579735  0.2499999917873410  0.3013504194553178   F   F   F
  0.2499999690478916  0.4999999825481041  0.3013504194553178   F   F   F
  0.2499999551620533  0.7499999743354451  0.3013504194553178   F   F   F
  0.4999999928876306  0.0000000000000000  0.3013504194553178   F   F   F
  0.4999999790017924  0.2499999917873410  0.3013504194553178   F   F   F
  0.4999999654917033  0.4999999825481041  0.3013504194553178   F   F   F
  0.7499999893314424  0.0000000000000000  0.3013504194553178   F   F   F
  0.7499999754456042  0.2499999917873410  0.3013504194553178   F   F   F
  0.7499999619355222  0.4999999825481041  0.3013504194553178   F   F   F
  0.7499999480496840  0.7499999743354451  0.3013504194553178   F   F   F
  0.0000000000000000  0.0000000000000000  0.3013504194553178   F   F   F
  0.9999999861141617  0.2499999917873410  0.3013504194553178   F   F   F
  0.9999999583793340  0.4999999825481041  0.3013504194553178   F   F   F
  0.4999999516058651  0.7499999743354451  0.3013504194553178   F   F   F
  0.0833330000000032  0.1666669999999968  0.3936034172243978   F   F   F
  0.0833330000000032  0.4166669999999968  0.3936034172243978   F   F   F
  0.0833330000000032  0.6666669999999968  0.3936034172243978   F   F   F
  0.0833330000000032  0.9166669999999968  0.3936034172243978   F   F   F
  0.3333330000000032  0.1666669999999968  0.3936034172243978   F   F   F
  0.3333330000000032  0.4166669999999968  0.3936034172243978   F   F   F
  0.3333330000000032  0.6666669999999968  0.3936034172243978   F   F   F
  0.3333330000000032  0.9166669999999968  0.3936034172243978   F   F   F
  0.5833330000000032  0.1666669999999968  0.3936034172243978   F   F   F
  0.5833330000000032  0.4166669999999968  0.3936034172243978   F   F   F
  0.5833330000000032  0.6666669999999968  0.3936034172243978   F   F   F
  0.5833330000000032  0.9166669999999968  0.3936034172243978   F   F   F
  0.8333330000000032  0.1666669999999968  0.3936034172243978   F   F   F
  0.8333330000000032  0.4166669999999968  0.3936034172243978   F   F   F
  0.8333330000000032  0.6666669999999968  0.3936034172243978   F   F   F
  0.8333330000000032  0.9166669999999968  0.3936034172243978   F   F   F
  0.2496944609864146  0.2498432101255209  0.5789893562351731   T   T   T
  0.2494579871950936  0.4998587472202056  0.5786583503847885   T   T   T
  0.2496464210856151  0.7501589019233315  0.5784595157131990   T   T   T
  0.2498139093551579  0.0001621283608415  0.5788889157870550   T   T   T
  0.4998462427561018  0.2500075860893852  0.5786278772774234   T   T   T
  0.4989853121820051  0.4994898929719831  0.5789662169590450   T   T   T
  0.4995157142303129  0.7504752216646959  0.5776011001398691   T   T   T
  0.4998235706747293  0.0003345919717778  0.5784599612422479   T   T   T
  0.7498137401966354  0.2499809377115312  0.5784323626759100   T   T   T
  0.7501503765076165  0.4998422707668679  0.5775789450652667   T   T   T
  0.7505171642813455  0.7509984900353794  0.5789670617817815   T   T   T
  0.7501343219776830  0.0005337433335450  0.5786627872454174   T   T   T
 -0.0000939891091708  0.2500856093947247  0.5787975222561690   T   T   T
  0.0000339537149125  0.5001872930634552  0.5784319131534026   T   T   T
 -0.0000096503616969  0.7501452380125080  0.5786306084633416   T   T   T
  0.0001319644732988  0.0002895071398386  0.5789886590873805   T   T   T
  0.1665621308958773  0.0834305513601873  0.4855067718625470   T   T   T
  0.1665319030817245  0.3331762606406347  0.4855033642465433   T   T   T
  0.1669825818616045  0.5835742280382809  0.4853363874065765   T   T   T
  0.1665593210294990  0.8336956874312212  0.4854123473786218   T   T   T
  0.4163042030850118  0.0834361179612968  0.4854137105759473   T   T   T
  0.4166913851038492  0.3335957576740023  0.4854904923518544   T   T   T
  0.4164999688288602  0.5830223872332781  0.4853246533169558   T   T   T
  0.4164069090870595  0.8335870902556793  0.4849032103602697   T   T   T
  0.6664286151328189  0.0830116630352405  0.4853385733455914   T   T   T
  0.6664175811190912  0.3329741009305484  0.4850133111738665   T   T   T
  0.6664266877945629  0.5835702338333854  0.4855312043535940   T   T   T
  0.6669750831948318  0.8334976719302127  0.4853261999152423   T   T   T
  0.9168326470768835  0.0834774840615757  0.4855031976961839   T   T   T
  0.9166464237791634  0.3333540601141430  0.4853957456574938   T   T   T
  0.9170211639800007  0.5835755062740123  0.4850137845398845   T   T   T
  0.9163966100031328  0.8333035316461868  0.4854861867105358   T   T   T
  0.6961455074563142  0.5539656784419963  0.7035540557772022   T   T   T
  0.5528620419823796  0.4808529684652225  0.7017155692653316   T   T   T
  0.4809405368082563  0.5528136301325072  0.7015555596157396   T   T   T
  0.5540556414392456  0.6959522583533709  0.7032657178766177   T   T   T
  0.6972814921080612  0.7690855382989616  0.7015522606047017   T   T   T
  0.7691877725415317  0.6971177989789865  0.7017164843109929   T   T   T
  0.4965047620753852  0.3690035865145293  0.7005351279104024   T   T   T
  0.3691476832331375  0.4965563238406778  0.7002684728897693   T   T   T
  0.7536030937319366  0.8809649705738558  0.7002737340987063   T   T   T
  0.8810170696040543  0.7535002882652586  0.7005495177728416   T   T   T
  0.7937855408207259  0.4561328453620795  0.7063750978647333   T   T   T
  0.4561200665471326  0.7936913782025817  0.7057665790283774   T   T   T
 
  0.00000000E+00  0.00000000E+00  0.00000000E+00
  0.00000000E+00  0.00000000E+00  0.00000000E+00
  0.00000000E+00  0.00000000E+00  0.00000000E+00
  0.00000000E+00  0.00000000E+00  0.00000000E+00
  0.00000000E+00  0.00000000E+00  0.00000000E+00
  0.00000000E+00  0.00000000E+00  0.00000000E+00
  0.00000000E+00  0.00000000E+00  0.00000000E+00
  0.00000000E+00  0.00000000E+00  0.00000000E+00
  0.00000000E+00  0.00000000E+00  0.00000000E+00
  0.00000000E+00  0.00000000E+00  0.00000000E+00
  0.00000000E+00  0.00000000E+00  0.00000000E+00
  0.00000000E+00  0.00000000E+00  0.00000000E+00
  0.00000000E+00  0.00000000E+00  0.00000000E+00
  0.00000000E+00  0.00000000E+00  0.00000000E+00
  0.00000000E+00  0.00000000E+00  0.00000000E+00
  0.00000000E+00  0.00000000E+00  0.00000000E+00
  0.00000000E+00  0.00000000E+00  0.00000000E+00
  0.00000000E+00  0.00000000E+00  0.00000000E+00
  0.00000000E+00  0.00000000E+00  0.00000000E+00
  0.00000000E+00  0.00000000E+00  0.00000000E+00
  0.00000000E+00  0.00000000E+00  0.00000000E+00
  0.00000000E+00  0.00000000E+00  0.00000000E+00
  0.00000000E+00  0.00000000E+00  0.00000000E+00
  0.00000000E+00  0.00000000E+00  0.00000000E+00
  0.00000000E+00  0.00000000E+00  0.00000000E+00
  0.00000000E+00  0.00000000E+00  0.00000000E+00
  0.00000000E+00  0.00000000E+00  0.00000000E+00
  0.00000000E+00  0.00000000E+00  0.00000000E+00
  0.00000000E+00  0.00000000E+00  0.00000000E+00
  0.00000000E+00  0.00000000E+00  0.00000000E+00
  0.00000000E+00  0.00000000E+00  0.00000000E+00
  0.00000000E+00  0.00000000E+00  0.00000000E+00
  0.00000000E+00  0.00000000E+00  0.00000000E+00
  0.00000000E+00  0.00000000E+00  0.00000000E+00
  0.00000000E+00  0.00000000E+00  0.00000000E+00
  0.00000000E+00  0.00000000E+00  0.00000000E+00
  0.00000000E+00  0.00000000E+00  0.00000000E+00
  0.00000000E+00  0.00000000E+00  0.00000000E+00
  0.00000000E+00  0.00000000E+00  0.00000000E+00
  0.00000000E+00  0.00000000E+00  0.00000000E+00
  0.00000000E+00  0.00000000E+00  0.00000000E+00
  0.00000000E+00  0.00000000E+00  0.00000000E+00
  0.00000000E+00  0.00000000E+00  0.00000000E+00
  0.00000000E+00  0.00000000E+00  0.00000000E+00
  0.00000000E+00  0.00000000E+00  0.00000000E+00
  0.00000000E+00  0.00000000E+00  0.00000000E+00
  0.00000000E+00  0.00000000E+00  0.00000000E+00
  0.00000000E+00  0.00000000E+00  0.00000000E+00
  0.00000000E+00  0.00000000E+00  0.00000000E+00
  0.00000000E+00  0.00000000E+00  0.00000000E+00
  0.00000000E+00  0.00000000E+00  0.00000000E+00
  0.00000000E+00  0.00000000E+00  0.00000000E+00
  0.00000000E+00  0.00000000E+00  0.00000000E+00
  0.00000000E+00  0.00000000E+00  0.00000000E+00
  0.00000000E+00  0.00000000E+00  0.00000000E+00
  0.00000000E+00  0.00000000E+00  0.00000000E+00
  0.00000000E+00  0.00000000E+00  0.00000000E+00
  0.00000000E+00  0.00000000E+00  0.00000000E+00
  0.00000000E+00  0.00000000E+00  0.00000000E+00
  0.00000000E+00  0.00000000E+00  0.00000000E+00
  0.00000000E+00  0.00000000E+00  0.00000000E+00
  0.00000000E+00  0.00000000E+00  0.00000000E+00
  0.00000000E+00  0.00000000E+00  0.00000000E+00
  0.00000000E+00  0.00000000E+00  0.00000000E+00
  0.00000000E+00  0.00000000E+00  0.00000000E+00
  0.00000000E+00  0.00000000E+00  0.00000000E+00
  0.00000000E+00  0.00000000E+00  0.00000000E+00
  0.00000000E+00  0.00000000E+00  0.00000000E+00
  0.00000000E+00  0.00000000E+00  0.00000000E+00
  0.00000000E+00  0.00000000E+00  0.00000000E+00
  0.00000000E+00  0.00000000E+00  0.00000000E+00
  0.00000000E+00  0.00000000E+00  0.00000000E+00
  0.00000000E+00  0.00000000E+00  0.00000000E+00
  0.00000000E+00  0.00000000E+00  0.00000000E+00
  0.00000000E+00  0.00000000E+00  0.00000000E+00
  0.00000000E+00  0.00000000E+00  0.00000000E+00
