Pt  C  H  F                             
    1.000000000000000     
    11.2480068000000006    0.0000000000000000    0.0000000000000000
     0.0000000000000000   15.9070838000000006    0.0000000000000000
     0.0000000000000000    0.0000000000000000   22.2180025631249976
   Pt   C    H    F 
    64     6     4     2
Selective dynamics
Direct
  0.2500000008890453  0.2500000006286527  0.3375640982438100   F   F   F
  0.2500000008890453  0.5000000006286527  0.3375640982438100   F   F   F
  0.2500000008890453  0.7500000012572983  0.3375640982438100   F   F   F
  0.2500000008890453  0.0000000000000000  0.3375640982438100   F   F   F
  0.5000000017780906  0.5000000006286527  0.3375640982438100   F   F   F
  0.0000000035561882  0.0000000000000000  0.3375640982438100   F   F   F
  0.5000000017780906  0.7500000012572983  0.3375640982438100   F   F   F
  0.5000000017780906  0.0000000000000000  0.3375640982438100   F   F   F
  0.7500000026671358  0.0000000000000000  0.3375640982438100   F   F   F
  0.0000000035561882  0.7500000012572983  0.3375640982438100   F   F   F
  0.5000000017780906  0.2500000006286527  0.3375640982438100   F   F   F
  0.7500000026671358  0.2500000006286527  0.3375640982438100   F   F   F
  0.7500000026671358  0.5000000006286527  0.3375640982438100   F   F   F
  0.7500000026671358  0.7500000012572983  0.3375640982438100   F   F   F
  0.0000000035561882  0.2500000006286527  0.3375640982438100   F   F   F
  0.0000000035561882  0.5000000006286527  0.3375640982438100   F   F   F
  0.2495700582713179  0.2509493108935208  0.4679701777414302   T   T   T
  0.2470417958104912  0.4998665110532933  0.4660443462316804   T   T   T
  0.2524286097282923  0.7468599458519430  0.4693200488369613   T   T   T
  0.2499395310244627  0.0001057524964900  0.4679945122401111   T   T   T
  0.5003105074323090  0.2523549093881777  0.4687796590152328   T   T   T
  0.5000003215045459  0.5000059557140595  0.4637524454574040   T   T   T
  0.4996975532218179  0.7476475573236470  0.4687731084057842   T   T   T
  0.5000114289754042  0.0000129179689571  0.4679230007623539   T   T   T
  0.7475739075516191  0.2531480612994021  0.4693247947083532   T   T   T
  0.7529675523006113  0.5001442599876863  0.4660456555998748   T   T   T
  0.7504451594166440  0.7490651210665965  0.4679659939635604   T   T   T
  0.7500694560943878 -0.0000895704478247  0.4679998029376667   T   T   T
  0.9984166888576472  0.2503126465819663  0.4679056260542683   T   T   T
 -0.0000060588274913  0.5000018193870540  0.4682024106833826   T   T   T
  0.0015973024197988  0.7496951459706666  0.4679065160106188   T   T   T
  0.0000035646201140  0.0000033984946378  0.4682629700280779   T   T   T
  0.1245233121007811  0.1259101526681174  0.5254339011488357   T   T   T
  0.1224221318248757  0.3748262303967198  0.5260618625262795   T   T   T
  0.1261335078115431  0.6245221617141824  0.5264829657123625   T   T   T
  0.1270898697414100  0.8739285023754088  0.5252425720529452   T   T   T
  0.3752047168032794  0.1261771678509776  0.5252179417615925   T   T   T
  0.3704203449354797  0.3789450171742669  0.5265674790587455   T   T   T
  0.3776792299484747  0.6157146656319760  0.5309624050221482   T   T   T
  0.3760335958198926  0.8740002804383658  0.5254737090586731   T   T   T
  0.6239731564631850  0.1260190954654581  0.5254905172566553   T   T   T
  0.6223149816557524  0.3842977032427748  0.5309700901823754   T   T   T
  0.6296054203682403  0.6210777737790928  0.5265730759915044   T   T   T
  0.6248031486337190  0.8738260187920405  0.5252225533241996   T   T   T
  0.8729322301834922  0.1260831484429113  0.5252478403444912   T   T   T
  0.8738749127069818  0.3754858132804463  0.5264825930600262   T   T   T
  0.8775726706940666  0.6251918062961898  0.5260619069112811   T   T   T
  0.8754975238715348  0.8740934477426138  0.5254360277826966   T   T   T
  0.1250000000000000  0.1250000003143228  0.4008461529820977   F   F   F
  0.1250000000000000  0.3750000003143228  0.4008461529820977   F   F   F
  0.1250000008890453  0.6250000009429755  0.4008461529820977   F   F   F
  0.1250000008890453  0.8750000009429755  0.4008461529820977   F   F   F
  0.3750000008890453  0.1250000003143228  0.4008461529820977   F   F   F
  0.3750000008890453  0.3750000003143228  0.4008461529820977   F   F   F
  0.3750000008890453  0.6250000009429755  0.4008461529820977   F   F   F
  0.3750000008890453  0.8750000009429755  0.4008461529820977   F   F   F
  0.6250000017780906  0.1250000003143228  0.4008461529820977   F   F   F
  0.6250000017780906  0.3750000003143228  0.4008461529820977   F   F   F
  0.6250000017780906  0.6250000009429755  0.4008461529820977   F   F   F
  0.6250000026671358  0.8750000009429755  0.4008461529820977   F   F   F
  0.8750000026671358  0.1250000003143228  0.4008461529820977   F   F   F
  0.8750000026671358  0.3750000003143228  0.4008461529820977   F   F   F
  0.8750000035561882  0.6250000009429755  0.4008461529820977   F   F   F
  0.8750000026671358  0.8750000009429755  0.4008461529820977   F   F   F
  0.4005601132021400  0.4385106245384404  0.6064271113127362   T   T   T
  0.3769028685069278  0.5318807904004088  0.6081509280372809   T   T   T
  0.4738616286306762  0.5897503557232325  0.6144632965260569   T   T   T
  0.5994351923615471  0.5615443388884543  0.6064218734215183   T   T   T
  0.6231380402066782  0.4681694689083360  0.6081662335962663   T   T   T
  0.5260880293699486  0.4103100784758050  0.6144675443504261   T   T   T
  0.2929406592734812  0.5460810993302165  0.6307710682979273   T   T   T
  0.4640287608768295  0.6465197371066836  0.6417623000262688   T   T   T
  0.7070808630106978  0.4540026109670935  0.6307752909178994   T   T   T
  0.5359840963630801  0.3535765318072972  0.6417938237329548   T   T   T
  0.3286495535902333  0.4012587593080730  0.6511646801603809   T   T   T
  0.6714316834215399  0.5988562469106326  0.6512022653592419   T   T   T
 
  0.00000000E+00  0.00000000E+00  0.00000000E+00
  0.00000000E+00  0.00000000E+00  0.00000000E+00
  0.00000000E+00  0.00000000E+00  0.00000000E+00
  0.00000000E+00  0.00000000E+00  0.00000000E+00
  0.00000000E+00  0.00000000E+00  0.00000000E+00
  0.00000000E+00  0.00000000E+00  0.00000000E+00
  0.00000000E+00  0.00000000E+00  0.00000000E+00
  0.00000000E+00  0.00000000E+00  0.00000000E+00
  0.00000000E+00  0.00000000E+00  0.00000000E+00
  0.00000000E+00  0.00000000E+00  0.00000000E+00
  0.00000000E+00  0.00000000E+00  0.00000000E+00
  0.00000000E+00  0.00000000E+00  0.00000000E+00
  0.00000000E+00  0.00000000E+00  0.00000000E+00
  0.00000000E+00  0.00000000E+00  0.00000000E+00
  0.00000000E+00  0.00000000E+00  0.00000000E+00
  0.00000000E+00  0.00000000E+00  0.00000000E+00
  0.00000000E+00  0.00000000E+00  0.00000000E+00
  0.00000000E+00  0.00000000E+00  0.00000000E+00
  0.00000000E+00  0.00000000E+00  0.00000000E+00
  0.00000000E+00  0.00000000E+00  0.00000000E+00
  0.00000000E+00  0.00000000E+00  0.00000000E+00
  0.00000000E+00  0.00000000E+00  0.00000000E+00
  0.00000000E+00  0.00000000E+00  0.00000000E+00
  0.00000000E+00  0.00000000E+00  0.00000000E+00
  0.00000000E+00  0.00000000E+00  0.00000000E+00
  0.00000000E+00  0.00000000E+00  0.00000000E+00
  0.00000000E+00  0.00000000E+00  0.00000000E+00
  0.00000000E+00  0.00000000E+00  0.00000000E+00
  0.00000000E+00  0.00000000E+00  0.00000000E+00
  0.00000000E+00  0.00000000E+00  0.00000000E+00
  0.00000000E+00  0.00000000E+00  0.00000000E+00
  0.00000000E+00  0.00000000E+00  0.00000000E+00
  0.00000000E+00  0.00000000E+00  0.00000000E+00
  0.00000000E+00  0.00000000E+00  0.00000000E+00
  0.00000000E+00  0.00000000E+00  0.00000000E+00
  0.00000000E+00  0.00000000E+00  0.00000000E+00
  0.00000000E+00  0.00000000E+00  0.00000000E+00
  0.00000000E+00  0.00000000E+00  0.00000000E+00
  0.00000000E+00  0.00000000E+00  0.00000000E+00
  0.00000000E+00  0.00000000E+00  0.00000000E+00
  0.00000000E+00  0.00000000E+00  0.00000000E+00
  0.00000000E+00  0.00000000E+00  0.00000000E+00
  0.00000000E+00  0.00000000E+00  0.00000000E+00
  0.00000000E+00  0.00000000E+00  0.00000000E+00
  0.00000000E+00  0.00000000E+00  0.00000000E+00
  0.00000000E+00  0.00000000E+00  0.00000000E+00
  0.00000000E+00  0.00000000E+00  0.00000000E+00
  0.00000000E+00  0.00000000E+00  0.00000000E+00
  0.00000000E+00  0.00000000E+00  0.00000000E+00
  0.00000000E+00  0.00000000E+00  0.00000000E+00
  0.00000000E+00  0.00000000E+00  0.00000000E+00
  0.00000000E+00  0.00000000E+00  0.00000000E+00
  0.00000000E+00  0.00000000E+00  0.00000000E+00
  0.00000000E+00  0.00000000E+00  0.00000000E+00
  0.00000000E+00  0.00000000E+00  0.00000000E+00
  0.00000000E+00  0.00000000E+00  0.00000000E+00
  0.00000000E+00  0.00000000E+00  0.00000000E+00
  0.00000000E+00  0.00000000E+00  0.00000000E+00
  0.00000000E+00  0.00000000E+00  0.00000000E+00
  0.00000000E+00  0.00000000E+00  0.00000000E+00
  0.00000000E+00  0.00000000E+00  0.00000000E+00
  0.00000000E+00  0.00000000E+00  0.00000000E+00
  0.00000000E+00  0.00000000E+00  0.00000000E+00
  0.00000000E+00  0.00000000E+00  0.00000000E+00
  0.00000000E+00  0.00000000E+00  0.00000000E+00
  0.00000000E+00  0.00000000E+00  0.00000000E+00
  0.00000000E+00  0.00000000E+00  0.00000000E+00
  0.00000000E+00  0.00000000E+00  0.00000000E+00
  0.00000000E+00  0.00000000E+00  0.00000000E+00
  0.00000000E+00  0.00000000E+00  0.00000000E+00
  0.00000000E+00  0.00000000E+00  0.00000000E+00
  0.00000000E+00  0.00000000E+00  0.00000000E+00
  0.00000000E+00  0.00000000E+00  0.00000000E+00
  0.00000000E+00  0.00000000E+00  0.00000000E+00
  0.00000000E+00  0.00000000E+00  0.00000000E+00
  0.00000000E+00  0.00000000E+00  0.00000000E+00
