Pt  C Br                                
   1.00000000000000     
    11.2480001450000007    0.0000000000000000    0.0000000000000000
     0.0000000000000000   11.2480001450000007    0.0000000000000000
     0.0000000000000000    0.0000000000000000   23.9652004241999990
   Pt   C    Br
    64     6     6
Selective dynamics
Direct
  0.2499999999777742  0.0000000000000000  0.3129499852805964   F   F   F
  0.0000000000000000  0.4999999999555484  0.3129499852805964   F   F   F
  0.2499999999777742  0.2499999999777742  0.3129499852805964   F   F   F
  0.2499999999777742  0.4999999999555484  0.3129499852805964   F   F   F
  0.2499999999777742  0.7500000000222258  0.3129499852805964   F   F   F
  0.4999999999555484  0.0000000000000000  0.3129499852805964   F   F   F
  0.4999999999555484  0.2499999999777742  0.3129499852805964   F   F   F
  0.0000000000000000  0.7500000000222258  0.3129499852805964   F   F   F
  0.4999999999555484  0.4999999999555484  0.3129499852805964   F   F   F
  0.4999999999555484  0.7500000000222258  0.3129499852805964   F   F   F
  0.7500000000222258  0.0000000000000000  0.3129499852805964   F   F   F
  0.7500000000222258  0.2499999999777742  0.3129499852805964   F   F   F
  0.7500000000222258  0.4999999999555484  0.3129499852805964   F   F   F
  0.7500000000222258  0.7500000000222258  0.3129499852805964   F   F   F
  0.0000000000000000  0.0000000000000000  0.3129499852805964   F   F   F
  0.0000000000000000  0.2499999999777742  0.3129499852805964   F   F   F
  0.2506521378797554  0.0009129578839882  0.4786409034401663   T   T   T
  0.2496671407571940  0.2495289933887601  0.4784795930280838   T   T   T
  0.2483792113362270  0.5000898249297426  0.4778837940422476   T   T   T
  0.2494513406980523  0.7510446730845878  0.4780695280393444   T   T   T
  0.4999091600845849  0.0005743384281903  0.4787795155639599   T   T   T
  0.4999624453259251  0.2483393451617129  0.4779877216399005   T   T   T
  0.5002968033707889  0.5003040330752002  0.4769815184941579   T   T   T
  0.5001351644193823  0.7516827705658528  0.4778550975289396   T   T   T
  0.7498262837800767  0.0000177305481775  0.4784491550436881   T   T   T
  0.7508217538423978  0.2494835842222200  0.4781362704640427   T   T   T
  0.7515792467794715  0.5000782677844652  0.4778413048150905   T   T   T
  0.7504979905981360  0.7507421488361372  0.4781852598474531   T   T   T
  0.0002020577151300  0.0001906425382078  0.4782004756208609   T   T   T
  0.0006913923527989  0.2505367313921709  0.4785622683218060   T   T   T
  0.0004007187458329  0.4999347269419082  0.4786342920632279   T   T   T
 -0.0001304451825600  0.7500025687559146  0.4783472371074141   T   T   T
  0.1246144306480284  0.1245408936918726  0.5605064970208017   T   T   T
  0.1246270944710143  0.3749972256433439  0.5617852642658430   T   T   T
  0.1250113219537243  0.6261053667546944  0.5604747891755267   T   T   T
  0.1249828670998592  0.8753783627067496  0.5603828808424871   T   T   T
  0.3748788697507957  0.1251119262562180  0.5621589279073694   T   T   T
  0.3755431926540337  0.3761440231625817  0.5577826327651063   T   T   T
  0.3755270289477357  0.6251184230445372  0.5583637043014335   T   T   T
  0.3746068075562303  0.8752319640762867  0.5604699119128466   T   T   T
  0.6261782478023830  0.1251933446058731  0.5606828955692744   T   T   T
  0.6246948245299049  0.3754584368563256  0.5583675571800274   T   T   T
  0.6248894248338592  0.6246312626517335  0.5582657180158610   T   T   T
  0.6252845462202635  0.8754210666817829  0.5608105635179615   T   T   T
  0.8756417936583484  0.1250428806719992  0.5604467517477389   T   T   T
  0.8749116165649973  0.3746324319290562  0.5603648941118651   T   T   T
  0.8755177092357710  0.6255535478625966  0.5606737589984577   T   T   T
  0.8753831474451494  0.8755559756568173  0.5602899026080272   T   T   T
  0.1249999999888871  0.1249999999888871  0.3959200084310055   F   F   F
  0.1249999999888871  0.3749999999666613  0.3959200084310055   F   F   F
  0.1249999999888871  0.6250000000333387  0.3959200084310055   F   F   F
  0.1249999999888871  0.8750000000111129  0.3959200084310055   F   F   F
  0.3749999999666613  0.1249999999888871  0.3959200084310055   F   F   F
  0.3749999999666613  0.3749999999666613  0.3959200084310055   F   F   F
  0.3749999999666613  0.6250000000333387  0.3959200084310055   F   F   F
  0.3749999999666613  0.8750000000111129  0.3959200084310055   F   F   F
  0.6250000000333387  0.1249999999888871  0.3959200084310055   F   F   F
  0.6250000000333387  0.3749999999666613  0.3959200084310055   F   F   F
  0.6250000000333387  0.6250000000333387  0.3959200084310055   F   F   F
  0.6250000000333387  0.8750000000111129  0.3959200084310055   F   F   F
  0.8750000000111129  0.1249999999888871  0.3959200084310055   F   F   F
  0.8750000000111129  0.3749999999666613  0.3959200084310055   F   F   F
  0.8750000000111129  0.6250000000333387  0.3959200084310055   F   F   F
  0.8750000000111129  0.8750000000111129  0.3959200084310055   F   F   F
  0.5209411500293458  0.6041567454762091  0.6913710917437352   T   T   T
  0.6088567811244908  0.5150899036614252  0.6913674153603242   T   T   T
  0.5759000697551304  0.3942121880165232  0.6906741795208705   T   T   T
  0.4547585229527516  0.3623785607864556  0.6901329255942535   T   T   T
  0.3666939505523212  0.4515708179562883  0.6904184343790239   T   T   T
  0.3999023774387182  0.5723064426446041  0.6909660751900925   T   T   T
  0.5653465957921358  0.7664682974404498  0.6909202938634547   T   T   T
  0.7712568045424385  0.5581439440089210  0.6916275462501295   T   T   T
  0.6947737502561904  0.2749771903293943  0.6909934419002581   T   T   T
  0.4100392383239590  0.2000774555872746  0.6884895251636010   T   T   T
  0.2036152490910227  0.4097592889157758  0.6898216768576849   T   T   T
  0.2818417179986564  0.6921495268827368  0.6906066731887801   T   T   T
 
  0.00000000E+00  0.00000000E+00  0.00000000E+00
  0.00000000E+00  0.00000000E+00  0.00000000E+00
  0.00000000E+00  0.00000000E+00  0.00000000E+00
  0.00000000E+00  0.00000000E+00  0.00000000E+00
  0.00000000E+00  0.00000000E+00  0.00000000E+00
  0.00000000E+00  0.00000000E+00  0.00000000E+00
  0.00000000E+00  0.00000000E+00  0.00000000E+00
  0.00000000E+00  0.00000000E+00  0.00000000E+00
  0.00000000E+00  0.00000000E+00  0.00000000E+00
  0.00000000E+00  0.00000000E+00  0.00000000E+00
  0.00000000E+00  0.00000000E+00  0.00000000E+00
  0.00000000E+00  0.00000000E+00  0.00000000E+00
  0.00000000E+00  0.00000000E+00  0.00000000E+00
  0.00000000E+00  0.00000000E+00  0.00000000E+00
  0.00000000E+00  0.00000000E+00  0.00000000E+00
  0.00000000E+00  0.00000000E+00  0.00000000E+00
  0.00000000E+00  0.00000000E+00  0.00000000E+00
  0.00000000E+00  0.00000000E+00  0.00000000E+00
  0.00000000E+00  0.00000000E+00  0.00000000E+00
  0.00000000E+00  0.00000000E+00  0.00000000E+00
  0.00000000E+00  0.00000000E+00  0.00000000E+00
  0.00000000E+00  0.00000000E+00  0.00000000E+00
  0.00000000E+00  0.00000000E+00  0.00000000E+00
  0.00000000E+00  0.00000000E+00  0.00000000E+00
  0.00000000E+00  0.00000000E+00  0.00000000E+00
  0.00000000E+00  0.00000000E+00  0.00000000E+00
  0.00000000E+00  0.00000000E+00  0.00000000E+00
  0.00000000E+00  0.00000000E+00  0.00000000E+00
  0.00000000E+00  0.00000000E+00  0.00000000E+00
  0.00000000E+00  0.00000000E+00  0.00000000E+00
  0.00000000E+00  0.00000000E+00  0.00000000E+00
  0.00000000E+00  0.00000000E+00  0.00000000E+00
  0.00000000E+00  0.00000000E+00  0.00000000E+00
  0.00000000E+00  0.00000000E+00  0.00000000E+00
  0.00000000E+00  0.00000000E+00  0.00000000E+00
  0.00000000E+00  0.00000000E+00  0.00000000E+00
  0.00000000E+00  0.00000000E+00  0.00000000E+00
  0.00000000E+00  0.00000000E+00  0.00000000E+00
  0.00000000E+00  0.00000000E+00  0.00000000E+00
  0.00000000E+00  0.00000000E+00  0.00000000E+00
  0.00000000E+00  0.00000000E+00  0.00000000E+00
  0.00000000E+00  0.00000000E+00  0.00000000E+00
  0.00000000E+00  0.00000000E+00  0.00000000E+00
  0.00000000E+00  0.00000000E+00  0.00000000E+00
  0.00000000E+00  0.00000000E+00  0.00000000E+00
  0.00000000E+00  0.00000000E+00  0.00000000E+00
  0.00000000E+00  0.00000000E+00  0.00000000E+00
  0.00000000E+00  0.00000000E+00  0.00000000E+00
  0.00000000E+00  0.00000000E+00  0.00000000E+00
  0.00000000E+00  0.00000000E+00  0.00000000E+00
  0.00000000E+00  0.00000000E+00  0.00000000E+00
  0.00000000E+00  0.00000000E+00  0.00000000E+00
  0.00000000E+00  0.00000000E+00  0.00000000E+00
  0.00000000E+00  0.00000000E+00  0.00000000E+00
  0.00000000E+00  0.00000000E+00  0.00000000E+00
  0.00000000E+00  0.00000000E+00  0.00000000E+00
  0.00000000E+00  0.00000000E+00  0.00000000E+00
  0.00000000E+00  0.00000000E+00  0.00000000E+00
  0.00000000E+00  0.00000000E+00  0.00000000E+00
  0.00000000E+00  0.00000000E+00  0.00000000E+00
  0.00000000E+00  0.00000000E+00  0.00000000E+00
  0.00000000E+00  0.00000000E+00  0.00000000E+00
  0.00000000E+00  0.00000000E+00  0.00000000E+00
  0.00000000E+00  0.00000000E+00  0.00000000E+00
  0.00000000E+00  0.00000000E+00  0.00000000E+00
  0.00000000E+00  0.00000000E+00  0.00000000E+00
  0.00000000E+00  0.00000000E+00  0.00000000E+00
  0.00000000E+00  0.00000000E+00  0.00000000E+00
  0.00000000E+00  0.00000000E+00  0.00000000E+00
  0.00000000E+00  0.00000000E+00  0.00000000E+00
  0.00000000E+00  0.00000000E+00  0.00000000E+00
  0.00000000E+00  0.00000000E+00  0.00000000E+00
  0.00000000E+00  0.00000000E+00  0.00000000E+00
  0.00000000E+00  0.00000000E+00  0.00000000E+00
  0.00000000E+00  0.00000000E+00  0.00000000E+00
  0.00000000E+00  0.00000000E+00  0.00000000E+00
