Ag  C  N  F                             
    1.000000000000000     
    11.7702790000000004    0.0000000000000000    0.0000000000000000
     0.0000000000000000   16.6456881000000010    0.0000000000000000
     0.0000000000000000    0.0000000000000000   22.4138546100000013
   Ag   C    N    F 
    64     4     2     4
Selective dynamics
Direct
  0.0000000000000000  0.2500000003003748  0.3346144663869595   F   F   F
  0.7499999974512050  0.7500000015018884  0.3346144663869595   F   F   F
  0.0000000000000000  0.5000000012015136  0.3346144663869595   F   F   F
  0.0000000000000000  0.7500000015018884  0.3346144663869595   F   F   F
  0.0000000000000000  0.0000000000000000  0.3346144663869595   F   F   F
  0.2499999991504041  0.2500000003003748  0.3346144663869595   F   F   F
  0.2499999991504041  0.5000000012015136  0.3346144663869595   F   F   F
  0.7499999974512050  0.0000000000000000  0.3346144663869595   F   F   F
  0.2499999991504041  0.7500000015018884  0.3346144663869595   F   F   F
  0.2499999991504041  0.0000000000000000  0.3346144663869595   F   F   F
  0.4999999983008081  0.2500000003003748  0.3346144663869595   F   F   F
  0.4999999983008081  0.5000000012015136  0.3346144663869595   F   F   F
  0.4999999983008081  0.7500000015018884  0.3346144663869595   F   F   F
  0.4999999983008081  0.0000000000000000  0.3346144663869595   F   F   F
  0.7499999974512050  0.2500000003003748  0.3346144663869595   F   F   F
  0.7499999974512050  0.5000000012015136  0.3346144663869595   F   F   F
  0.0000151604646185  0.2500552791862548  0.4628141518129601   T   T   T
 -0.0000000112808987  0.4999999552819396  0.4628073081927185   T   T   T
 -0.0000153439299966  0.7499447857653172  0.4628145113549942   T   T   T
 -0.0000000752682353  0.0000001083683160  0.4627924078892131   T   T   T
  0.2500310056699238  0.2500864872576914  0.4628063750076463   T   T   T
  0.2500823812833809  0.4998749086417922  0.4628295380437265   T   T   T
  0.2497598974628671  0.7501391138070548  0.4626623087738906   T   T   T
  0.2499811954488951  0.0000043831595219  0.4627716563708407   T   T   T
  0.4998896353926403  0.2499711736968907  0.4626810405628445   T   T   T
  0.4999999373094835  0.4999999843545054  0.4630297200200324   T   T   T
  0.5001096347187149  0.7500287762130269  0.4626816912177524   T   T   T
  0.5000000470257092  0.0000000927751464  0.4627792612480378   T   T   T
  0.7502366897746742  0.2498597794216368  0.4626585646057076   T   T   T
  0.7499176317269393  0.5001250402597330  0.4628290439183999   T   T   T
  0.7499689029003207  0.7499135628614629  0.4628064115058640   T   T   T
  0.7500187469086015 -0.0000041699264325  0.4627717265884519   T   T   T
  0.1249291659805276  0.1250234137622523  0.5212620272269423   T   T   T
  0.1249423275108947  0.3750317018257475  0.5212683657193378   T   T   T
  0.1249414605841664  0.6249029982021626  0.5212307824094488   T   T   T
  0.1248850032609622  0.8750219426966745  0.5212853094768128   T   T   T
  0.3750204329348590  0.1249950487740137  0.5212377013916007   T   T   T
  0.3751348845793756  0.3749193059317139  0.5215987689762258   T   T   T
  0.3745278282708220  0.6252706960577453  0.5206934576464360   T   T   T
  0.3750418678629793  0.8749579262019388  0.5212229988678456   T   T   T
  0.6249583295959504  0.1250425927327165  0.5212226656239264   T   T   T
  0.6254725478589258  0.3747286604197613  0.5206932008710042   T   T   T
  0.6248650372519865  0.6250805876548434  0.5215987256641215   T   T   T
  0.6249796011211796  0.8750052085973189  0.5212376515101874   T   T   T
  0.8751154408698989  0.1249793857261132  0.5212839950483655   T   T   T
  0.8750579117787008  0.3750960101109568  0.5212299946099481   T   T   T
  0.8750575963771744  0.6249681075324605  0.5212683814494403   T   T   T
  0.8750706735147402  0.8749769120735700  0.5212620951032997   T   T   T
  0.1249999995752020  0.1250000004505694  0.4002562266107219   F   F   F
  0.1249999995752020  0.3750000007509442  0.4002562266107219   F   F   F
  0.1249999995752020  0.6250000016520829  0.4002562266107219   F   F   F
  0.1249999995752020  0.8750000019524578  0.4002562266107219   F   F   F
  0.3749999987256061  0.1250000004505694  0.4002562266107219   F   F   F
  0.3749999987256061  0.3750000007509442  0.4002562266107219   F   F   F
  0.3749999987256061  0.6250000016520829  0.4002562266107219   F   F   F
  0.3749999987256061  0.8750000019524578  0.4002562266107219   F   F   F
  0.6249999978760030  0.1250000004505694  0.4002562266107219   F   F   F
  0.6249999978760030  0.3750000007509442  0.4002562266107219   F   F   F
  0.6249999978760030  0.6250000016520829  0.4002562266107219   F   F   F
  0.6249999978760030  0.8750000019524578  0.4002562266107219   F   F   F
  0.8749999970264071  0.1250000004505694  0.4002562266107219   F   F   F
  0.8749999970264071  0.3750000007509442  0.4002562266107219   F   F   F
  0.8749999970264071  0.6250000016520829  0.4002562266107219   F   F   F
  0.8749999970264071  0.8750000019524578  0.4002562266107219   F   F   F
  0.4565044618522678  0.5733541411395797  0.6541953898605528   T   T   T
  0.3874152606471685  0.5049281348790116  0.6540582806141509   T   T   T
  0.5434980039341555  0.4266440281142377  0.6541965408947402   T   T   T
  0.6125840062418977  0.4950660868983158  0.6540578959644852   T   T   T
  0.4316845977901000  0.4321273244791781  0.6539494977499205   T   T   T
  0.5683145776361032  0.5678698126472329  0.6539504683353872   T   T   T
  0.7262039774764371  0.4884085038866406  0.6544636788419211   T   T   T
  0.5897242062965919  0.3527975244969591  0.6556513852812704   T   T   T
  0.4102699319053951  0.6472025490015274  0.6556526592935960   T   T   T
  0.2737901777183215  0.5115932109154084  0.6544571569791425   T   T   T
 
  0.00000000E+00  0.00000000E+00  0.00000000E+00
  0.00000000E+00  0.00000000E+00  0.00000000E+00
  0.00000000E+00  0.00000000E+00  0.00000000E+00
  0.00000000E+00  0.00000000E+00  0.00000000E+00
  0.00000000E+00  0.00000000E+00  0.00000000E+00
  0.00000000E+00  0.00000000E+00  0.00000000E+00
  0.00000000E+00  0.00000000E+00  0.00000000E+00
  0.00000000E+00  0.00000000E+00  0.00000000E+00
  0.00000000E+00  0.00000000E+00  0.00000000E+00
  0.00000000E+00  0.00000000E+00  0.00000000E+00
  0.00000000E+00  0.00000000E+00  0.00000000E+00
  0.00000000E+00  0.00000000E+00  0.00000000E+00
  0.00000000E+00  0.00000000E+00  0.00000000E+00
  0.00000000E+00  0.00000000E+00  0.00000000E+00
  0.00000000E+00  0.00000000E+00  0.00000000E+00
  0.00000000E+00  0.00000000E+00  0.00000000E+00
  0.00000000E+00  0.00000000E+00  0.00000000E+00
  0.00000000E+00  0.00000000E+00  0.00000000E+00
  0.00000000E+00  0.00000000E+00  0.00000000E+00
  0.00000000E+00  0.00000000E+00  0.00000000E+00
  0.00000000E+00  0.00000000E+00  0.00000000E+00
  0.00000000E+00  0.00000000E+00  0.00000000E+00
  0.00000000E+00  0.00000000E+00  0.00000000E+00
  0.00000000E+00  0.00000000E+00  0.00000000E+00
  0.00000000E+00  0.00000000E+00  0.00000000E+00
  0.00000000E+00  0.00000000E+00  0.00000000E+00
  0.00000000E+00  0.00000000E+00  0.00000000E+00
  0.00000000E+00  0.00000000E+00  0.00000000E+00
  0.00000000E+00  0.00000000E+00  0.00000000E+00
  0.00000000E+00  0.00000000E+00  0.00000000E+00
  0.00000000E+00  0.00000000E+00  0.00000000E+00
  0.00000000E+00  0.00000000E+00  0.00000000E+00
  0.00000000E+00  0.00000000E+00  0.00000000E+00
  0.00000000E+00  0.00000000E+00  0.00000000E+00
  0.00000000E+00  0.00000000E+00  0.00000000E+00
  0.00000000E+00  0.00000000E+00  0.00000000E+00
  0.00000000E+00  0.00000000E+00  0.00000000E+00
  0.00000000E+00  0.00000000E+00  0.00000000E+00
  0.00000000E+00  0.00000000E+00  0.00000000E+00
  0.00000000E+00  0.00000000E+00  0.00000000E+00
  0.00000000E+00  0.00000000E+00  0.00000000E+00
  0.00000000E+00  0.00000000E+00  0.00000000E+00
  0.00000000E+00  0.00000000E+00  0.00000000E+00
  0.00000000E+00  0.00000000E+00  0.00000000E+00
  0.00000000E+00  0.00000000E+00  0.00000000E+00
  0.00000000E+00  0.00000000E+00  0.00000000E+00
  0.00000000E+00  0.00000000E+00  0.00000000E+00
  0.00000000E+00  0.00000000E+00  0.00000000E+00
  0.00000000E+00  0.00000000E+00  0.00000000E+00
  0.00000000E+00  0.00000000E+00  0.00000000E+00
  0.00000000E+00  0.00000000E+00  0.00000000E+00
  0.00000000E+00  0.00000000E+00  0.00000000E+00
  0.00000000E+00  0.00000000E+00  0.00000000E+00
  0.00000000E+00  0.00000000E+00  0.00000000E+00
  0.00000000E+00  0.00000000E+00  0.00000000E+00
  0.00000000E+00  0.00000000E+00  0.00000000E+00
  0.00000000E+00  0.00000000E+00  0.00000000E+00
  0.00000000E+00  0.00000000E+00  0.00000000E+00
  0.00000000E+00  0.00000000E+00  0.00000000E+00
  0.00000000E+00  0.00000000E+00  0.00000000E+00
  0.00000000E+00  0.00000000E+00  0.00000000E+00
  0.00000000E+00  0.00000000E+00  0.00000000E+00
  0.00000000E+00  0.00000000E+00  0.00000000E+00
  0.00000000E+00  0.00000000E+00  0.00000000E+00
  0.00000000E+00  0.00000000E+00  0.00000000E+00
  0.00000000E+00  0.00000000E+00  0.00000000E+00
  0.00000000E+00  0.00000000E+00  0.00000000E+00
  0.00000000E+00  0.00000000E+00  0.00000000E+00
  0.00000000E+00  0.00000000E+00  0.00000000E+00
  0.00000000E+00  0.00000000E+00  0.00000000E+00
  0.00000000E+00  0.00000000E+00  0.00000000E+00
  0.00000000E+00  0.00000000E+00  0.00000000E+00
  0.00000000E+00  0.00000000E+00  0.00000000E+00
  0.00000000E+00  0.00000000E+00  0.00000000E+00
