Rh  C Br                                
    1.000000000000000     
    10.8856652999999994    0.0000000000000000    0.0000000000000000
     0.0000000000000000   15.3946555000000007    0.0000000000000000
     0.0000000000000000    0.0000000000000000   22.0821244799999974
   Rh   C    Br
    64     6     6
Selective dynamics
Direct
  0.2500000004593161  0.2500000003247891  0.3396412336499992   F   F   F
  0.0000000018372788  0.7500000016239383  0.3396412336499992   F   F   F
  0.2500000004593161  0.5000000012991492  0.3396412336499992   F   F   F
  0.2500000004593161  0.7500000016239383  0.3396412336499992   F   F   F
  0.2500000004593161  0.0000000019487274  0.3396412336499992   F   F   F
  0.5000000009186394  0.2500000003247891  0.3396412336499992   F   F   F
  0.5000000009186394  0.5000000012991492  0.3396412336499992   F   F   F
  0.0000000018372788  0.0000000019487274  0.3396412336499992   F   F   F
  0.5000000009186394  0.7500000016239383  0.3396412336499992   F   F   F
  0.5000000009186394  0.0000000019487274  0.3396412336499992   F   F   F
  0.7500000013779555  0.2500000003247891  0.3396412336499992   F   F   F
  0.7500000013779555  0.5000000012991492  0.3396412336499992   F   F   F
  0.7500000013779555  0.7500000016239383  0.3396412336499992   F   F   F
  0.7500000013779555  0.0000000019487274  0.3396412336499992   F   F   F
  0.0000000018372788  0.2500000003247891  0.3396412336499992   F   F   F
  0.0000000018372788  0.5000000012991492  0.3396412336499992   F   F   F
  0.2496841456384012  0.2495257446788093  0.4576463566978140   T   T   T
  0.2521369875570236  0.4999667854241380  0.4564379765703347   T   T   T
  0.2508561593096051  0.7496993906250357  0.4577972549151512   T   T   T
  0.2501973289313353  0.9998725394181313  0.4569136004718959   T   T   T
  0.4993706850600496  0.2491395415627603  0.4579032609722327   T   T   T
  0.5000019846089208  0.5000127736683451  0.4575919729553911   T   T   T
  0.5006279671223727  0.7508737598037757  0.4578998767676148   T   T   T
  0.5000161609986910 -0.0000035605808535  0.4589987022969409   T   T   T
  0.7491741530169829  0.2502704229941946  0.4577867222771574   T   T   T
  0.7478725910017062  0.5000405589511925  0.4564561371567204   T   T   T
  0.7503246483638411  0.7504791966596551  0.4576446200550591   T   T   T
  0.7498092787092137  0.0001364931217924  0.4569292040697498   T   T   T
  0.9991015172352212  0.2501545438585224  0.4589005634333923   T   T   T
  0.0000042773643591  0.5000040000668167  0.4587016377646218   T   T   T
  0.0009012094143699  0.7498483982223227  0.4589113233385862   T   T   T
 -0.0000124513601132  0.0000025561652016  0.4589694976838877   T   T   T
  0.1250350032852209  0.1255513204259094  0.5168734836680293   T   T   T
  0.1228976353633575  0.3753633070236876  0.5156997731993790   T   T   T
  0.1295404576943749  0.6210997607474719  0.5171493357991422   T   T   T
  0.1244085194075018  0.8742235269995356  0.5167864698185723   T   T   T
  0.3747872086299923  0.1249019601110898  0.5167621254621750   T   T   T
  0.3684820705322734  0.3725631720957790  0.5173409014599507   T   T   T
  0.3804701013387037  0.6291000216753462  0.5177175104253574   T   T   T
  0.3737171097482594  0.8746292393469650  0.5169362305283097   T   T   T
  0.6263141454353303  0.1253669198209381  0.5169361530867916   T   T   T
  0.6195803823329062  0.3708906341471779  0.5176932275917244   T   T   T
  0.6315734579732332  0.6274291167377597  0.5173360842338924   T   T   T
  0.6252476784850363  0.8751089831894575  0.5167630552971536   T   T   T
  0.8755843846864815  0.1257808954998997  0.5167454466052510   T   T   T
  0.8704879069089463  0.3789082859994983  0.5171612596258908   T   T   T
  0.8771150925447652  0.6246422100294875  0.5156747478581520   T   T   T
  0.8749037090450558  0.8744411274468370  0.5168976042233465   T   T   T
  0.1249999997703384  0.1250000001623945  0.4012615800633341   F   F   F
  0.1249999997703384  0.3750000004871836  0.4012615800633341   F   F   F
  0.1250000006889778  0.6250000014615438  0.4012615800633341   F   F   F
  0.1250000006889778  0.8750000017863329  0.4012615800633341   F   F   F
  0.3750000002296616  0.1250000001623945  0.4012615800633341   F   F   F
  0.3750000002296616  0.3750000004871836  0.4012615800633341   F   F   F
  0.3750000011483010  0.6250000014615438  0.4012615800633341   F   F   F
  0.3750000011483010  0.8750000017863329  0.4012615800633341   F   F   F
  0.6250000006889778  0.1250000001623945  0.4012615800633341   F   F   F
  0.6250000006889778  0.3750000004871836  0.4012615800633341   F   F   F
  0.6250000006889778  0.6250000014615438  0.4012615800633341   F   F   F
  0.6250000006889778  0.8750000017863329  0.4012615800633341   F   F   F
  0.8750000011483010  0.1250000001623945  0.4012615800633341   F   F   F
  0.8750000011483010  0.3750000004871836  0.4012615800633341   F   F   F
  0.8750000020669404  0.6250000014615438  0.4012615800633341   F   F   F
  0.8750000011483010  0.8750000017863329  0.4012615800633341   F   F   F
  0.6272494858094988  0.4922074000357914  0.6060419094964778   T   T   T
  0.5550935911707015  0.4187358658397308  0.5943232941031159   T   T   T
  0.4241046687975237  0.4259756040101010  0.5935308592957207   T   T   T
  0.3727327390534749  0.5077649966134263  0.6060317260026000   T   T   T
  0.4449418662452176  0.5812973525165910  0.5943160905677803   T   T   T
  0.5759169563609777  0.5740192731184438  0.5935474359085079   T   T   T
  0.8124720829560568  0.4779634222507687  0.6082530544453834   T   T   T
  0.7516467577624434  0.1347063266038463  0.6103993840604578   T   T   T
  0.2508265487840898  0.1284700221269854  0.6105146421730983   T   T   T
  0.1874704349292633  0.5220338240601247  0.6082090326553831   T   T   T
  0.2484011623431188  0.8651889258041497  0.6104756204259939   T   T   T
  0.7490217412425068  0.8715913531430018  0.6105778002651565   T   T   T
 
  0.00000000E+00  0.00000000E+00  0.00000000E+00
  0.00000000E+00  0.00000000E+00  0.00000000E+00
  0.00000000E+00  0.00000000E+00  0.00000000E+00
  0.00000000E+00  0.00000000E+00  0.00000000E+00
  0.00000000E+00  0.00000000E+00  0.00000000E+00
  0.00000000E+00  0.00000000E+00  0.00000000E+00
  0.00000000E+00  0.00000000E+00  0.00000000E+00
  0.00000000E+00  0.00000000E+00  0.00000000E+00
  0.00000000E+00  0.00000000E+00  0.00000000E+00
  0.00000000E+00  0.00000000E+00  0.00000000E+00
  0.00000000E+00  0.00000000E+00  0.00000000E+00
  0.00000000E+00  0.00000000E+00  0.00000000E+00
  0.00000000E+00  0.00000000E+00  0.00000000E+00
  0.00000000E+00  0.00000000E+00  0.00000000E+00
  0.00000000E+00  0.00000000E+00  0.00000000E+00
  0.00000000E+00  0.00000000E+00  0.00000000E+00
  0.00000000E+00  0.00000000E+00  0.00000000E+00
  0.00000000E+00  0.00000000E+00  0.00000000E+00
  0.00000000E+00  0.00000000E+00  0.00000000E+00
  0.00000000E+00  0.00000000E+00  0.00000000E+00
  0.00000000E+00  0.00000000E+00  0.00000000E+00
  0.00000000E+00  0.00000000E+00  0.00000000E+00
  0.00000000E+00  0.00000000E+00  0.00000000E+00
  0.00000000E+00  0.00000000E+00  0.00000000E+00
  0.00000000E+00  0.00000000E+00  0.00000000E+00
  0.00000000E+00  0.00000000E+00  0.00000000E+00
  0.00000000E+00  0.00000000E+00  0.00000000E+00
  0.00000000E+00  0.00000000E+00  0.00000000E+00
  0.00000000E+00  0.00000000E+00  0.00000000E+00
  0.00000000E+00  0.00000000E+00  0.00000000E+00
  0.00000000E+00  0.00000000E+00  0.00000000E+00
  0.00000000E+00  0.00000000E+00  0.00000000E+00
  0.00000000E+00  0.00000000E+00  0.00000000E+00
  0.00000000E+00  0.00000000E+00  0.00000000E+00
  0.00000000E+00  0.00000000E+00  0.00000000E+00
  0.00000000E+00  0.00000000E+00  0.00000000E+00
  0.00000000E+00  0.00000000E+00  0.00000000E+00
  0.00000000E+00  0.00000000E+00  0.00000000E+00
  0.00000000E+00  0.00000000E+00  0.00000000E+00
  0.00000000E+00  0.00000000E+00  0.00000000E+00
  0.00000000E+00  0.00000000E+00  0.00000000E+00
  0.00000000E+00  0.00000000E+00  0.00000000E+00
  0.00000000E+00  0.00000000E+00  0.00000000E+00
  0.00000000E+00  0.00000000E+00  0.00000000E+00
  0.00000000E+00  0.00000000E+00  0.00000000E+00
  0.00000000E+00  0.00000000E+00  0.00000000E+00
  0.00000000E+00  0.00000000E+00  0.00000000E+00
  0.00000000E+00  0.00000000E+00  0.00000000E+00
  0.00000000E+00  0.00000000E+00  0.00000000E+00
  0.00000000E+00  0.00000000E+00  0.00000000E+00
  0.00000000E+00  0.00000000E+00  0.00000000E+00
  0.00000000E+00  0.00000000E+00  0.00000000E+00
  0.00000000E+00  0.00000000E+00  0.00000000E+00
  0.00000000E+00  0.00000000E+00  0.00000000E+00
  0.00000000E+00  0.00000000E+00  0.00000000E+00
  0.00000000E+00  0.00000000E+00  0.00000000E+00
  0.00000000E+00  0.00000000E+00  0.00000000E+00
  0.00000000E+00  0.00000000E+00  0.00000000E+00
  0.00000000E+00  0.00000000E+00  0.00000000E+00
  0.00000000E+00  0.00000000E+00  0.00000000E+00
  0.00000000E+00  0.00000000E+00  0.00000000E+00
  0.00000000E+00  0.00000000E+00  0.00000000E+00
  0.00000000E+00  0.00000000E+00  0.00000000E+00
  0.00000000E+00  0.00000000E+00  0.00000000E+00
  0.00000000E+00  0.00000000E+00  0.00000000E+00
  0.00000000E+00  0.00000000E+00  0.00000000E+00
  0.00000000E+00  0.00000000E+00  0.00000000E+00
  0.00000000E+00  0.00000000E+00  0.00000000E+00
  0.00000000E+00  0.00000000E+00  0.00000000E+00
  0.00000000E+00  0.00000000E+00  0.00000000E+00
  0.00000000E+00  0.00000000E+00  0.00000000E+00
  0.00000000E+00  0.00000000E+00  0.00000000E+00
  0.00000000E+00  0.00000000E+00  0.00000000E+00
  0.00000000E+00  0.00000000E+00  0.00000000E+00
  0.00000000E+00  0.00000000E+00  0.00000000E+00
  0.00000000E+00  0.00000000E+00  0.00000000E+00
