Au48 C4 N2 F4                           
    1.000000000000000     
    11.7981859999999994    0.0000000000000000    0.0000000000000000
    -5.8990929999999997   10.2175279999999997    0.0000000000000000
     0.0000000000000000    0.0000000000000000   17.8165890000000005
   Au   C    N    F 
    48     4     2     4
Selective dynamics
Direct
  0.0833330000000032  0.1666669999999968  0.3367649999999998   F   F   F
  0.0833330000000032  0.4166669999999968  0.3367649999999998   F   F   F
  0.0833330000000032  0.6666669999999968  0.3367649999999998   F   F   F
  0.0833330000000032  0.9166669999999968  0.3367649999999998   F   F   F
  0.3333330000000032  0.1666669999999968  0.3367649999999998   F   F   F
  0.3333330000000032  0.4166669999999968  0.3367649999999998   F   F   F
  0.3333330000000032  0.6666669999999968  0.3367649999999998   F   F   F
  0.3333330000000032  0.9166669999999968  0.3367649999999998   F   F   F
  0.5833330000000032  0.1666669999999968  0.3367649999999998   F   F   F
  0.5833330000000032  0.4166669999999968  0.3367649999999998   F   F   F
  0.5833330000000032  0.6666669999999968  0.3367649999999998   F   F   F
  0.5833330000000032  0.9166669999999968  0.3367649999999998   F   F   F
  0.8333330000000032  0.1666669999999968  0.3367649999999998   F   F   F
  0.8333330000000032  0.4166669999999968  0.3367649999999998   F   F   F
  0.8333330000000032  0.6666669999999968  0.3367649999999998   F   F   F
  0.8333330000000032  0.9166669999999968  0.3367649999999998   F   F   F
  0.2501735684695134  0.2501070923497437  0.6129900987582246   T   T   T
  0.2501183934903892  0.5000586670896965  0.6126962848312729   T   T   T
  0.2501018143325524  0.7498542375006281  0.6127004621177861   T   T   T
  0.2499460288112019  0.0000372666724147  0.6124920687486508   T   T   T
  0.4999847540587368  0.2500414839496727  0.6126913736539592   T   T   T
  0.4999987928715726  0.4999499222078612  0.6106445932683968   T   T   T
  0.5001080959103206  0.7498853328574668  0.6131193393482235   T   T   T
  0.5001358793857307  0.9998782292418937  0.6127032563641635   T   T   T
  0.7499360314452446  0.2501125083495666  0.6126951469442048   T   T   T
  0.7498569450266359  0.5001346427261737  0.6131319373451021   T   T   T
  0.7500132796742704  0.7499631172605632  0.6106776947931039   T   T   T
  0.7499382446458540  0.9998659870359816  0.6126991007572826   T   T   T
  0.0000690950053013  0.2499064978099099  0.6125029637163166   T   T   T
  0.9998710443119236  0.5000542785509552  0.6127165614281935   T   T   T
  0.9999393704335020  0.7500034212414803  0.6127359006083353   T   T   T
  0.9998616697583103  0.9998078948016982  0.6130084161830496   T   T   T
  0.1665280681093577  0.0834749408186681  0.4748095729286135   T   T   T
  0.1668722110066057  0.3334110200124059  0.4747508792876403   T   T   T
  0.1665133683012243  0.5831893639904209  0.4746323579376437   T   T   T
  0.1667049103103793  0.8332042016768000  0.4746487241417583   T   T   T
  0.4167880456370625  0.0832818215659401  0.4746299086576826   T   T   T
  0.4163704066403540  0.3329196686704137  0.4742896514194896   T   T   T
  0.4166041250006245  0.5836719824057468  0.4744387198302249   T   T   T
  0.4167276011261478  0.8332698982261348  0.4748496545660146   T   T   T
  0.6667894648581623  0.0834755549389996  0.4746310467128509   T   T   T
  0.6667595175965459  0.3334555238770420  0.4749908614446099   T   T   T
  0.6669196465944012  0.5830541128392213  0.4738411958519464   T   T   T
  0.6663236736064349  0.8333786080609826  0.4744484675504097   T   T   T
  0.9165894482897912  0.0831260650986678  0.4747383555005982   T   T   T
  0.9167059163626661  0.3333000180357928  0.4744835964838927   T   T   T
  0.9165448750408203  0.5832433336910299  0.4749929869283704   T   T   T
  0.9170872586788832  0.8336248685940220  0.4742983001774093   T   T   T
  0.4952768638987521  0.5638734632873508  0.7966204474572791   T   T   T
  0.5638345403276688  0.4953255348235857  0.7965800870888771   T   T   T
  0.7547658846574592  0.6861918046414033  0.7965983162246388   T   T   T
  0.6861943689564853  0.7547693685045047  0.7966510423806596   T   T   T
  0.6929102229808706  0.5571059220691907  0.7969756631960436   T   T   T
  0.5570958187651911  0.6929314527335677  0.7970704791215155   T   T   T
  0.7506971150370134  0.8862405655412928  0.7975999923562824   T   T   T
  0.8861907456831304  0.7505939248938134  0.7975075095058628   T   T   T
  0.3638325950010781  0.4994554139529299  0.7975724005858567   T   T   T
  0.4992928005792265  0.3638647382321594  0.7974909665268797   T   T   T
 
  0.00000000E+00  0.00000000E+00  0.00000000E+00
  0.00000000E+00  0.00000000E+00  0.00000000E+00
  0.00000000E+00  0.00000000E+00  0.00000000E+00
  0.00000000E+00  0.00000000E+00  0.00000000E+00
  0.00000000E+00  0.00000000E+00  0.00000000E+00
  0.00000000E+00  0.00000000E+00  0.00000000E+00
  0.00000000E+00  0.00000000E+00  0.00000000E+00
  0.00000000E+00  0.00000000E+00  0.00000000E+00
  0.00000000E+00  0.00000000E+00  0.00000000E+00
  0.00000000E+00  0.00000000E+00  0.00000000E+00
  0.00000000E+00  0.00000000E+00  0.00000000E+00
  0.00000000E+00  0.00000000E+00  0.00000000E+00
  0.00000000E+00  0.00000000E+00  0.00000000E+00
  0.00000000E+00  0.00000000E+00  0.00000000E+00
  0.00000000E+00  0.00000000E+00  0.00000000E+00
  0.00000000E+00  0.00000000E+00  0.00000000E+00
  0.00000000E+00  0.00000000E+00  0.00000000E+00
  0.00000000E+00  0.00000000E+00  0.00000000E+00
  0.00000000E+00  0.00000000E+00  0.00000000E+00
  0.00000000E+00  0.00000000E+00  0.00000000E+00
  0.00000000E+00  0.00000000E+00  0.00000000E+00
  0.00000000E+00  0.00000000E+00  0.00000000E+00
  0.00000000E+00  0.00000000E+00  0.00000000E+00
  0.00000000E+00  0.00000000E+00  0.00000000E+00
  0.00000000E+00  0.00000000E+00  0.00000000E+00
  0.00000000E+00  0.00000000E+00  0.00000000E+00
  0.00000000E+00  0.00000000E+00  0.00000000E+00
  0.00000000E+00  0.00000000E+00  0.00000000E+00
  0.00000000E+00  0.00000000E+00  0.00000000E+00
  0.00000000E+00  0.00000000E+00  0.00000000E+00
  0.00000000E+00  0.00000000E+00  0.00000000E+00
  0.00000000E+00  0.00000000E+00  0.00000000E+00
  0.00000000E+00  0.00000000E+00  0.00000000E+00
  0.00000000E+00  0.00000000E+00  0.00000000E+00
  0.00000000E+00  0.00000000E+00  0.00000000E+00
  0.00000000E+00  0.00000000E+00  0.00000000E+00
  0.00000000E+00  0.00000000E+00  0.00000000E+00
  0.00000000E+00  0.00000000E+00  0.00000000E+00
  0.00000000E+00  0.00000000E+00  0.00000000E+00
  0.00000000E+00  0.00000000E+00  0.00000000E+00
  0.00000000E+00  0.00000000E+00  0.00000000E+00
  0.00000000E+00  0.00000000E+00  0.00000000E+00
  0.00000000E+00  0.00000000E+00  0.00000000E+00
  0.00000000E+00  0.00000000E+00  0.00000000E+00
  0.00000000E+00  0.00000000E+00  0.00000000E+00
  0.00000000E+00  0.00000000E+00  0.00000000E+00
  0.00000000E+00  0.00000000E+00  0.00000000E+00
  0.00000000E+00  0.00000000E+00  0.00000000E+00
  0.00000000E+00  0.00000000E+00  0.00000000E+00
  0.00000000E+00  0.00000000E+00  0.00000000E+00
  0.00000000E+00  0.00000000E+00  0.00000000E+00
  0.00000000E+00  0.00000000E+00  0.00000000E+00
  0.00000000E+00  0.00000000E+00  0.00000000E+00
  0.00000000E+00  0.00000000E+00  0.00000000E+00
  0.00000000E+00  0.00000000E+00  0.00000000E+00
  0.00000000E+00  0.00000000E+00  0.00000000E+00
  0.00000000E+00  0.00000000E+00  0.00000000E+00
  0.00000000E+00  0.00000000E+00  0.00000000E+00
