Pt48 C4 Br4 N2                          
    1.000000000000000     
    11.2480069999999994    0.0000000000000000    0.0000000000000000
    -5.6240030000000001    9.7410599999999992    0.0000000000000000
     0.0000000000000000    0.0000000000000000   17.5919799999999995
   Pt   C    Br   N 
    48     4     4     2
Selective dynamics
Direct
  0.0833330000000032  0.1666669999999968  0.3410650000000004   F   F   F
  0.0833330000000032  0.4166669999999968  0.3410650000000004   F   F   F
  0.0833330000000032  0.6666669999999968  0.3410650000000004   F   F   F
  0.0833330000000032  0.9166669999999968  0.3410650000000004   F   F   F
  0.3333330000000032  0.1666669999999968  0.3410650000000004   F   F   F
  0.3333330000000032  0.4166669999999968  0.3410650000000004   F   F   F
  0.3333330000000032  0.6666669999999968  0.3410650000000004   F   F   F
  0.3333330000000032  0.9166669999999968  0.3410650000000004   F   F   F
  0.5833330000000032  0.1666669999999968  0.3410650000000004   F   F   F
  0.5833330000000032  0.4166669999999968  0.3410650000000004   F   F   F
  0.5833330000000032  0.6666669999999968  0.3410650000000004   F   F   F
  0.5833330000000032  0.9166669999999968  0.3410650000000004   F   F   F
  0.8333330000000032  0.1666669999999968  0.3410650000000004   F   F   F
  0.8333330000000032  0.4166669999999968  0.3410650000000004   F   F   F
  0.8333330000000032  0.6666669999999968  0.3410650000000004   F   F   F
  0.8333330000000032  0.9166669999999968  0.3410650000000004   F   F   F
  0.2491468535042358  0.2492303011894279  0.6049479950083310   T   T   T
  0.2496272727374560  0.5001503556810576  0.6081602716915739   T   T   T
  0.2501762052939114  0.7506200286338682  0.6062883289608223   T   T   T
  0.2499167304921883  0.0000935670927333  0.6062161824547303   T   T   T
  0.4999791949702441  0.2494322969705394  0.6079512428109624   T   T   T
  0.4999227174926588  0.5004291897691218  0.6024199992276422   T   T   T
  0.4993394215717331  0.7506863555723555  0.6047016889813008   T   T   T
  0.4994045580782540  0.9998459388913261  0.6063044505501196   T   T   T
  0.7504145922968064  0.2504444081653503  0.6061003579673425   T   T   T
  0.7499954338037398  0.5000283543967612  0.6046634609275614   T   T   T
  0.7495891345255714  0.7500992563124598  0.6024034167905157   T   T   T
  0.7498729349064064  0.0003884597378772  0.6081481468863998   T   T   T
  0.9996770576612022  0.2503366613804445  0.6057637926212749   T   T   T
  0.9995728597741973  0.4996021639600698  0.6060860789455091   T   T   T
  0.0005836524363332  0.7500438586353013  0.6079349096665752   T   T   T
  0.0007894209519534  0.0008738816016276  0.6049108360020128   T   T   T
  0.1667478490726282  0.0832793689926845  0.4728251591569119   T   T   T
  0.1667824084392251  0.3335122811373452  0.4734589470137394   T   T   T
  0.1669826115833217  0.5827122988122113  0.4743032574407877   T   T   T
  0.1667703314732734  0.8332110376776356  0.4738446683347917   T   T   T
  0.4168072172052888  0.0832433630734215  0.4738506681379135   T   T   T
  0.4164288884717777  0.3321394288425736  0.4729906056883877   T   T   T
  0.4160692412419920  0.5835023926315657  0.4726739265439051   T   T   T
  0.4161924095594003  0.8338321021462889  0.4731262866019605   T   T   T
  0.6673035032111798  0.0830324387710277  0.4743024346814693   T   T   T
  0.6658840120721123  0.3324251492555064  0.4735536411727068   T   T   T
  0.6669710236157727  0.5830397320416125  0.4716699741619337   T   T   T
  0.6665141040599138  0.8339478433248431  0.4726609655201415   T   T   T
  0.9164999308666282  0.0832354082030591  0.4734413852296200   T   T   T
  0.9164229905270531  0.3335848646596133  0.4732670604335425   T   T   T
  0.9175861693270022  0.5841302652005069  0.4735455440115857   T   T   T
  0.9178742231407711  0.8335835749584959  0.4729731093937914   T   T   T
  0.4868954666464376  0.5594799241348269  0.7729640158511941   T   T   T
  0.5595709783156551  0.4868057306123248  0.7730865549836352   T   T   T
  0.7631086168921613  0.6903096580025831  0.7730817416336109   T   T   T
  0.6904367335706922  0.7630032475064183  0.7729604017337124   T   T   T
  0.7780672740409642  0.9579601498487520  0.7724745424215627   T   T   T
  0.9580701204743889  0.7782332015845199  0.7724038158098381   T   T   T
  0.2919517032590164  0.4718897273523410  0.7724902312490158   T   T   T
  0.4716529532908282  0.2918327067929880  0.7724202704290306   T   T   T
  0.6959092249836090  0.5540012268903993  0.7745403873011725   T   T   T
  0.5541012690884983  0.6958049914819568  0.7742705275478698   T   T   T
 
  0.00000000E+00  0.00000000E+00  0.00000000E+00
  0.00000000E+00  0.00000000E+00  0.00000000E+00
  0.00000000E+00  0.00000000E+00  0.00000000E+00
  0.00000000E+00  0.00000000E+00  0.00000000E+00
  0.00000000E+00  0.00000000E+00  0.00000000E+00
  0.00000000E+00  0.00000000E+00  0.00000000E+00
  0.00000000E+00  0.00000000E+00  0.00000000E+00
  0.00000000E+00  0.00000000E+00  0.00000000E+00
  0.00000000E+00  0.00000000E+00  0.00000000E+00
  0.00000000E+00  0.00000000E+00  0.00000000E+00
  0.00000000E+00  0.00000000E+00  0.00000000E+00
  0.00000000E+00  0.00000000E+00  0.00000000E+00
  0.00000000E+00  0.00000000E+00  0.00000000E+00
  0.00000000E+00  0.00000000E+00  0.00000000E+00
  0.00000000E+00  0.00000000E+00  0.00000000E+00
  0.00000000E+00  0.00000000E+00  0.00000000E+00
  0.00000000E+00  0.00000000E+00  0.00000000E+00
  0.00000000E+00  0.00000000E+00  0.00000000E+00
  0.00000000E+00  0.00000000E+00  0.00000000E+00
  0.00000000E+00  0.00000000E+00  0.00000000E+00
  0.00000000E+00  0.00000000E+00  0.00000000E+00
  0.00000000E+00  0.00000000E+00  0.00000000E+00
  0.00000000E+00  0.00000000E+00  0.00000000E+00
  0.00000000E+00  0.00000000E+00  0.00000000E+00
  0.00000000E+00  0.00000000E+00  0.00000000E+00
  0.00000000E+00  0.00000000E+00  0.00000000E+00
  0.00000000E+00  0.00000000E+00  0.00000000E+00
  0.00000000E+00  0.00000000E+00  0.00000000E+00
  0.00000000E+00  0.00000000E+00  0.00000000E+00
  0.00000000E+00  0.00000000E+00  0.00000000E+00
  0.00000000E+00  0.00000000E+00  0.00000000E+00
  0.00000000E+00  0.00000000E+00  0.00000000E+00
  0.00000000E+00  0.00000000E+00  0.00000000E+00
  0.00000000E+00  0.00000000E+00  0.00000000E+00
  0.00000000E+00  0.00000000E+00  0.00000000E+00
  0.00000000E+00  0.00000000E+00  0.00000000E+00
  0.00000000E+00  0.00000000E+00  0.00000000E+00
  0.00000000E+00  0.00000000E+00  0.00000000E+00
  0.00000000E+00  0.00000000E+00  0.00000000E+00
  0.00000000E+00  0.00000000E+00  0.00000000E+00
  0.00000000E+00  0.00000000E+00  0.00000000E+00
  0.00000000E+00  0.00000000E+00  0.00000000E+00
  0.00000000E+00  0.00000000E+00  0.00000000E+00
  0.00000000E+00  0.00000000E+00  0.00000000E+00
  0.00000000E+00  0.00000000E+00  0.00000000E+00
  0.00000000E+00  0.00000000E+00  0.00000000E+00
  0.00000000E+00  0.00000000E+00  0.00000000E+00
  0.00000000E+00  0.00000000E+00  0.00000000E+00
  0.00000000E+00  0.00000000E+00  0.00000000E+00
  0.00000000E+00  0.00000000E+00  0.00000000E+00
  0.00000000E+00  0.00000000E+00  0.00000000E+00
  0.00000000E+00  0.00000000E+00  0.00000000E+00
  0.00000000E+00  0.00000000E+00  0.00000000E+00
  0.00000000E+00  0.00000000E+00  0.00000000E+00
  0.00000000E+00  0.00000000E+00  0.00000000E+00
  0.00000000E+00  0.00000000E+00  0.00000000E+00
  0.00000000E+00  0.00000000E+00  0.00000000E+00
  0.00000000E+00  0.00000000E+00  0.00000000E+00
