Au48 C6 F6                              
    1.000000000000000     
    11.7981856999999994    0.0000000000000000    0.0000000000000000
     0.0000000000000000   16.6851543000000007    0.0000000000000000
     0.0000000000000000    0.0000000000000000   15.8893076700000009
   Au   C    F 
    48     6     6
Selective dynamics
Direct
  0.0000212765027641  0.2501013211371870  0.4057141161251678   T   T   T
  0.0000000016951773  0.4999999988013286  0.4056919379532715   T   T   T
  0.9999787268875906  0.7498986758661417  0.4057141161251678   T   T   T
  0.0000000016951773  0.0000000000000000  0.4054891349083505   T   T   T
  0.2498724234976990  0.2499417607753216  0.4056317378867007   T   T   T
  0.2496200259589756  0.5000006034826399  0.4056044786201198   T   T   T
  0.2497834446153036  0.7500410342292909  0.4056564925004622   T   T   T
  0.2500503475693705  0.0000009199454993  0.4056296601422602   T   T   T
  0.5000933844601576  0.2497971813065902  0.4054677554743975   T   T   T
  0.5000000008475851  0.4999999988013286  0.4054095383627754   T   T   T
  0.4999066172350126  0.7502028156967384  0.4054677554743975   T   T   T
  0.5000000008475851  0.0000000000000000  0.4056594476267747   T   T   T
  0.7502165570798738  0.2499589627740377  0.4056564925004622   T   T   T
  0.7503799757362088  0.4999993941200174  0.4056044786201198   T   T   T
  0.7501275781974783  0.7500582362280070  0.4056317378867007   T   T   T
  0.7499496541258068  0.9999990800545007  0.4056296601422602   T   T   T
  0.1250607486086110  0.1249401718539573  0.4964548528716648   T   T   T
  0.1250295915479427  0.3750854152947127  0.4966699687725438   T   T   T
  0.1248718213455717  0.6249178950800243  0.4967581661317766   T   T   T
  0.1249681767276911  0.8750650332191938  0.4964590009667873   T   T   T
  0.3750604506332778  0.1250588550773273  0.4964933481266272   T   T   T
  0.3751437328252152  0.3751946070041328  0.4953945428154753   T   T   T
  0.3746732035700617  0.6247134918963582  0.4955762120746883   T   T   T
  0.3749541480703797  0.8749650854533897  0.4965153697274474   T   T   T
  0.6250458536247976  0.1250349115499318  0.4965153697274474   T   T   T
  0.6253267981251156  0.3752865057062991  0.4955762120746883   T   T   T
  0.6248562688699622  0.6248053905985245  0.4953945428154753   T   T   T
  0.6249395502143145  0.8749411419259872  0.4964933481266272   T   T   T
  0.8750318249674862  0.1249349637841277  0.4964590009667873   T   T   T
  0.8751281803496056  0.3750821025226330  0.4967581661317766   T   T   T
  0.8749704109948269  0.6249145823079516  0.4966699687725438   T   T   T
  0.8749392530865663  0.8750598251493642  0.4964548528716648   T   T   T
  0.1250000006356942  0.1249999995504965  0.3146770207892899   F   F   F
  0.1250000006356942  0.3749999992508322  0.3146770207892899   F   F   F
  0.1250000006356942  0.6249999983518251  0.3146770207892899   F   F   F
  0.1250000006356942  0.8749999974528251  0.3146770207892899   F   F   F
  0.3750000002118981  0.1249999995504965  0.3146770207892899   F   F   F
  0.3750000002118981  0.3749999992508322  0.3146770207892899   F   F   F
  0.3750000010594832  0.6249999983518251  0.3146770207892899   F   F   F
  0.3750000010594832  0.8749999974528251  0.3146770207892899   F   F   F
  0.6250000006356942  0.1249999995504965  0.3146770207892899   F   F   F
  0.6250000006356942  0.3749999992508322  0.3146770207892899   F   F   F
  0.6250000014832793  0.6249999983518251  0.3146770207892899   F   F   F
  0.6250000006356942  0.8749999974528251  0.3146770207892899   F   F   F
  0.8750000010594832  0.1249999995504965  0.3146770207892899   F   F   F
  0.8750000010594832  0.3749999992508322  0.3146770207892899   F   F   F
  0.8750000019070754  0.6249999983518251  0.3146770207892899   F   F   F
  0.8750000010594832  0.8749999974528251  0.3146770207892899   F   F   F
  0.3820190893400053  0.5078219930331827  0.6930430924369730   T   T   T
  0.4506439249995609  0.5760543820302502  0.6940404573643093   T   T   T
  0.5685343665810336  0.5681994081490060  0.6941480215728291   T   T   T
  0.6179808886227107  0.4921779925827749  0.6930430924369730   T   T   T
  0.5493561012756629  0.4239456275591138  0.6940404573643093   T   T   T
  0.4314656351141437  0.4318005894536583  0.6941480215728291   T   T   T
  0.2685309463670364  0.5153188596087404  0.6925288339497797   T   T   T
  0.4032208778824753  0.6494358097899635  0.6965991918947481   T   T   T
  0.6344665992855099  0.6340948993913855  0.6968773528066947   T   T   T
  0.7314690553281338  0.4846811379939169  0.6925288339497797   T   T   T
  0.5967791856866214  0.3505642075907502  0.6965991918947481   T   T   T
  0.3655334269897139  0.3659051101979784  0.6968773528066947   T   T   T
 
  0.00000000E+00  0.00000000E+00  0.00000000E+00
  0.00000000E+00  0.00000000E+00  0.00000000E+00
  0.00000000E+00  0.00000000E+00  0.00000000E+00
  0.00000000E+00  0.00000000E+00  0.00000000E+00
  0.00000000E+00  0.00000000E+00  0.00000000E+00
  0.00000000E+00  0.00000000E+00  0.00000000E+00
  0.00000000E+00  0.00000000E+00  0.00000000E+00
  0.00000000E+00  0.00000000E+00  0.00000000E+00
  0.00000000E+00  0.00000000E+00  0.00000000E+00
  0.00000000E+00  0.00000000E+00  0.00000000E+00
  0.00000000E+00  0.00000000E+00  0.00000000E+00
  0.00000000E+00  0.00000000E+00  0.00000000E+00
  0.00000000E+00  0.00000000E+00  0.00000000E+00
  0.00000000E+00  0.00000000E+00  0.00000000E+00
  0.00000000E+00  0.00000000E+00  0.00000000E+00
  0.00000000E+00  0.00000000E+00  0.00000000E+00
  0.00000000E+00  0.00000000E+00  0.00000000E+00
  0.00000000E+00  0.00000000E+00  0.00000000E+00
  0.00000000E+00  0.00000000E+00  0.00000000E+00
  0.00000000E+00  0.00000000E+00  0.00000000E+00
  0.00000000E+00  0.00000000E+00  0.00000000E+00
  0.00000000E+00  0.00000000E+00  0.00000000E+00
  0.00000000E+00  0.00000000E+00  0.00000000E+00
  0.00000000E+00  0.00000000E+00  0.00000000E+00
  0.00000000E+00  0.00000000E+00  0.00000000E+00
  0.00000000E+00  0.00000000E+00  0.00000000E+00
  0.00000000E+00  0.00000000E+00  0.00000000E+00
  0.00000000E+00  0.00000000E+00  0.00000000E+00
  0.00000000E+00  0.00000000E+00  0.00000000E+00
  0.00000000E+00  0.00000000E+00  0.00000000E+00
  0.00000000E+00  0.00000000E+00  0.00000000E+00
  0.00000000E+00  0.00000000E+00  0.00000000E+00
  0.00000000E+00  0.00000000E+00  0.00000000E+00
  0.00000000E+00  0.00000000E+00  0.00000000E+00
  0.00000000E+00  0.00000000E+00  0.00000000E+00
  0.00000000E+00  0.00000000E+00  0.00000000E+00
  0.00000000E+00  0.00000000E+00  0.00000000E+00
  0.00000000E+00  0.00000000E+00  0.00000000E+00
  0.00000000E+00  0.00000000E+00  0.00000000E+00
  0.00000000E+00  0.00000000E+00  0.00000000E+00
  0.00000000E+00  0.00000000E+00  0.00000000E+00
  0.00000000E+00  0.00000000E+00  0.00000000E+00
  0.00000000E+00  0.00000000E+00  0.00000000E+00
  0.00000000E+00  0.00000000E+00  0.00000000E+00
  0.00000000E+00  0.00000000E+00  0.00000000E+00
  0.00000000E+00  0.00000000E+00  0.00000000E+00
  0.00000000E+00  0.00000000E+00  0.00000000E+00
  0.00000000E+00  0.00000000E+00  0.00000000E+00
  0.00000000E+00  0.00000000E+00  0.00000000E+00
  0.00000000E+00  0.00000000E+00  0.00000000E+00
  0.00000000E+00  0.00000000E+00  0.00000000E+00
  0.00000000E+00  0.00000000E+00  0.00000000E+00
  0.00000000E+00  0.00000000E+00  0.00000000E+00
  0.00000000E+00  0.00000000E+00  0.00000000E+00
  0.00000000E+00  0.00000000E+00  0.00000000E+00
  0.00000000E+00  0.00000000E+00  0.00000000E+00
  0.00000000E+00  0.00000000E+00  0.00000000E+00
  0.00000000E+00  0.00000000E+00  0.00000000E+00
  0.00000000E+00  0.00000000E+00  0.00000000E+00
  0.00000000E+00  0.00000000E+00  0.00000000E+00
