Ag  C  N Br                             
    1.000000000000000     
    11.7702790000000004    0.0000000000000000    0.0000000000000000
     0.0000000000000000   11.7702790000000004    0.0000000000000000
     0.0000000000000000    0.0000000000000000   24.2421330600000005
   Ag   C    N    Br
    64     4     2     4
Selective dynamics
Direct
  0.0000000000000000  0.2499999991504041  0.3093787160328390   F   F   F
  0.7499999974512050  0.7499999974512050  0.3093787160328390   F   F   F
  0.0000000000000000  0.4999999983008081  0.3093787160328390   F   F   F
  0.0000000000000000  0.7499999974512050  0.3093787160328390   F   F   F
  0.0000000000000000  0.0000000000000000  0.3093787160328390   F   F   F
  0.2499999991504041  0.2499999991504041  0.3093787160328390   F   F   F
  0.2499999991504041  0.4999999983008081  0.3093787160328390   F   F   F
  0.7499999974512050  0.0000000000000000  0.3093787160328390   F   F   F
  0.2499999991504041  0.7499999974512050  0.3093787160328390   F   F   F
  0.2499999991504041  0.0000000000000000  0.3093787160328390   F   F   F
  0.4999999983008081  0.2499999991504041  0.3093787160328390   F   F   F
  0.4999999983008081  0.4999999983008081  0.3093787160328390   F   F   F
  0.4999999983008081  0.7499999974512050  0.3093787160328390   F   F   F
  0.4999999983008081  0.0000000000000000  0.3093787160328390   F   F   F
  0.7499999974512050  0.2499999991504041  0.3093787160328390   F   F   F
  0.7499999974512050  0.4999999983008081  0.3093787160328390   F   F   F
  0.0001976945260967  0.2499125868940640  0.4739980900408244   T   T   T
 -0.0000002799881156  0.5000025450257640  0.4741015930993269   T   T   T
  0.9998024047425546  0.7500909930534948  0.4739980683307475   T   T   T
  0.0000001419389767  0.0000013873491558  0.4740825329395815   T   T   T
  0.2498423606423461  0.2498441512882225  0.4741218487034240   T   T   T
  0.2494562989011272  0.4997755005441060  0.4737605875624049   T   T   T
  0.2496792179908389  0.7503229646696156  0.4738333813802706   T   T   T
  0.2499110579610476  0.0001990678500947  0.4739979327493818   T   T   T
  0.4997730660427800  0.2494576522661629  0.4737607249438178   T   T   T
  0.4999997796372269  0.5000018682078005  0.4737998584385049   T   T   T
  0.5002255345178762  0.7505458666959187  0.4737606405218002   T   T   T
  0.4999992775569789  0.0000020041789068  0.4741019573119074   T   T   T
  0.7503195680617682  0.2496810016776210  0.4738338092168264   T   T   T
  0.7505429654376291  0.5002284850630700  0.4737604894595186   T   T   T
  0.7501575585638190  0.7501591611881779  0.4741220492298743   T   T   T
  0.7500880646906354  0.9998043703669702  0.4739987822280629   T   T   T
  0.1250257375478332  0.1250276029120219  0.5524431723458499   T   T   T
  0.1248471915870661  0.3748492555324080  0.5524605278672593   T   T   T
  0.1246758726054966  0.6253349763945407  0.5520451533687482   T   T   T
  0.1247882676057993  0.8752136708099398  0.5521960325497813   T   T   T
  0.3748471528173454  0.1248492910865056  0.5524606403667177   T   T   T
  0.3748166641646141  0.3748179651129191  0.5517208265220503   T   T   T
  0.3751137316806765  0.6248902245808436  0.5510439198784552   T   T   T
  0.3746680834880911  0.8753242200058843  0.5520468798981842   T   T   T
  0.6253307849366325  0.1246806430278701  0.5520478245348764   T   T   T
  0.6248843899147570  0.3751125901201546  0.5510433009057095   T   T   T
  0.6251830176692277  0.6251862932385882  0.5517205717586715   T   T   T
  0.6251523462231053  0.8751546269768468  0.5524606623300676   T   T   T
  0.8752113451476763  0.1247902995351632  0.5521955447377653   T   T   T
  0.8753254056617785  0.3746682224965932  0.5520436433231994   T   T   T
  0.8751524317374466  0.6251550282705534  0.5524600852014601   T   T   T
  0.8749738767481723  0.8749762330003925  0.5524434233201008   T   T   T
  0.1249999995752020  0.1249999995752020  0.3952090765398992   F   F   F
  0.1249999995752020  0.3749999987256061  0.3952090765398992   F   F   F
  0.1249999995752020  0.6249999978760030  0.3952090765398992   F   F   F
  0.1249999995752020  0.8749999970264071  0.3952090765398992   F   F   F
  0.3749999987256061  0.1249999995752020  0.3952090765398992   F   F   F
  0.3749999987256061  0.3749999987256061  0.3952090765398992   F   F   F
  0.3749999987256061  0.6249999978760030  0.3952090765398992   F   F   F
  0.3749999987256061  0.8749999970264071  0.3952090765398992   F   F   F
  0.6249999978760030  0.1249999995752020  0.3952090765398992   F   F   F
  0.6249999978760030  0.3749999987256061  0.3952090765398992   F   F   F
  0.6249999978760030  0.6249999978760030  0.3952090765398992   F   F   F
  0.6249999978760030  0.8749999970264071  0.3952090765398992   F   F   F
  0.8749999970264071  0.1249999995752020  0.3952090765398992   F   F   F
  0.8749999970264071  0.3749999987256061  0.3952090765398992   F   F   F
  0.8749999970264071  0.6249999978760030  0.3952090765398992   F   F   F
  0.8749999970264071  0.8749999970264071  0.3952090765398992   F   F   F
  0.5263917288162996  0.3887830126034201  0.6756629072041391   T   T   T
  0.6111855547920216  0.4736036793535046  0.6756447912167646   T   T   T
  0.4736138086706216  0.6111931972583659  0.6756664125097127   T   T   T
  0.3888183234541124  0.5263771209201423  0.6756703678792446   T   T   T
  0.5826251435995916  0.5826130562778122  0.6763592447627725   T   T   T
  0.4173774361442902  0.4173596068013481  0.6763697646832426   T   T   T
  0.2311520558783088  0.5610869752566447  0.6774337913088998   T   T   T
  0.4389710256136628  0.7687317326537700  0.6775113030679193   T   T   T
  0.5610405694278804  0.2312688235707939  0.6775178465638567   T   T   T
  0.7688548470831472  0.4388607586749372  0.6773878141166623   T   T   T
 
  0.00000000E+00  0.00000000E+00  0.00000000E+00
  0.00000000E+00  0.00000000E+00  0.00000000E+00
  0.00000000E+00  0.00000000E+00  0.00000000E+00
  0.00000000E+00  0.00000000E+00  0.00000000E+00
  0.00000000E+00  0.00000000E+00  0.00000000E+00
  0.00000000E+00  0.00000000E+00  0.00000000E+00
  0.00000000E+00  0.00000000E+00  0.00000000E+00
  0.00000000E+00  0.00000000E+00  0.00000000E+00
  0.00000000E+00  0.00000000E+00  0.00000000E+00
  0.00000000E+00  0.00000000E+00  0.00000000E+00
  0.00000000E+00  0.00000000E+00  0.00000000E+00
  0.00000000E+00  0.00000000E+00  0.00000000E+00
  0.00000000E+00  0.00000000E+00  0.00000000E+00
  0.00000000E+00  0.00000000E+00  0.00000000E+00
  0.00000000E+00  0.00000000E+00  0.00000000E+00
  0.00000000E+00  0.00000000E+00  0.00000000E+00
  0.00000000E+00  0.00000000E+00  0.00000000E+00
  0.00000000E+00  0.00000000E+00  0.00000000E+00
  0.00000000E+00  0.00000000E+00  0.00000000E+00
  0.00000000E+00  0.00000000E+00  0.00000000E+00
  0.00000000E+00  0.00000000E+00  0.00000000E+00
  0.00000000E+00  0.00000000E+00  0.00000000E+00
  0.00000000E+00  0.00000000E+00  0.00000000E+00
  0.00000000E+00  0.00000000E+00  0.00000000E+00
  0.00000000E+00  0.00000000E+00  0.00000000E+00
  0.00000000E+00  0.00000000E+00  0.00000000E+00
  0.00000000E+00  0.00000000E+00  0.00000000E+00
  0.00000000E+00  0.00000000E+00  0.00000000E+00
  0.00000000E+00  0.00000000E+00  0.00000000E+00
  0.00000000E+00  0.00000000E+00  0.00000000E+00
  0.00000000E+00  0.00000000E+00  0.00000000E+00
  0.00000000E+00  0.00000000E+00  0.00000000E+00
  0.00000000E+00  0.00000000E+00  0.00000000E+00
  0.00000000E+00  0.00000000E+00  0.00000000E+00
  0.00000000E+00  0.00000000E+00  0.00000000E+00
  0.00000000E+00  0.00000000E+00  0.00000000E+00
  0.00000000E+00  0.00000000E+00  0.00000000E+00
  0.00000000E+00  0.00000000E+00  0.00000000E+00
  0.00000000E+00  0.00000000E+00  0.00000000E+00
  0.00000000E+00  0.00000000E+00  0.00000000E+00
  0.00000000E+00  0.00000000E+00  0.00000000E+00
  0.00000000E+00  0.00000000E+00  0.00000000E+00
  0.00000000E+00  0.00000000E+00  0.00000000E+00
  0.00000000E+00  0.00000000E+00  0.00000000E+00
  0.00000000E+00  0.00000000E+00  0.00000000E+00
  0.00000000E+00  0.00000000E+00  0.00000000E+00
  0.00000000E+00  0.00000000E+00  0.00000000E+00
  0.00000000E+00  0.00000000E+00  0.00000000E+00
  0.00000000E+00  0.00000000E+00  0.00000000E+00
  0.00000000E+00  0.00000000E+00  0.00000000E+00
  0.00000000E+00  0.00000000E+00  0.00000000E+00
  0.00000000E+00  0.00000000E+00  0.00000000E+00
  0.00000000E+00  0.00000000E+00  0.00000000E+00
  0.00000000E+00  0.00000000E+00  0.00000000E+00
  0.00000000E+00  0.00000000E+00  0.00000000E+00
  0.00000000E+00  0.00000000E+00  0.00000000E+00
  0.00000000E+00  0.00000000E+00  0.00000000E+00
  0.00000000E+00  0.00000000E+00  0.00000000E+00
  0.00000000E+00  0.00000000E+00  0.00000000E+00
  0.00000000E+00  0.00000000E+00  0.00000000E+00
  0.00000000E+00  0.00000000E+00  0.00000000E+00
  0.00000000E+00  0.00000000E+00  0.00000000E+00
  0.00000000E+00  0.00000000E+00  0.00000000E+00
  0.00000000E+00  0.00000000E+00  0.00000000E+00
  0.00000000E+00  0.00000000E+00  0.00000000E+00
  0.00000000E+00  0.00000000E+00  0.00000000E+00
  0.00000000E+00  0.00000000E+00  0.00000000E+00
  0.00000000E+00  0.00000000E+00  0.00000000E+00
  0.00000000E+00  0.00000000E+00  0.00000000E+00
  0.00000000E+00  0.00000000E+00  0.00000000E+00
  0.00000000E+00  0.00000000E+00  0.00000000E+00
  0.00000000E+00  0.00000000E+00  0.00000000E+00
  0.00000000E+00  0.00000000E+00  0.00000000E+00
  0.00000000E+00  0.00000000E+00  0.00000000E+00
