Au48 C6 H2 Cl4                          
    1.000000000000000     
    11.7981856999999994    0.0000000000000000    0.0000000000000000
     0.0000000000000000   16.6851543000000007    0.0000000000000000
     0.0000000000000000    0.0000000000000000   15.8914013999999995
   Au   C    H    Cl
    48     6     2     4
Selective dynamics
Direct
  0.0000594064770425  0.2501059306316264  0.4056089556409290   T   T   T
  0.9999995289760832  0.4999997756277068  0.4056085099065427   T   T   T
  0.9999387889122104  0.7498958675417455  0.4056103253263288   T   T   T
  0.9999990341402309  0.9999984898798928  0.4054764201569512   T   T   T
  0.2499514755384808  0.2500604035105738  0.4058295764915911   T   T   T
  0.2496979005699274  0.4998783528551698  0.4054025336167371   T   T   T
  0.2495129665814559  0.7503364249317102  0.4051975030425439   T   T   T
  0.2500132261141914  0.0000314086982627  0.4055653560992951   T   T   T
  0.4996731864788160  0.2497034187370843  0.4053323126545365   T   T   T
  0.5000022424750910  0.4999996441644825  0.4057860763418475   T   T   T
  0.5003296002710158  0.7502979856587686  0.4053329119621125   T   T   T
  0.4999997231321487  0.9999990877327605  0.4055155444328378   T   T   T
  0.7504860927154198  0.2496664627311915  0.4051962530639912   T   T   T
  0.7503005417532762  0.5001210904206488  0.4054016159543465   T   T   T
  0.7500487789250982  0.7499399773484470  0.4058304155622423   T   T   T
  0.7499880524356612  0.9999661480349644  0.4055657296373312   T   T   T
  0.1250445168745387  0.1249574632643657  0.4964492587433611   T   T   T
  0.1250697371448055  0.3751896720594416  0.4969496236132613   T   T   T
  0.1239929850251329  0.6249000154143474  0.4966935402572048   T   T   T
  0.1251757118273602  0.8749477277955648  0.4964410345703811   T   T   T
  0.3751340393402671  0.1251122151097874  0.4965194175231460   T   T   T
  0.3743753138834265  0.3752897184940522  0.4960192667297250   T   T   T
  0.3738976393470352  0.6251287572406881  0.4932667076506050   T   T   T
  0.3750155992691973  0.8748644350677708  0.4965165753350149   T   T   T
  0.6249844781594263  0.1251356258694116  0.4965201447457446   T   T   T
  0.6261031599212572  0.3748722920935563  0.4932694800651873   T   T   T
  0.6256270135556932  0.6247089046547245  0.4960209962913211   T   T   T
  0.6248675239075538  0.8748879260882845  0.4965182185537387   T   T   T
  0.8748227429872273  0.1250524560419279  0.4964421633016016   T   T   T
  0.8760046826818524  0.3751012030052792  0.4966951036257257   T   T   T
  0.8749301629353567  0.6248098827359740  0.4969497693780198   T   T   T
  0.8749554657077212  0.8750423347150758  0.4964437496166738   T   T   T
  0.1250000006356942  0.1249999995504965  0.3146355613419942   F   F   F
  0.1250000006356942  0.3749999992508322  0.3146355613419942   F   F   F
  0.1250000006356942  0.6249999983518251  0.3146355613419942   F   F   F
  0.1250000006356942  0.8749999974528251  0.3146355613419942   F   F   F
  0.3750000002118981  0.1249999995504965  0.3146355613419942   F   F   F
  0.3750000002118981  0.3749999992508322  0.3146355613419942   F   F   F
  0.3750000010594832  0.6249999983518251  0.3146355613419942   F   F   F
  0.3750000010594832  0.8749999974528251  0.3146355613419942   F   F   F
  0.6250000006356942  0.1249999995504965  0.3146355613419942   F   F   F
  0.6250000006356942  0.3749999992508322  0.3146355613419942   F   F   F
  0.6250000014832793  0.6249999983518251  0.3146355613419942   F   F   F
  0.6250000006356942  0.8749999974528251  0.3146355613419942   F   F   F
  0.8750000010594832  0.1249999995504965  0.3146355613419942   F   F   F
  0.8750000010594832  0.3749999992508322  0.3146355613419942   F   F   F
  0.8750000019070754  0.6249999983518251  0.3146355613419942   F   F   F
  0.8750000010594832  0.8749999974528251  0.3146355613419942   F   F   F
  0.5683182976259502  0.5681719737402631  0.6850722463362047   T   T   T
  0.6187017057222874  0.4923918806672916  0.6854341459100155   T   T   T
  0.5495964281165868  0.4238500528432994  0.6860462535216243   T   T   T
  0.4316852764636820  0.4318272586713974  0.6850562974617986   T   T   T
  0.3813001377105252  0.5076073214546852  0.6854022605424461   T   T   T
  0.4504051918602912  0.5761509825723081  0.6860321062261647   T   T   T
  0.6214716843251082  0.6215975006250289  0.6858966924796022   T   T   T
  0.3785300554891862  0.3784029057311713  0.6858689173860881   T   T   T
  0.7639188848038714  0.4853635776506664  0.6847166566857226   T   T   T
  0.6073238599239303  0.3290189212921462  0.6874619378795970   T   T   T
  0.2360840861316049  0.5146354388673657  0.6846395955137226   T   T   T
  0.3926769609059448  0.6709801018688282  0.6874323147928152   T   T   T
 
  0.00000000E+00  0.00000000E+00  0.00000000E+00
  0.00000000E+00  0.00000000E+00  0.00000000E+00
  0.00000000E+00  0.00000000E+00  0.00000000E+00
  0.00000000E+00  0.00000000E+00  0.00000000E+00
  0.00000000E+00  0.00000000E+00  0.00000000E+00
  0.00000000E+00  0.00000000E+00  0.00000000E+00
  0.00000000E+00  0.00000000E+00  0.00000000E+00
  0.00000000E+00  0.00000000E+00  0.00000000E+00
  0.00000000E+00  0.00000000E+00  0.00000000E+00
  0.00000000E+00  0.00000000E+00  0.00000000E+00
  0.00000000E+00  0.00000000E+00  0.00000000E+00
  0.00000000E+00  0.00000000E+00  0.00000000E+00
  0.00000000E+00  0.00000000E+00  0.00000000E+00
  0.00000000E+00  0.00000000E+00  0.00000000E+00
  0.00000000E+00  0.00000000E+00  0.00000000E+00
  0.00000000E+00  0.00000000E+00  0.00000000E+00
  0.00000000E+00  0.00000000E+00  0.00000000E+00
  0.00000000E+00  0.00000000E+00  0.00000000E+00
  0.00000000E+00  0.00000000E+00  0.00000000E+00
  0.00000000E+00  0.00000000E+00  0.00000000E+00
  0.00000000E+00  0.00000000E+00  0.00000000E+00
  0.00000000E+00  0.00000000E+00  0.00000000E+00
  0.00000000E+00  0.00000000E+00  0.00000000E+00
  0.00000000E+00  0.00000000E+00  0.00000000E+00
  0.00000000E+00  0.00000000E+00  0.00000000E+00
  0.00000000E+00  0.00000000E+00  0.00000000E+00
  0.00000000E+00  0.00000000E+00  0.00000000E+00
  0.00000000E+00  0.00000000E+00  0.00000000E+00
  0.00000000E+00  0.00000000E+00  0.00000000E+00
  0.00000000E+00  0.00000000E+00  0.00000000E+00
  0.00000000E+00  0.00000000E+00  0.00000000E+00
  0.00000000E+00  0.00000000E+00  0.00000000E+00
  0.00000000E+00  0.00000000E+00  0.00000000E+00
  0.00000000E+00  0.00000000E+00  0.00000000E+00
  0.00000000E+00  0.00000000E+00  0.00000000E+00
  0.00000000E+00  0.00000000E+00  0.00000000E+00
  0.00000000E+00  0.00000000E+00  0.00000000E+00
  0.00000000E+00  0.00000000E+00  0.00000000E+00
  0.00000000E+00  0.00000000E+00  0.00000000E+00
  0.00000000E+00  0.00000000E+00  0.00000000E+00
  0.00000000E+00  0.00000000E+00  0.00000000E+00
  0.00000000E+00  0.00000000E+00  0.00000000E+00
  0.00000000E+00  0.00000000E+00  0.00000000E+00
  0.00000000E+00  0.00000000E+00  0.00000000E+00
  0.00000000E+00  0.00000000E+00  0.00000000E+00
  0.00000000E+00  0.00000000E+00  0.00000000E+00
  0.00000000E+00  0.00000000E+00  0.00000000E+00
  0.00000000E+00  0.00000000E+00  0.00000000E+00
  0.00000000E+00  0.00000000E+00  0.00000000E+00
  0.00000000E+00  0.00000000E+00  0.00000000E+00
  0.00000000E+00  0.00000000E+00  0.00000000E+00
  0.00000000E+00  0.00000000E+00  0.00000000E+00
  0.00000000E+00  0.00000000E+00  0.00000000E+00
  0.00000000E+00  0.00000000E+00  0.00000000E+00
  0.00000000E+00  0.00000000E+00  0.00000000E+00
  0.00000000E+00  0.00000000E+00  0.00000000E+00
  0.00000000E+00  0.00000000E+00  0.00000000E+00
  0.00000000E+00  0.00000000E+00  0.00000000E+00
  0.00000000E+00  0.00000000E+00  0.00000000E+00
  0.00000000E+00  0.00000000E+00  0.00000000E+00
