Pt48 C4 N2 Br4                          
    1.000000000000000     
    11.2480068000000006    0.0000000000000000    0.0000000000000000
     0.0000000000000000   11.2480068000000006    0.0000000000000000
     0.0000000000000000    0.0000000000000000   16.9136689300000000
   Pt   C    N    Br
    48     4     2     4
Selective dynamics
Direct
  0.2501862172815734  0.9994693751478891  0.4115022829360129   T   T   T
  0.2496033267715987  0.2495955614860605  0.4112016594343828   T   T   T
  0.2490171599918440  0.4997052496453094  0.4111285218695855   T   T   T
  0.2500502931045503  0.7499518450637552  0.4115253697131749   T   T   T
  0.5000043187817198  0.0000049809339728  0.4118201551528173   T   T   T
  0.4997099071990760  0.2490180706581953  0.4111470982760608   T   T   T
  0.5000065725425529  0.4999887209821807  0.4104890049352505   T   T   T
  0.5002985234152746  0.7509898545563161  0.4111404472972922   T   T   T
  0.7498086010101019  0.0005298433029211  0.4115071027335162   T   T   T
  0.7499384121728241  0.2500526417420090  0.4115367765274840   T   T   T
  0.7509776684735030  0.5002882499166788  0.4111408953362741   T   T   T
  0.7503995771052345  0.7504048250900368  0.4112067853133823   T   T   T
  0.9999989464095975  0.0000010424192212  0.4114958990630981   T   T   T
  0.9994675955974870  0.2501801795228005  0.4114962021267843   T   T   T
  0.9999943429348406  0.4999999084537876  0.4118005457155647   T   T   T
  0.0005302780961784  0.7498175393009561  0.4114922049392646   T   T   T
  0.1248135403122816  0.1248311811352423  0.5273374647497988   T   T   T
  0.1249600459554685  0.3743363872152941  0.5272509494678701   T   T   T
  0.1249287909729162  0.6249729586697867  0.5282943491515582   T   T   T
  0.1250603666706738  0.8749253118072318  0.5271860916355422   T   T   T
  0.3743229809233029  0.1249738243858900  0.5272619256103752   T   T   T
  0.3744149038412559  0.3744363000832678  0.5266988594392501   T   T   T
  0.3760216488914949  0.6239667139585450  0.5252673040818081   T   T   T
  0.3750136198472447  0.8750516493611187  0.5283008055409653   T   T   T
  0.6249906391173496  0.1249417837166718  0.5282972618810007   T   T   T
  0.6239763987713758  0.3760307360384587  0.5252781528210875   T   T   T
  0.6255827596470311  0.6255689298242899  0.5266937399178460   T   T   T
  0.6256794843523821  0.8750238175840082  0.5272645650545371   T   T   T
  0.8749297028650034  0.1250727543258492  0.5271785086067382   T   T   T
  0.8750685532059848  0.3750240115780414  0.5282781484881909   T   T   T
  0.8750349460009232  0.6256699712709235  0.5272415602248017   T   T   T
  0.8751799978647909  0.8751696640702136  0.5273269234521223   T   T   T
  0.1250000008890453  0.1250000000000000  0.2956188879357455   F   F   F
  0.1250000008890453  0.3750000008890453  0.2956188879357455   F   F   F
  0.1250000008890453  0.6250000026671358  0.2956188879357455   F   F   F
  0.1250000008890453  0.8750000026671358  0.2956188879357455   F   F   F
  0.3750000017780906  0.1250000000000000  0.2956188879357455   F   F   F
  0.3750000017780906  0.3750000008890453  0.2956188879357455   F   F   F
  0.3750000017780906  0.6250000026671358  0.2956188879357455   F   F   F
  0.3750000017780906  0.8750000026671358  0.2956188879357455   F   F   F
  0.6250000026671358  0.1250000000000000  0.2956188879357455   F   F   F
  0.6250000026671358  0.3750000008890453  0.2956188879357455   F   F   F
  0.6250000026671358  0.6250000026671358  0.2956188879357455   F   F   F
  0.6250000026671358  0.8750000026671358  0.2956188879357455   F   F   F
  0.8750000035561882  0.1250000000000000  0.2956188879357455   F   F   F
  0.8750000026671358  0.3750000008890453  0.2956188879357455   F   F   F
  0.8750000035561882  0.6250000026671358  0.2956188879357455   F   F   F
  0.8750000035561882  0.8750000026671358  0.2956188879357455   F   F   F
  0.4722966014732251  0.6165685625965551  0.7082476589246838   T   T   T
  0.3834271723929774  0.5277495405237218  0.7082401297790852   T   T   T
  0.5277108720033041  0.3834287623704427  0.7082347010575134   T   T   T
  0.6165754985035719  0.4722545018194069  0.7082369307579555   T   T   T
  0.4139519529715372  0.4139748782978288  0.7080399170603258   T   T   T
  0.5860497682598407  0.5860185899222827  0.7080497457951225   T   T   T
  0.7816881169891730  0.4364580792627848  0.7111550623842717   T   T   T
  0.5634776818545646  0.2182982425994382  0.7111516433431149   T   T   T
  0.4365202712531300  0.7816949105856565  0.7111796803303037   T   T   T
  0.2183206140398113  0.5635532896530364  0.7111648836430504   T   T   T
 
  0.00000000E+00  0.00000000E+00  0.00000000E+00
  0.00000000E+00  0.00000000E+00  0.00000000E+00
  0.00000000E+00  0.00000000E+00  0.00000000E+00
  0.00000000E+00  0.00000000E+00  0.00000000E+00
  0.00000000E+00  0.00000000E+00  0.00000000E+00
  0.00000000E+00  0.00000000E+00  0.00000000E+00
  0.00000000E+00  0.00000000E+00  0.00000000E+00
  0.00000000E+00  0.00000000E+00  0.00000000E+00
  0.00000000E+00  0.00000000E+00  0.00000000E+00
  0.00000000E+00  0.00000000E+00  0.00000000E+00
  0.00000000E+00  0.00000000E+00  0.00000000E+00
  0.00000000E+00  0.00000000E+00  0.00000000E+00
  0.00000000E+00  0.00000000E+00  0.00000000E+00
  0.00000000E+00  0.00000000E+00  0.00000000E+00
  0.00000000E+00  0.00000000E+00  0.00000000E+00
  0.00000000E+00  0.00000000E+00  0.00000000E+00
  0.00000000E+00  0.00000000E+00  0.00000000E+00
  0.00000000E+00  0.00000000E+00  0.00000000E+00
  0.00000000E+00  0.00000000E+00  0.00000000E+00
  0.00000000E+00  0.00000000E+00  0.00000000E+00
  0.00000000E+00  0.00000000E+00  0.00000000E+00
  0.00000000E+00  0.00000000E+00  0.00000000E+00
  0.00000000E+00  0.00000000E+00  0.00000000E+00
  0.00000000E+00  0.00000000E+00  0.00000000E+00
  0.00000000E+00  0.00000000E+00  0.00000000E+00
  0.00000000E+00  0.00000000E+00  0.00000000E+00
  0.00000000E+00  0.00000000E+00  0.00000000E+00
  0.00000000E+00  0.00000000E+00  0.00000000E+00
  0.00000000E+00  0.00000000E+00  0.00000000E+00
  0.00000000E+00  0.00000000E+00  0.00000000E+00
  0.00000000E+00  0.00000000E+00  0.00000000E+00
  0.00000000E+00  0.00000000E+00  0.00000000E+00
  0.00000000E+00  0.00000000E+00  0.00000000E+00
  0.00000000E+00  0.00000000E+00  0.00000000E+00
  0.00000000E+00  0.00000000E+00  0.00000000E+00
  0.00000000E+00  0.00000000E+00  0.00000000E+00
  0.00000000E+00  0.00000000E+00  0.00000000E+00
  0.00000000E+00  0.00000000E+00  0.00000000E+00
  0.00000000E+00  0.00000000E+00  0.00000000E+00
  0.00000000E+00  0.00000000E+00  0.00000000E+00
  0.00000000E+00  0.00000000E+00  0.00000000E+00
  0.00000000E+00  0.00000000E+00  0.00000000E+00
  0.00000000E+00  0.00000000E+00  0.00000000E+00
  0.00000000E+00  0.00000000E+00  0.00000000E+00
  0.00000000E+00  0.00000000E+00  0.00000000E+00
  0.00000000E+00  0.00000000E+00  0.00000000E+00
  0.00000000E+00  0.00000000E+00  0.00000000E+00
  0.00000000E+00  0.00000000E+00  0.00000000E+00
  0.00000000E+00  0.00000000E+00  0.00000000E+00
  0.00000000E+00  0.00000000E+00  0.00000000E+00
  0.00000000E+00  0.00000000E+00  0.00000000E+00
  0.00000000E+00  0.00000000E+00  0.00000000E+00
  0.00000000E+00  0.00000000E+00  0.00000000E+00
  0.00000000E+00  0.00000000E+00  0.00000000E+00
  0.00000000E+00  0.00000000E+00  0.00000000E+00
  0.00000000E+00  0.00000000E+00  0.00000000E+00
  0.00000000E+00  0.00000000E+00  0.00000000E+00
  0.00000000E+00  0.00000000E+00  0.00000000E+00
