Ir  C  H  F                             
    1.000000000000000     
    10.9622135000000007    0.0000000000000000    0.0000000000000000
     0.0000000000000000   15.5029109999999992    0.0000000000000000
     0.0000000000000000    0.0000000000000000   22.1108300437499992
   Ir   C    H    F 
    64     6     2     4
Selective dynamics
Direct
  0.2499999995438884  0.0000000000000000  0.3392002916742598   F   F   F
  0.9999999981755536  0.4999999993549622  0.3392002916742598   F   F   F
  0.2499999995438884  0.2499999993549622  0.3392002916742598   F   F   F
  0.2499999995438884  0.4999999993549622  0.3392002916742598   F   F   F
  0.2499999995438884  0.7499999987099173  0.3392002916742598   F   F   F
  0.4999999990877768  0.0000000000000000  0.3392002916742598   F   F   F
  0.4999999990877768  0.2499999993549622  0.3392002916742598   F   F   F
  0.4999999990877768  0.4999999993549622  0.3392002916742598   F   F   F
  0.4999999990877768  0.7499999987099173  0.3392002916742598   F   F   F
  0.7499999986316652  0.0000000000000000  0.3392002916742598   F   F   F
  0.7499999986316652  0.2499999993549622  0.3392002916742598   F   F   F
  0.7499999986316652  0.4999999993549622  0.3392002916742598   F   F   F
  0.0000000000000000  0.0000000000000000  0.3392002916742598   F   F   F
  0.9999999981755536  0.2499999993549622  0.3392002916742598   F   F   F
  0.9999999981755536  0.7499999987099173  0.3392002916742598   F   F   F
  0.7499999986316652  0.7499999987099173  0.3392002916742598   F   F   F
  0.2501645531053542  0.0000857653309345  0.4631279422068072   T   T   T
  0.2498924380156261  0.2504986448758807  0.4627028010262770   T   T   T
  0.2496801497177910  0.4998734296605378  0.4613150191159671   T   T   T
  0.2528008052033232  0.7476751388611828  0.4644288415984926   T   T   T
  0.4999673342439200  0.0000143202205542  0.4632019314214827   T   T   T
  0.4997441729936554  0.2514672488416764  0.4628863745109498   T   T   T
  0.4999987945760839  0.4999948156217844  0.4598392941349990   T   T   T
  0.5001997094642127  0.7485227640291594  0.4629234564039960   T   T   T
  0.7498318902682034 -0.0000893402483395  0.4631633998330216   T   T   T
  0.7471306686376700  0.2523820377932534  0.4644586547232984   T   T   T
  0.7503500480779328  0.5001092203247269  0.4613477394341251   T   T   T
  0.7500898567824875  0.7495167194884353  0.4626915978605452   T   T   T
 -0.0000284151768072  0.0000025836244885  0.4633981344454004   T   T   T
  0.9986284056520105  0.2502939845820014  0.4628690558155791   T   T   T
  0.0000051994160841  0.4999794174787291  0.4631031093835404   T   T   T
  0.0013753205740203  0.7497127920257152  0.4628839630959074   T   T   T
  0.1248643343056149  0.1256060878406634  0.5198009027766073   T   T   T
  0.1207873542202077  0.3747910797366782  0.5198221765251607   T   T   T
  0.1248570982203987  0.6243973965161377  0.5201291430533588   T   T   T
  0.1254216251322673  0.8744799879805892  0.5198487345469248   T   T   T
  0.3752274268312679  0.1256242092860567  0.5199417442374956   T   T   T
  0.3672322222251141  0.3749099045455953  0.5209917924904914   T   T   T
  0.3801776448508434  0.6149241613389879  0.5266447086216209   T   T   T
  0.3750979146729554  0.8742992233757337  0.5196332502961137   T   T   T
  0.6248435385488037  0.1257065801819277  0.5196518097170196   T   T   T
  0.6197666105856194  0.3850676180014767  0.5266641459763111   T   T   T
  0.6327808388422380  0.6250822766019264  0.5209721406807949   T   T   T
  0.6248192814504132  0.8743879490204522  0.5199399293823590   T   T   T
  0.8745214519113967  0.1255966920798703  0.5199159935040544   T   T   T
  0.8751645476271900  0.3755969476817361  0.5201452465824061   T   T   T
  0.8792503153172655  0.6252059249260313  0.5198256557571399   T   T   T
  0.8751430500619868  0.8743971813939081  0.5197907772148479   T   T   T
  0.1249999993158326  0.1249999996774775  0.4011733916681877   F   F   F
  0.1249999993158326  0.3749999996774775  0.4011733916681877   F   F   F
  0.1250000002280558  0.6249999990324397  0.4011733916681877   F   F   F
  0.1250000002280558  0.8749999983874019  0.4011733916681877   F   F   F
  0.3749999988597210  0.1249999996774775  0.4011733916681877   F   F   F
  0.3749999997719442  0.3749999996774775  0.4011733916681877   F   F   F
  0.3749999997719442  0.6249999990324397  0.4011733916681877   F   F   F
  0.3749999997719442  0.8749999983874019  0.4011733916681877   F   F   F
  0.6249999993158326  0.1249999996774775  0.4011733916681877   F   F   F
  0.6249999984036094  0.3749999996774775  0.4011733916681877   F   F   F
  0.6249999993158326  0.6249999990324397  0.4011733916681877   F   F   F
  0.6249999993158326  0.8749999983874019  0.4011733916681877   F   F   F
  0.8749999979474978  0.1249999996774775  0.4011733916681877   F   F   F
  0.8749999988597210  0.3749999996774775  0.4011733916681877   F   F   F
  0.8749999988597210  0.6249999990324397  0.4011733916681877   F   F   F
  0.8749999988597210  0.8749999983874019  0.4011733916681877   F   F   F
  0.6036322288207426  0.5631168509329406  0.6034126883120791   T   T   T
  0.6266712726213624  0.4668628841821356  0.6047023963865151   T   T   T
  0.5250309566434345  0.4078118406684028  0.6112852725228156   T   T   T
  0.3962049542040257  0.4368459673760543  0.6034545484602994   T   T   T
  0.3731861674410070  0.5331083000450239  0.6047284086156010   T   T   T
  0.4749024853231413  0.5921389917945791  0.6112498220989478   T   T   T
  0.6625737735324124  0.5939293237111367  0.6374143740124081   T   T   T
  0.3372927406984407  0.4060284188845795  0.6374625922436944   T   T   T
  0.7286510182018899  0.4488040765339136  0.6399876715627082   T   T   T
  0.5380304049659971  0.3411034013601297  0.6519416568292947   T   T   T
  0.2712491285404566  0.5511727521062720  0.6400116905304581   T   T   T
  0.4618852373807960  0.6588785430200892  0.6519104404923457   T   T   T
 
  0.00000000E+00  0.00000000E+00  0.00000000E+00
  0.00000000E+00  0.00000000E+00  0.00000000E+00
  0.00000000E+00  0.00000000E+00  0.00000000E+00
  0.00000000E+00  0.00000000E+00  0.00000000E+00
  0.00000000E+00  0.00000000E+00  0.00000000E+00
  0.00000000E+00  0.00000000E+00  0.00000000E+00
  0.00000000E+00  0.00000000E+00  0.00000000E+00
  0.00000000E+00  0.00000000E+00  0.00000000E+00
  0.00000000E+00  0.00000000E+00  0.00000000E+00
  0.00000000E+00  0.00000000E+00  0.00000000E+00
  0.00000000E+00  0.00000000E+00  0.00000000E+00
  0.00000000E+00  0.00000000E+00  0.00000000E+00
  0.00000000E+00  0.00000000E+00  0.00000000E+00
  0.00000000E+00  0.00000000E+00  0.00000000E+00
  0.00000000E+00  0.00000000E+00  0.00000000E+00
  0.00000000E+00  0.00000000E+00  0.00000000E+00
  0.00000000E+00  0.00000000E+00  0.00000000E+00
  0.00000000E+00  0.00000000E+00  0.00000000E+00
  0.00000000E+00  0.00000000E+00  0.00000000E+00
  0.00000000E+00  0.00000000E+00  0.00000000E+00
  0.00000000E+00  0.00000000E+00  0.00000000E+00
  0.00000000E+00  0.00000000E+00  0.00000000E+00
  0.00000000E+00  0.00000000E+00  0.00000000E+00
  0.00000000E+00  0.00000000E+00  0.00000000E+00
  0.00000000E+00  0.00000000E+00  0.00000000E+00
  0.00000000E+00  0.00000000E+00  0.00000000E+00
  0.00000000E+00  0.00000000E+00  0.00000000E+00
  0.00000000E+00  0.00000000E+00  0.00000000E+00
  0.00000000E+00  0.00000000E+00  0.00000000E+00
  0.00000000E+00  0.00000000E+00  0.00000000E+00
  0.00000000E+00  0.00000000E+00  0.00000000E+00
  0.00000000E+00  0.00000000E+00  0.00000000E+00
  0.00000000E+00  0.00000000E+00  0.00000000E+00
  0.00000000E+00  0.00000000E+00  0.00000000E+00
  0.00000000E+00  0.00000000E+00  0.00000000E+00
  0.00000000E+00  0.00000000E+00  0.00000000E+00
  0.00000000E+00  0.00000000E+00  0.00000000E+00
  0.00000000E+00  0.00000000E+00  0.00000000E+00
  0.00000000E+00  0.00000000E+00  0.00000000E+00
  0.00000000E+00  0.00000000E+00  0.00000000E+00
  0.00000000E+00  0.00000000E+00  0.00000000E+00
  0.00000000E+00  0.00000000E+00  0.00000000E+00
  0.00000000E+00  0.00000000E+00  0.00000000E+00
  0.00000000E+00  0.00000000E+00  0.00000000E+00
  0.00000000E+00  0.00000000E+00  0.00000000E+00
  0.00000000E+00  0.00000000E+00  0.00000000E+00
  0.00000000E+00  0.00000000E+00  0.00000000E+00
  0.00000000E+00  0.00000000E+00  0.00000000E+00
  0.00000000E+00  0.00000000E+00  0.00000000E+00
  0.00000000E+00  0.00000000E+00  0.00000000E+00
  0.00000000E+00  0.00000000E+00  0.00000000E+00
  0.00000000E+00  0.00000000E+00  0.00000000E+00
  0.00000000E+00  0.00000000E+00  0.00000000E+00
  0.00000000E+00  0.00000000E+00  0.00000000E+00
  0.00000000E+00  0.00000000E+00  0.00000000E+00
  0.00000000E+00  0.00000000E+00  0.00000000E+00
  0.00000000E+00  0.00000000E+00  0.00000000E+00
  0.00000000E+00  0.00000000E+00  0.00000000E+00
  0.00000000E+00  0.00000000E+00  0.00000000E+00
  0.00000000E+00  0.00000000E+00  0.00000000E+00
  0.00000000E+00  0.00000000E+00  0.00000000E+00
  0.00000000E+00  0.00000000E+00  0.00000000E+00
  0.00000000E+00  0.00000000E+00  0.00000000E+00
  0.00000000E+00  0.00000000E+00  0.00000000E+00
  0.00000000E+00  0.00000000E+00  0.00000000E+00
  0.00000000E+00  0.00000000E+00  0.00000000E+00
  0.00000000E+00  0.00000000E+00  0.00000000E+00
  0.00000000E+00  0.00000000E+00  0.00000000E+00
  0.00000000E+00  0.00000000E+00  0.00000000E+00
  0.00000000E+00  0.00000000E+00  0.00000000E+00
  0.00000000E+00  0.00000000E+00  0.00000000E+00
  0.00000000E+00  0.00000000E+00  0.00000000E+00
  0.00000000E+00  0.00000000E+00  0.00000000E+00
  0.00000000E+00  0.00000000E+00  0.00000000E+00
  0.00000000E+00  0.00000000E+00  0.00000000E+00
  0.00000000E+00  0.00000000E+00  0.00000000E+00
