Pd48 C6 H2 Cl4                          
    1.000000000000000     
    11.1817229999999999    0.0000000000000000    0.0000000000000000
     0.0000000000000000   15.8133443000000007    0.0000000000000000
     0.0000000000000000    0.0000000000000000   15.6577651400000004
   Pd   C    H    Cl
    48     6     2     4
Selective dynamics
Direct
  0.2499930281622937  0.0000913690241475  0.4034657910180925   T   T   T
  0.2482756594587343  0.2526082817841555  0.4047724782732232   T   T   T
  0.2466462426546627  0.4991478973388723  0.3937981187465311   T   T   T
  0.2536164513129435  0.7465751156973397  0.4041164379030278   T   T   T
  0.5000209153303246  0.9999974490013059  0.4041210866638991   T   T   T
  0.4984393540786201  0.2525960379220535  0.4040513297126935   T   T   T
  0.5000039466968147  0.5000005936540006  0.3823062186028992   T   T   T
  0.5015742589956673  0.7474173155871640  0.4040385736779371   T   T   T
  0.7500233743988289  0.9998935587050326  0.4034865291192702   T   T   T
  0.7463713963378922  0.2534182754149015  0.4041452038845890   T   T   T
  0.7533433412259996  0.5008583853870334  0.3938224911164596   T   T   T
  0.7517351355783219  0.7474167209697171  0.4047884442625929   T   T   T
  0.9999790102342914  0.9999885269568409  0.4026294875483245   T   T   T
  0.9961181075542171  0.2537404358594628  0.4063828060088994   T   T   T
  0.9999961529278849  0.4999909585522033  0.4026094859476217   T   T   T
  0.0038657241057010  0.7462679898303861  0.4064002675853331   T   T   T
  0.1219973655632955  0.1270084975072265  0.4869905441704958   T   T   T
  0.1196786442897988  0.3775448166149999  0.4897866613178863   T   T   T
  0.1406696032307195  0.6177801706420709  0.4936274886528693   T   T   T
  0.1283543114868877  0.8733529387191226  0.4873352930269732   T   T   T
  0.3731930049277565  0.1267340184461148  0.4876134603862425   T   T   T
  0.3678967775274131  0.3855162117157889  0.4883037520048958   T   T   T
  0.3907917564215850  0.6060933571083069  0.4908567183406163   T   T   T
  0.3774036845151940  0.8732205983741821  0.4879743060936903   T   T   T
  0.6226082453346322  0.1267824205485866  0.4879901063121110   T   T   T
  0.6091916662283694  0.3939254272364536  0.4908546598439756   T   T   T
  0.6320909352902078  0.6145288235662605  0.4883240844032741   T   T   T
  0.6268252586163001  0.8732618235014371  0.4876546208888328   T   T   T
  0.8716370392588502  0.1266457510622416  0.4873644969299846   T   T   T
  0.8593377257097501  0.3822054140501763  0.4936143223284972   T   T   T
  0.8803224414966593  0.6224478875450856  0.4897900552601868   T   T   T
  0.8779951016235543  0.8729865510205315  0.4870369595586510   T   T   T
  0.1249999995528412  0.1249999995257198  0.3193303741174915   F   F   F
  0.1249999995528412  0.3749999992095283  0.3193303741174915   F   F   F
  0.1249999995528412  0.6249999982609609  0.3193303741174915   F   F   F
  0.1249999995528412  0.8749999979447765  0.3193303741174915   F   F   F
  0.3749999986585237  0.1249999995257198  0.3193303741174915   F   F   F
  0.3749999986585237  0.3749999992095283  0.3193303741174915   F   F   F
  0.3749999986585237  0.6249999982609609  0.3193303741174915   F   F   F
  0.3749999986585237  0.8749999979447765  0.3193303741174915   F   F   F
  0.6249999977642062  0.1249999995257198  0.3193303741174915   F   F   F
  0.6249999977642062  0.3749999992095283  0.3193303741174915   F   F   F
  0.6249999977642062  0.6249999982609609  0.3193303741174915   F   F   F
  0.6249999977642062  0.8749999979447765  0.3193303741174915   F   F   F
  0.8749999968698887  0.1249999995257198  0.3193303741174915   F   F   F
  0.8749999968698887  0.3749999992095283  0.3193303741174915   F   F   F
  0.8749999968698887  0.6249999982609609  0.3193303741174915   F   F   F
  0.8749999968698887  0.8749999979447765  0.3193303741174915   F   F   F
  0.5993477648454544  0.5607663336108928  0.6072289453357129   T   T   T
  0.6222762527202121  0.4686523923052590  0.6048733172819638   T   T   T
  0.5247165319521940  0.4094893361589200  0.6154473460963175   T   T   T
  0.4005702960657800  0.4393053673927412  0.6072095658327541   T   T   T
  0.3776552426501425  0.5313813400379885  0.6048477111790973   T   T   T
  0.4752378816315854  0.5905579210115306  0.6154373170722138   T   T   T
  0.6636219227514033  0.5958494929194700  0.6465497579959560   T   T   T
  0.3363325276524876  0.4042050903560579  0.6465382883280597   T   T   T
  0.7699659188676620  0.4410926092257981  0.6371362136878105   T   T   T
  0.5437457430865891  0.3168325672377179  0.6747966191476422   T   T   T
  0.2300142546628337  0.5589559611690476  0.6370956529531782   T   T   T
  0.4561693539460876  0.6832069962899610  0.6747875827062941   T   T   T
 
  0.00000000E+00  0.00000000E+00  0.00000000E+00
  0.00000000E+00  0.00000000E+00  0.00000000E+00
  0.00000000E+00  0.00000000E+00  0.00000000E+00
  0.00000000E+00  0.00000000E+00  0.00000000E+00
  0.00000000E+00  0.00000000E+00  0.00000000E+00
  0.00000000E+00  0.00000000E+00  0.00000000E+00
  0.00000000E+00  0.00000000E+00  0.00000000E+00
  0.00000000E+00  0.00000000E+00  0.00000000E+00
  0.00000000E+00  0.00000000E+00  0.00000000E+00
  0.00000000E+00  0.00000000E+00  0.00000000E+00
  0.00000000E+00  0.00000000E+00  0.00000000E+00
  0.00000000E+00  0.00000000E+00  0.00000000E+00
  0.00000000E+00  0.00000000E+00  0.00000000E+00
  0.00000000E+00  0.00000000E+00  0.00000000E+00
  0.00000000E+00  0.00000000E+00  0.00000000E+00
  0.00000000E+00  0.00000000E+00  0.00000000E+00
  0.00000000E+00  0.00000000E+00  0.00000000E+00
  0.00000000E+00  0.00000000E+00  0.00000000E+00
  0.00000000E+00  0.00000000E+00  0.00000000E+00
  0.00000000E+00  0.00000000E+00  0.00000000E+00
  0.00000000E+00  0.00000000E+00  0.00000000E+00
  0.00000000E+00  0.00000000E+00  0.00000000E+00
  0.00000000E+00  0.00000000E+00  0.00000000E+00
  0.00000000E+00  0.00000000E+00  0.00000000E+00
  0.00000000E+00  0.00000000E+00  0.00000000E+00
  0.00000000E+00  0.00000000E+00  0.00000000E+00
  0.00000000E+00  0.00000000E+00  0.00000000E+00
  0.00000000E+00  0.00000000E+00  0.00000000E+00
  0.00000000E+00  0.00000000E+00  0.00000000E+00
  0.00000000E+00  0.00000000E+00  0.00000000E+00
  0.00000000E+00  0.00000000E+00  0.00000000E+00
  0.00000000E+00  0.00000000E+00  0.00000000E+00
  0.00000000E+00  0.00000000E+00  0.00000000E+00
  0.00000000E+00  0.00000000E+00  0.00000000E+00
  0.00000000E+00  0.00000000E+00  0.00000000E+00
  0.00000000E+00  0.00000000E+00  0.00000000E+00
  0.00000000E+00  0.00000000E+00  0.00000000E+00
  0.00000000E+00  0.00000000E+00  0.00000000E+00
  0.00000000E+00  0.00000000E+00  0.00000000E+00
  0.00000000E+00  0.00000000E+00  0.00000000E+00
  0.00000000E+00  0.00000000E+00  0.00000000E+00
  0.00000000E+00  0.00000000E+00  0.00000000E+00
  0.00000000E+00  0.00000000E+00  0.00000000E+00
  0.00000000E+00  0.00000000E+00  0.00000000E+00
  0.00000000E+00  0.00000000E+00  0.00000000E+00
  0.00000000E+00  0.00000000E+00  0.00000000E+00
  0.00000000E+00  0.00000000E+00  0.00000000E+00
  0.00000000E+00  0.00000000E+00  0.00000000E+00
  0.00000000E+00  0.00000000E+00  0.00000000E+00
  0.00000000E+00  0.00000000E+00  0.00000000E+00
  0.00000000E+00  0.00000000E+00  0.00000000E+00
  0.00000000E+00  0.00000000E+00  0.00000000E+00
  0.00000000E+00  0.00000000E+00  0.00000000E+00
  0.00000000E+00  0.00000000E+00  0.00000000E+00
  0.00000000E+00  0.00000000E+00  0.00000000E+00
  0.00000000E+00  0.00000000E+00  0.00000000E+00
  0.00000000E+00  0.00000000E+00  0.00000000E+00
  0.00000000E+00  0.00000000E+00  0.00000000E+00
  0.00000000E+00  0.00000000E+00  0.00000000E+00
  0.00000000E+00  0.00000000E+00  0.00000000E+00
