Au  C  H Cl                             
    1.000000000000000     
    11.7981856999999994    0.0000000000000000    0.0000000000000000
     0.0000000000000000   11.7981856999999994    0.0000000000000000
     0.0000000000000000    0.0000000000000000   24.2569328400000011
   Au   C    H    Cl
    64     6     2     4
Selective dynamics
Direct
  0.2500000004237961  0.0000000000000000  0.3091899561032889   F   F   F
  0.0000000000000000  0.5000000008475851  0.3091899561032889   F   F   F
  0.2500000004237961  0.2500000004237961  0.3091899561032889   F   F   F
  0.2500000004237961  0.5000000008475851  0.3091899561032889   F   F   F
  0.2500000004237961  0.7500000012713812  0.3091899561032889   F   F   F
  0.5000000008475851  0.0000000000000000  0.3091899561032889   F   F   F
  0.5000000008475851  0.2500000004237961  0.3091899561032889   F   F   F
  0.0000000000000000  0.7500000012713812  0.3091899561032889   F   F   F
  0.5000000008475851  0.5000000008475851  0.3091899561032889   F   F   F
  0.5000000008475851  0.7500000012713812  0.3091899561032889   F   F   F
  0.7500000012713812  0.0000000000000000  0.3091899561032889   F   F   F
  0.7500000012713812  0.2500000004237961  0.3091899561032889   F   F   F
  0.7500000012713812  0.5000000008475851  0.3091899561032889   F   F   F
  0.7500000012713812  0.7500000012713812  0.3091899561032889   F   F   F
  0.0000000000000000  0.0000000000000000  0.3091899561032889   F   F   F
  0.0000000000000000  0.2500000004237961  0.3091899561032889   F   F   F
  0.2492216714465146  0.0006893997797487  0.4807492203554022   T   T   T
  0.2493040285381748  0.2492859070258990  0.4807407417334427   T   T   T
  0.2490697517372778  0.4997222391012978  0.4805557328210609   T   T   T
  0.2491325141164614  0.7508717735955218  0.4806763980645254   T   T   T
  0.5002119082533504 -0.0002122873288195  0.4811354980801837   T   T   T
  0.4996077360830887  0.2490855710334858  0.4805678196322565   T   T   T
  0.5000001823476873  0.4999957421495011  0.4804150156471110   T   T   T
  0.5003893627753319  0.7508828883083640  0.4805641686853469   T   T   T
  0.7508113170293651  0.9993145039862527  0.4807439184534528   T   T   T
  0.7508794202557579  0.2491183869573387  0.4806721529961376   T   T   T
  0.7508973686813145  0.5003840934890967  0.4805640094283536   T   T   T
  0.7507104429236140  0.7507004302861074  0.4807357311185207   T   T   T
  0.0000022937921887 -0.0000034214040542  0.4812317105745643   T   T   T
  0.0006876139284288  0.2491957093715775  0.4807448148337998   T   T   T
 -0.0000017621543479  0.4999970880042421  0.4811633259715713   T   T   T
  0.9993174523683815  0.7507962987502602  0.4807443048099235   T   T   T
  0.1250020053345242  0.1249960032669555  0.5680205675526480   T   T   T
  0.1252669441219339  0.3746806257048055  0.5667177340058093   T   T   T
  0.1246247685841377  0.6253506099514469  0.5666778954316115   T   T   T
  0.1244969624623177  0.8755027339830144  0.5678253448233679   T   T   T
  0.3746287083953185  0.1253216102009722  0.5667459329238578   T   T   T
  0.3747313416416926  0.3747259943457104  0.5666203722399515   T   T   T
  0.3741105801804305  0.6258883257032491  0.5650102304764492   T   T   T
  0.3746528131648554  0.8753760155159357  0.5666757310608355   T   T   T
  0.6253487597392340  0.1246223973688290  0.5666758178831622   T   T   T
  0.6258939170576749  0.3741041941903034  0.5650102297770339   T   T   T
  0.6252713255442905  0.6252651641776280  0.5666221237020233   T   T   T
  0.6253464255867253  0.8747302318635708  0.5667105347293337   T   T   T
  0.8755086746689288  0.1244920237085305  0.5678246710848376   T   T   T
  0.8753764108505999  0.3746463161972391  0.5666763207344355   T   T   T
  0.8747382175800129  0.6253200408497905  0.5667219104496818   T   T   T
  0.8750070326923486  0.8749993993733283  0.5680217601415489   T   T   T
  0.1249999997881019  0.1250000006356942  0.3951713245539921   F   F   F
  0.1250000006356942  0.3750000010594832  0.3951713245539921   F   F   F
  0.1250000006356942  0.6250000006356942  0.3951713245539921   F   F   F
  0.1250000006356942  0.8750000019070754  0.3951713245539921   F   F   F
  0.3750000010594832  0.1250000006356942  0.3951713245539921   F   F   F
  0.3750000010594832  0.3750000010594832  0.3951713245539921   F   F   F
  0.3750000010594832  0.6250000006356942  0.3951713245539921   F   F   F
  0.3750000010594832  0.8750000019070754  0.3951713245539921   F   F   F
  0.6250000006356942  0.1250000006356942  0.3951713245539921   F   F   F
  0.6250000014832793  0.3750000010594832  0.3951713245539921   F   F   F
  0.6250000014832793  0.6250000006356942  0.3951713245539921   F   F   F
  0.6250000014832793  0.8750000019070754  0.3951713245539921   F   F   F
  0.8750000019070754  0.1250000006356942  0.3951713245539921   F   F   F
  0.8750000019070754  0.3750000010594832  0.3951713245539921   F   F   F
  0.8750000019070754  0.6250000006356942  0.3951713245539921   F   F   F
  0.8750000019070754  0.8750000019070754  0.3951713245539921   F   F   F
  0.4164695883171958  0.4164902756419417  0.6957050190438394   T   T   T
  0.3850085070239472  0.5306642086687828  0.6967741257924137   T   T   T
  0.4692949947563775  0.6149797827134333  0.6967653418990658   T   T   T
  0.5835264867807052  0.5835394174299950  0.6956960202507375   T   T   T
  0.6149618560787989  0.4693299265961614  0.6967654147277569   T   T   T
  0.5306651824469703  0.3850290906830154  0.6967657290650684   T   T   T
  0.3511702423300219  0.3511745511224125  0.6958369812226504   T   T   T
  0.6488045067961379  0.6488242137042894  0.6958311517103237   T   T   T
  0.2434160258657599  0.5643755198432141  0.6988224151581440   T   T   T
  0.4355520962444557  0.7565600253181634  0.6987780225164510   T   T   T
  0.7565407167311270  0.4355913370554634  0.6988027248955326   T   T   T
  0.5644002164306181  0.2434537748824167  0.6987989297191878   T   T   T
 
  0.00000000E+00  0.00000000E+00  0.00000000E+00
  0.00000000E+00  0.00000000E+00  0.00000000E+00
  0.00000000E+00  0.00000000E+00  0.00000000E+00
  0.00000000E+00  0.00000000E+00  0.00000000E+00
  0.00000000E+00  0.00000000E+00  0.00000000E+00
  0.00000000E+00  0.00000000E+00  0.00000000E+00
  0.00000000E+00  0.00000000E+00  0.00000000E+00
  0.00000000E+00  0.00000000E+00  0.00000000E+00
  0.00000000E+00  0.00000000E+00  0.00000000E+00
  0.00000000E+00  0.00000000E+00  0.00000000E+00
  0.00000000E+00  0.00000000E+00  0.00000000E+00
  0.00000000E+00  0.00000000E+00  0.00000000E+00
  0.00000000E+00  0.00000000E+00  0.00000000E+00
  0.00000000E+00  0.00000000E+00  0.00000000E+00
  0.00000000E+00  0.00000000E+00  0.00000000E+00
  0.00000000E+00  0.00000000E+00  0.00000000E+00
  0.00000000E+00  0.00000000E+00  0.00000000E+00
  0.00000000E+00  0.00000000E+00  0.00000000E+00
  0.00000000E+00  0.00000000E+00  0.00000000E+00
  0.00000000E+00  0.00000000E+00  0.00000000E+00
  0.00000000E+00  0.00000000E+00  0.00000000E+00
  0.00000000E+00  0.00000000E+00  0.00000000E+00
  0.00000000E+00  0.00000000E+00  0.00000000E+00
  0.00000000E+00  0.00000000E+00  0.00000000E+00
  0.00000000E+00  0.00000000E+00  0.00000000E+00
  0.00000000E+00  0.00000000E+00  0.00000000E+00
  0.00000000E+00  0.00000000E+00  0.00000000E+00
  0.00000000E+00  0.00000000E+00  0.00000000E+00
  0.00000000E+00  0.00000000E+00  0.00000000E+00
  0.00000000E+00  0.00000000E+00  0.00000000E+00
  0.00000000E+00  0.00000000E+00  0.00000000E+00
  0.00000000E+00  0.00000000E+00  0.00000000E+00
  0.00000000E+00  0.00000000E+00  0.00000000E+00
  0.00000000E+00  0.00000000E+00  0.00000000E+00
  0.00000000E+00  0.00000000E+00  0.00000000E+00
  0.00000000E+00  0.00000000E+00  0.00000000E+00
  0.00000000E+00  0.00000000E+00  0.00000000E+00
  0.00000000E+00  0.00000000E+00  0.00000000E+00
  0.00000000E+00  0.00000000E+00  0.00000000E+00
  0.00000000E+00  0.00000000E+00  0.00000000E+00
  0.00000000E+00  0.00000000E+00  0.00000000E+00
  0.00000000E+00  0.00000000E+00  0.00000000E+00
  0.00000000E+00  0.00000000E+00  0.00000000E+00
  0.00000000E+00  0.00000000E+00  0.00000000E+00
  0.00000000E+00  0.00000000E+00  0.00000000E+00
  0.00000000E+00  0.00000000E+00  0.00000000E+00
  0.00000000E+00  0.00000000E+00  0.00000000E+00
  0.00000000E+00  0.00000000E+00  0.00000000E+00
  0.00000000E+00  0.00000000E+00  0.00000000E+00
  0.00000000E+00  0.00000000E+00  0.00000000E+00
  0.00000000E+00  0.00000000E+00  0.00000000E+00
  0.00000000E+00  0.00000000E+00  0.00000000E+00
  0.00000000E+00  0.00000000E+00  0.00000000E+00
  0.00000000E+00  0.00000000E+00  0.00000000E+00
  0.00000000E+00  0.00000000E+00  0.00000000E+00
  0.00000000E+00  0.00000000E+00  0.00000000E+00
  0.00000000E+00  0.00000000E+00  0.00000000E+00
  0.00000000E+00  0.00000000E+00  0.00000000E+00
  0.00000000E+00  0.00000000E+00  0.00000000E+00
  0.00000000E+00  0.00000000E+00  0.00000000E+00
  0.00000000E+00  0.00000000E+00  0.00000000E+00
  0.00000000E+00  0.00000000E+00  0.00000000E+00
  0.00000000E+00  0.00000000E+00  0.00000000E+00
  0.00000000E+00  0.00000000E+00  0.00000000E+00
  0.00000000E+00  0.00000000E+00  0.00000000E+00
  0.00000000E+00  0.00000000E+00  0.00000000E+00
  0.00000000E+00  0.00000000E+00  0.00000000E+00
  0.00000000E+00  0.00000000E+00  0.00000000E+00
  0.00000000E+00  0.00000000E+00  0.00000000E+00
  0.00000000E+00  0.00000000E+00  0.00000000E+00
  0.00000000E+00  0.00000000E+00  0.00000000E+00
  0.00000000E+00  0.00000000E+00  0.00000000E+00
  0.00000000E+00  0.00000000E+00  0.00000000E+00
  0.00000000E+00  0.00000000E+00  0.00000000E+00
  0.00000000E+00  0.00000000E+00  0.00000000E+00
  0.00000000E+00  0.00000000E+00  0.00000000E+00
