Pt  C  H Cl                             
    1.000000000000000     
    11.2480068000000006    0.0000000000000000    0.0000000000000000
     0.0000000000000000   11.2480068000000006    0.0000000000000000
     0.0000000000000000    0.0000000000000000   23.9651564400000012
   Pt   C    H    Cl
    64     6     4     2
Selective dynamics
Direct
  0.2500000008890453  0.0000000000000000  0.3129543518222917   F   F   F
  0.0000000000000000  0.5000000017780906  0.3129543518222917   F   F   F
  0.2500000008890453  0.2500000008890453  0.3129543518222917   F   F   F
  0.2500000008890453  0.5000000017780906  0.3129543518222917   F   F   F
  0.2500000008890453  0.7500000026671358  0.3129543518222917   F   F   F
  0.5000000017780906  0.0000000000000000  0.3129543518222917   F   F   F
  0.5000000017780906  0.2500000008890453  0.3129543518222917   F   F   F
  0.0000000000000000  0.7500000026671358  0.3129543518222917   F   F   F
  0.5000000017780906  0.5000000017780906  0.3129543518222917   F   F   F
  0.5000000017780906  0.7500000026671358  0.3129543518222917   F   F   F
  0.7500000026671358  0.0000000000000000  0.3129543518222917   F   F   F
  0.7500000026671358  0.2500000008890453  0.3129543518222917   F   F   F
  0.7500000026671358  0.5000000017780906  0.3129543518222917   F   F   F
  0.7500000026671358  0.7500000026671358  0.3129543518222917   F   F   F
  0.0000000000000000  0.0000000000000000  0.3129543518222917   F   F   F
  0.0000000000000000  0.2500000008890453  0.3129543518222917   F   F   F
  0.2498452215929094  0.9988251856742527  0.4775808942702490   T   T   T
  0.2510772928769301  0.2510818313821778  0.4777899785807017   T   T   T
  0.2534463894933010  0.5006537623734071  0.4793711263410950   T   T   T
  0.2532870494175156  0.7467286213421883  0.4794791021334463   T   T   T
  0.4999927594816605 -0.0000058021691364  0.4775200576114430   T   T   T
  0.5006406348690319  0.2534509112558500  0.4793727499950249   T   T   T
  0.5000064372249832  0.5000083398346277  0.4805456247128730   T   T   T
  0.4993459065115788  0.7465546582758307  0.4793708861446438   T   T   T
  0.7501632328264372  0.0011763743815592  0.4775726012918852   T   T   T
  0.7467333229400226  0.2532787446500455  0.4794843503481190   T   T   T
  0.7465555823962090  0.4993495008660170  0.4793720721317615   T   T   T
  0.7489130583674832  0.7489076092337398  0.4777840920060493   T   T   T
 -0.0000011530080061  0.0000017840781715  0.4776166371538333   T   T   T
  0.9988241824473896  0.2498503183186470  0.4775766692442049   T   T   T
 -0.0000024849210104  0.5000027314611510  0.4775147259878457   T   T   T
  0.0011801688457181  0.7501531931410854  0.4775741763756073   T   T   T
  0.1242197341531315  0.1242379126557465  0.5591285050149567   T   T   T
  0.1230094049540431  0.3743446503596260  0.5594952911940521   T   T   T
  0.1232780474389656  0.6240267459157968  0.5599792541617662   T   T   T
  0.1254662546714992  0.8745339469104625  0.5597099920833305   T   T   T
  0.3743269568504660  0.1230111378026175  0.5594985860162683   T   T   T
  0.3681281589466467  0.3681374705072180  0.5637910040075914   T   T   T
  0.3728496031304157  0.6271564906232669  0.5682074729969648   T   T   T
  0.3759891783541314  0.8767254667463917  0.5599809496922780   T   T   T
  0.6240250848023041  0.1232825626369935  0.5599750729357263   T   T   T
  0.6271554327858433  0.3728468035005196  0.5682038244264574   T   T   T
  0.6318811965695865  0.6318778148924423  0.5638078860129262   T   T   T
  0.6256814054499468  0.8769859805284174  0.5594985085083339   T   T   T
  0.8745327567464148  0.1254681016638083  0.5597136316912407   T   T   T
  0.8767223635783640  0.3759816650458856  0.5599796279024464   T   T   T
  0.8769847647072937  0.6256655185418902  0.5594976856853979   T   T   T
  0.8757762222149353  0.8757619795578059  0.5591264352279339   T   T   T
  0.1250000008890453  0.1250000000000000  0.3959242036977884   F   F   F
  0.1250000008890453  0.3750000008890453  0.3959242036977884   F   F   F
  0.1250000008890453  0.6250000026671358  0.3959242036977884   F   F   F
  0.1250000008890453  0.8750000026671358  0.3959242036977884   F   F   F
  0.3750000017780906  0.1250000000000000  0.3959242036977884   F   F   F
  0.3750000017780906  0.3750000008890453  0.3959242036977884   F   F   F
  0.3750000017780906  0.6250000026671358  0.3959242036977884   F   F   F
  0.3750000017780906  0.8750000026671358  0.3959242036977884   F   F   F
  0.6250000026671358  0.1250000000000000  0.3959242036977884   F   F   F
  0.6250000026671358  0.3750000008890453  0.3959242036977884   F   F   F
  0.6250000026671358  0.6250000026671358  0.3959242036977884   F   F   F
  0.6250000026671358  0.8750000026671358  0.3959242036977884   F   F   F
  0.8750000035561882  0.1250000000000000  0.3959242036977884   F   F   F
  0.8750000026671358  0.3750000008890453  0.3959242036977884   F   F   F
  0.8750000035561882  0.6250000026671358  0.3959242036977884   F   F   F
  0.8750000035561882  0.8750000026671358  0.3959242036977884   F   F   F
  0.4068825696066093  0.4068923222489528  0.6457869567936435   T   T   T
  0.3749405728257508  0.5349476825220855  0.6486329739145804   T   T   T
  0.4650728724488992  0.6250163215316238  0.6486329569044044   T   T   T
  0.5930798010895389  0.5930817249623583  0.6457880902242745   T   T   T
  0.6250422994266133  0.4650589818369416  0.6486306648251795   T   T   T
  0.5349203422055019  0.3749655797936365  0.6486288769567472   T   T   T
  0.2883616855289823  0.5543817563027457  0.6669845858394968   T   T   T
  0.4456310824693926  0.7116294044363313  0.6669879204816761   T   T   T
  0.7116308353869759  0.4456036441820575  0.6669884313304799   T   T   T
  0.5543654437486073  0.2883376408877651  0.6669865785691327   T   T   T
  0.3177837093027614  0.3179139286712798  0.6910316833019665   T   T   T
  0.6821718327271385  0.6820375163090855  0.6910670576199299   T   T   T
 
  0.00000000E+00  0.00000000E+00  0.00000000E+00
  0.00000000E+00  0.00000000E+00  0.00000000E+00
  0.00000000E+00  0.00000000E+00  0.00000000E+00
  0.00000000E+00  0.00000000E+00  0.00000000E+00
  0.00000000E+00  0.00000000E+00  0.00000000E+00
  0.00000000E+00  0.00000000E+00  0.00000000E+00
  0.00000000E+00  0.00000000E+00  0.00000000E+00
  0.00000000E+00  0.00000000E+00  0.00000000E+00
  0.00000000E+00  0.00000000E+00  0.00000000E+00
  0.00000000E+00  0.00000000E+00  0.00000000E+00
  0.00000000E+00  0.00000000E+00  0.00000000E+00
  0.00000000E+00  0.00000000E+00  0.00000000E+00
  0.00000000E+00  0.00000000E+00  0.00000000E+00
  0.00000000E+00  0.00000000E+00  0.00000000E+00
  0.00000000E+00  0.00000000E+00  0.00000000E+00
  0.00000000E+00  0.00000000E+00  0.00000000E+00
  0.00000000E+00  0.00000000E+00  0.00000000E+00
  0.00000000E+00  0.00000000E+00  0.00000000E+00
  0.00000000E+00  0.00000000E+00  0.00000000E+00
  0.00000000E+00  0.00000000E+00  0.00000000E+00
  0.00000000E+00  0.00000000E+00  0.00000000E+00
  0.00000000E+00  0.00000000E+00  0.00000000E+00
  0.00000000E+00  0.00000000E+00  0.00000000E+00
  0.00000000E+00  0.00000000E+00  0.00000000E+00
  0.00000000E+00  0.00000000E+00  0.00000000E+00
  0.00000000E+00  0.00000000E+00  0.00000000E+00
  0.00000000E+00  0.00000000E+00  0.00000000E+00
  0.00000000E+00  0.00000000E+00  0.00000000E+00
  0.00000000E+00  0.00000000E+00  0.00000000E+00
  0.00000000E+00  0.00000000E+00  0.00000000E+00
  0.00000000E+00  0.00000000E+00  0.00000000E+00
  0.00000000E+00  0.00000000E+00  0.00000000E+00
  0.00000000E+00  0.00000000E+00  0.00000000E+00
  0.00000000E+00  0.00000000E+00  0.00000000E+00
  0.00000000E+00  0.00000000E+00  0.00000000E+00
  0.00000000E+00  0.00000000E+00  0.00000000E+00
  0.00000000E+00  0.00000000E+00  0.00000000E+00
  0.00000000E+00  0.00000000E+00  0.00000000E+00
  0.00000000E+00  0.00000000E+00  0.00000000E+00
  0.00000000E+00  0.00000000E+00  0.00000000E+00
  0.00000000E+00  0.00000000E+00  0.00000000E+00
  0.00000000E+00  0.00000000E+00  0.00000000E+00
  0.00000000E+00  0.00000000E+00  0.00000000E+00
  0.00000000E+00  0.00000000E+00  0.00000000E+00
  0.00000000E+00  0.00000000E+00  0.00000000E+00
  0.00000000E+00  0.00000000E+00  0.00000000E+00
  0.00000000E+00  0.00000000E+00  0.00000000E+00
  0.00000000E+00  0.00000000E+00  0.00000000E+00
  0.00000000E+00  0.00000000E+00  0.00000000E+00
  0.00000000E+00  0.00000000E+00  0.00000000E+00
  0.00000000E+00  0.00000000E+00  0.00000000E+00
  0.00000000E+00  0.00000000E+00  0.00000000E+00
  0.00000000E+00  0.00000000E+00  0.00000000E+00
  0.00000000E+00  0.00000000E+00  0.00000000E+00
  0.00000000E+00  0.00000000E+00  0.00000000E+00
  0.00000000E+00  0.00000000E+00  0.00000000E+00
  0.00000000E+00  0.00000000E+00  0.00000000E+00
  0.00000000E+00  0.00000000E+00  0.00000000E+00
  0.00000000E+00  0.00000000E+00  0.00000000E+00
  0.00000000E+00  0.00000000E+00  0.00000000E+00
  0.00000000E+00  0.00000000E+00  0.00000000E+00
  0.00000000E+00  0.00000000E+00  0.00000000E+00
  0.00000000E+00  0.00000000E+00  0.00000000E+00
  0.00000000E+00  0.00000000E+00  0.00000000E+00
  0.00000000E+00  0.00000000E+00  0.00000000E+00
  0.00000000E+00  0.00000000E+00  0.00000000E+00
  0.00000000E+00  0.00000000E+00  0.00000000E+00
  0.00000000E+00  0.00000000E+00  0.00000000E+00
  0.00000000E+00  0.00000000E+00  0.00000000E+00
  0.00000000E+00  0.00000000E+00  0.00000000E+00
  0.00000000E+00  0.00000000E+00  0.00000000E+00
  0.00000000E+00  0.00000000E+00  0.00000000E+00
  0.00000000E+00  0.00000000E+00  0.00000000E+00
  0.00000000E+00  0.00000000E+00  0.00000000E+00
  0.00000000E+00  0.00000000E+00  0.00000000E+00
  0.00000000E+00  0.00000000E+00  0.00000000E+00
