Ir48 C6 H2 Cl4                          
    1.000000000000000     
    10.9622135000000007    0.0000000000000000    0.0000000000000000
     0.0000000000000000   15.5029109999999992    0.0000000000000000
     0.0000000000000000    0.0000000000000000   15.5433279800000008
   Ir   C    H    Cl
    48     6     2     4
Selective dynamics
Direct
  0.2497212223919831  0.0001616252747638  0.4125135910382980   T   T   T
  0.2479160268250382  0.2505246387180975  0.4126873978415233   T   T   T
  0.2495178567271168  0.4980821351245197  0.4049657006591332   T   T   T
  0.2547396207546484  0.7470999259161957  0.4116648710644455   T   T   T
  0.4999810916074239  0.9999637014931935  0.3942813501044071   T   T   T
  0.4982828140630815  0.2517749909844298  0.3959239069120670   T   T   T
  0.4997133306459816  0.5000550617148747  0.3870633264282333   T   T   T
  0.5014682648724715  0.7480001213210201  0.3961032487017988   T   T   T
  0.7503105985013931  0.9998110161341671  0.4126669139001251   T   T   T
  0.7456601877086158  0.2526573662797418  0.4105077568432591   T   T   T
  0.7501253974180173  0.5022047788181894  0.4038751439339592   T   T   T
  0.7518706080241842  0.7496354484900607  0.4123104372541562   T   T   T
  0.9999766492999882  0.9999692459005303  0.3899033708421271   T   T   T
  0.9972137816097870  0.2509094303951827  0.3968629478041237   T   T   T
  0.9997519623214970  0.4999381288323477  0.3977914573160959   T   T   T
  0.0028301957841848  0.7493447749017363  0.3970789207456207   T   T   T
  0.1218591019149713  0.1245679613050825  0.4848555816097786   T   T   T
  0.1171911885936936  0.3749316906383626  0.4843764733608111   T   T   T
  0.1324836914280070  0.6200576975195560  0.4874400440424793   T   T   T
  0.1255584976155077  0.8739509728533932  0.4846620379799091   T   T   T
  0.3756026021914280  0.1255620510601929  0.4845845171548007   T   T   T
  0.3631490284411356  0.3758570522140587  0.4876836001967249   T   T   T
  0.3892269959864549  0.6109664234664933  0.4923245527743134   T   T   T
  0.3762651838079378  0.8742928871090072  0.4845507430198666   T   T   T
  0.6238066212401776  0.1256565298404340  0.4845321916296115   T   T   T
  0.6102166450312581  0.3885365731682171  0.4910369974995064   T   T   T
  0.6368831146156566  0.6241659605162440  0.4874840951504353   T   T   T
  0.6242465712028249  0.8744679996751401  0.4845781041729182   T   T   T
  0.8745598581128178  0.1260998191342750  0.4845284169032880   T   T   T
  0.8653211629480992  0.3812960861414183  0.4886151407171866   T   T   T
  0.8825810861743477  0.6253320537668969  0.4844415261891797   T   T   T
  0.8780836666873100  0.8754147505670602  0.4849322451986282   T   T   T
  0.1249999993158326  0.1249999996774775  0.3216814318293757   F   F   F
  0.1249999993158326  0.3749999996774775  0.3216814318293757   F   F   F
  0.1250000002280558  0.6249999990324397  0.3216814318293757   F   F   F
  0.1250000002280558  0.8749999983874019  0.3216814318293757   F   F   F
  0.3749999988597210  0.1249999996774775  0.3216814318293757   F   F   F
  0.3749999997719442  0.3749999996774775  0.3216814318293757   F   F   F
  0.3749999997719442  0.6249999990324397  0.3216814318293757   F   F   F
  0.3749999997719442  0.8749999983874019  0.3216814318293757   F   F   F
  0.6249999993158326  0.1249999996774775  0.3216814318293757   F   F   F
  0.6249999984036094  0.3749999996774775  0.3216814318293757   F   F   F
  0.6249999993158326  0.6249999990324397  0.3216814318293757   F   F   F
  0.6249999993158326  0.8749999983874019  0.3216814318293757   F   F   F
  0.8749999979474978  0.1249999996774775  0.3216814318293757   F   F   F
  0.8749999988597210  0.3749999996774775  0.3216814318293757   F   F   F
  0.8749999988597210  0.6249999990324397  0.3216814318293757   F   F   F
  0.8749999988597210  0.8749999983874019  0.3216814318293757   F   F   F
  0.6029997584555531  0.5644046914624852  0.6056743369626361   T   T   T
  0.6290698513791639  0.4681777386415504  0.5990316142991077   T   T   T
  0.5334691118485964  0.4056692238696868  0.6156065585543047   T   T   T
  0.4005699815729429  0.4332581902985098  0.6065726012901891   T   T   T
  0.3732871870303214  0.5296292259756825  0.6016302650413792   T   T   T
  0.4701808138263033  0.5919203835248936  0.6159406872072068   T   T   T
  0.6590033384812415  0.5929800168383466  0.6569544130397631   T   T   T
  0.3449486717078116  0.4040969189807839  0.6577530110036207   T   T   T
  0.7907157190110894  0.4439117865213333  0.6313051359246700   T   T   T
  0.5548196231600500  0.3196630343571982  0.6880773432788132   T   T   T
  0.2181519743267586  0.5522379517528577  0.6391421735660003   T   T   T
  0.4509782914614817  0.6782015647075852  0.6884940422697952   T   T   T
 
  0.00000000E+00  0.00000000E+00  0.00000000E+00
  0.00000000E+00  0.00000000E+00  0.00000000E+00
  0.00000000E+00  0.00000000E+00  0.00000000E+00
  0.00000000E+00  0.00000000E+00  0.00000000E+00
  0.00000000E+00  0.00000000E+00  0.00000000E+00
  0.00000000E+00  0.00000000E+00  0.00000000E+00
  0.00000000E+00  0.00000000E+00  0.00000000E+00
  0.00000000E+00  0.00000000E+00  0.00000000E+00
  0.00000000E+00  0.00000000E+00  0.00000000E+00
  0.00000000E+00  0.00000000E+00  0.00000000E+00
  0.00000000E+00  0.00000000E+00  0.00000000E+00
  0.00000000E+00  0.00000000E+00  0.00000000E+00
  0.00000000E+00  0.00000000E+00  0.00000000E+00
  0.00000000E+00  0.00000000E+00  0.00000000E+00
  0.00000000E+00  0.00000000E+00  0.00000000E+00
  0.00000000E+00  0.00000000E+00  0.00000000E+00
  0.00000000E+00  0.00000000E+00  0.00000000E+00
  0.00000000E+00  0.00000000E+00  0.00000000E+00
  0.00000000E+00  0.00000000E+00  0.00000000E+00
  0.00000000E+00  0.00000000E+00  0.00000000E+00
  0.00000000E+00  0.00000000E+00  0.00000000E+00
  0.00000000E+00  0.00000000E+00  0.00000000E+00
  0.00000000E+00  0.00000000E+00  0.00000000E+00
  0.00000000E+00  0.00000000E+00  0.00000000E+00
  0.00000000E+00  0.00000000E+00  0.00000000E+00
  0.00000000E+00  0.00000000E+00  0.00000000E+00
  0.00000000E+00  0.00000000E+00  0.00000000E+00
  0.00000000E+00  0.00000000E+00  0.00000000E+00
  0.00000000E+00  0.00000000E+00  0.00000000E+00
  0.00000000E+00  0.00000000E+00  0.00000000E+00
  0.00000000E+00  0.00000000E+00  0.00000000E+00
  0.00000000E+00  0.00000000E+00  0.00000000E+00
  0.00000000E+00  0.00000000E+00  0.00000000E+00
  0.00000000E+00  0.00000000E+00  0.00000000E+00
  0.00000000E+00  0.00000000E+00  0.00000000E+00
  0.00000000E+00  0.00000000E+00  0.00000000E+00
  0.00000000E+00  0.00000000E+00  0.00000000E+00
  0.00000000E+00  0.00000000E+00  0.00000000E+00
  0.00000000E+00  0.00000000E+00  0.00000000E+00
  0.00000000E+00  0.00000000E+00  0.00000000E+00
  0.00000000E+00  0.00000000E+00  0.00000000E+00
  0.00000000E+00  0.00000000E+00  0.00000000E+00
  0.00000000E+00  0.00000000E+00  0.00000000E+00
  0.00000000E+00  0.00000000E+00  0.00000000E+00
  0.00000000E+00  0.00000000E+00  0.00000000E+00
  0.00000000E+00  0.00000000E+00  0.00000000E+00
  0.00000000E+00  0.00000000E+00  0.00000000E+00
  0.00000000E+00  0.00000000E+00  0.00000000E+00
  0.00000000E+00  0.00000000E+00  0.00000000E+00
  0.00000000E+00  0.00000000E+00  0.00000000E+00
  0.00000000E+00  0.00000000E+00  0.00000000E+00
  0.00000000E+00  0.00000000E+00  0.00000000E+00
  0.00000000E+00  0.00000000E+00  0.00000000E+00
  0.00000000E+00  0.00000000E+00  0.00000000E+00
  0.00000000E+00  0.00000000E+00  0.00000000E+00
  0.00000000E+00  0.00000000E+00  0.00000000E+00
  0.00000000E+00  0.00000000E+00  0.00000000E+00
  0.00000000E+00  0.00000000E+00  0.00000000E+00
  0.00000000E+00  0.00000000E+00  0.00000000E+00
  0.00000000E+00  0.00000000E+00  0.00000000E+00
