Pd  C  H  F                             
    1.000000000000000     
    11.1817229999999999    0.0000000000000000    0.0000000000000000
     0.0000000000000000   11.1817229999999999    0.0000000000000000
     0.0000000000000000    0.0000000000000000   23.9300040900000006
   Pd   C    H    F 
    64     6     2     4
Selective dynamics
Direct
  0.0000000000000000  0.2499999991056825  0.3134140709626578   F   F   F
  0.7499999973170475  0.7499999973170475  0.3134140709626578   F   F   F
  0.0000000000000000  0.4999999982113650  0.3134140709626578   F   F   F
  0.0000000000000000  0.7499999973170475  0.3134140709626578   F   F   F
  0.0000000000000000  0.0000000000000000  0.3134140709626578   F   F   F
  0.2499999991056825  0.2499999991056825  0.3134140709626578   F   F   F
  0.2499999991056825  0.4999999982113650  0.3134140709626578   F   F   F
  0.7499999973170475  0.0000000000000000  0.3134140709626578   F   F   F
  0.2499999991056825  0.7499999973170475  0.3134140709626578   F   F   F
  0.2499999991056825  0.0000000000000000  0.3134140709626578   F   F   F
  0.4999999982113650  0.2499999991056825  0.3134140709626578   F   F   F
  0.4999999982113650  0.4999999982113650  0.3134140709626578   F   F   F
  0.4999999982113650  0.7499999973170475  0.3134140709626578   F   F   F
  0.4999999982113650  0.0000000000000000  0.3134140709626578   F   F   F
  0.7499999973170475  0.2499999991056825  0.3134140709626578   F   F   F
  0.7499999973170475  0.4999999982113650  0.3134140709626578   F   F   F
  0.9979720512130118  0.2499878022239622  0.4767765160735489   T   T   T
 -0.0000015460503034  0.5000009938566898  0.4760758244700463   T   T   T
  0.0020193588136210  0.7500293433075205  0.4767686226352589   T   T   T
  0.0000175734285289  0.0000235045978251  0.4766043828135200   T   T   T
  0.2500453130368688  0.2500465278888221  0.4764012792727766   T   T   T
  0.2530533447660765  0.5003895511310714  0.4781431297992452   T   T   T
  0.2533194004018186  0.7466664273921170  0.4784741011170551   T   T   T
  0.2499776553586465  0.9979806777163578  0.4767729564817075   T   T   T
  0.5003532378545195  0.2530516854243521  0.4781352066236997   T   T   T
  0.4999681427488468  0.5000059203167500  0.4783685366397191   T   T   T
  0.4996113077343478  0.7469375026312021  0.4781452836372861   T   T   T
  0.5000089567532414 -0.0000011194176676  0.4760777113007693   T   T   T
  0.7466699828928551  0.2533218995882875  0.4784591523986779   T   T   T
  0.7469413520820524  0.4996351260534713  0.4781311816621414   T   T   T
  0.7499590843872270  0.7499552829041533  0.4763858224043212   T   T   T
  0.7500253883978596  0.0020227481803986  0.4767601251203181   T   T   T
  0.1247083097546047  0.1246939014330442  0.5580284522989155   T   T   T
  0.1224370495400703  0.3735836591068660  0.5576573536037103   T   T   T
  0.1249644108006489  0.6242649529193565  0.5583334750884669   T   T   T
  0.1246021197319854  0.8754084723010817  0.5581493407608874   T   T   T
  0.3735530022614794  0.1224478363474231  0.5576493366273252   T   T   T
  0.3670118329743076  0.3670367733383704  0.5619186375119456   T   T   T
  0.3780253896051470  0.6219795411219217  0.5670638762555362   T   T   T
  0.3757513318430002  0.8750628538240878  0.5583338350733429   T   T   T
  0.6242625353371660  0.1249405110433784  0.5583189111700646   T   T   T
  0.6219417760882868  0.3780181703045652  0.5670674508757969   T   T   T
  0.6329769632964093  0.6329750104829917  0.5619316999842396   T   T   T
  0.6264359664257045  0.8775461605205634  0.5576340875667241   T   T   T
  0.8753993530773767  0.1245940541423591  0.5581390263072135   T   T   T
  0.8750470160110002  0.3757592106736511  0.5583171207869840   T   T   T
  0.8775598254210802  0.6264614161385419  0.5576300952657827   T   T   T
  0.8752823447154771  0.8752971051747123  0.5580074110915806   T   T   T
  0.1249999995528412  0.1249999995528412  0.3960161475258630   F   F   F
  0.1249999995528412  0.3749999986585237  0.3960161475258630   F   F   F
  0.1249999995528412  0.6249999977642062  0.3960161475258630   F   F   F
  0.1249999995528412  0.8749999968698887  0.3960161475258630   F   F   F
  0.3749999986585237  0.1249999995528412  0.3960161475258630   F   F   F
  0.3749999986585237  0.3749999986585237  0.3960161475258630   F   F   F
  0.3749999986585237  0.6249999977642062  0.3960161475258630   F   F   F
  0.3749999986585237  0.8749999968698887  0.3960161475258630   F   F   F
  0.6249999977642062  0.1249999995528412  0.3960161475258630   F   F   F
  0.6249999977642062  0.3749999986585237  0.3960161475258630   F   F   F
  0.6249999977642062  0.6249999977642062  0.3960161475258630   F   F   F
  0.6249999977642062  0.8749999968698887  0.3960161475258630   F   F   F
  0.8749999968698887  0.1249999995528412  0.3960161475258630   F   F   F
  0.8749999968698887  0.3749999986585237  0.3960161475258630   F   F   F
  0.8749999968698887  0.6249999977642062  0.3960161475258630   F   F   F
  0.8749999968698887  0.8749999968698887  0.3960161475258630   F   F   F
  0.5930503362362868  0.5929681765423884  0.6451562378337961   T   T   T
  0.6246205864529090  0.4664765600977209  0.6480211767006330   T   T   T
  0.5335491254800372  0.3754101417027900  0.6479996764327591   T   T   T
  0.4070701560431029  0.4069973363866319  0.6451334723000948   T   T   T
  0.3754617326719271  0.5334908217631313  0.6480189787240445   T   T   T
  0.4665552724625504  0.6245868743086014  0.6480308370495513   T   T   T
  0.6527082008407885  0.6526504630375611  0.6683782661433237   T   T   T
  0.3473615114419047  0.3473294828311286  0.6683745945130379   T   T   T
  0.7293408965661512  0.4422923195106276  0.6754782036249661   T   T   T
  0.5577141076628528  0.2706562222149899  0.6754869593849899   T   T   T
  0.2706899793091529  0.5576888267309159  0.6755078877826644   T   T   T
  0.4423604165979946  0.7293249605080333  0.6754994725491748   T   T   T
 
  0.00000000E+00  0.00000000E+00  0.00000000E+00
  0.00000000E+00  0.00000000E+00  0.00000000E+00
  0.00000000E+00  0.00000000E+00  0.00000000E+00
  0.00000000E+00  0.00000000E+00  0.00000000E+00
  0.00000000E+00  0.00000000E+00  0.00000000E+00
  0.00000000E+00  0.00000000E+00  0.00000000E+00
  0.00000000E+00  0.00000000E+00  0.00000000E+00
  0.00000000E+00  0.00000000E+00  0.00000000E+00
  0.00000000E+00  0.00000000E+00  0.00000000E+00
  0.00000000E+00  0.00000000E+00  0.00000000E+00
  0.00000000E+00  0.00000000E+00  0.00000000E+00
  0.00000000E+00  0.00000000E+00  0.00000000E+00
  0.00000000E+00  0.00000000E+00  0.00000000E+00
  0.00000000E+00  0.00000000E+00  0.00000000E+00
  0.00000000E+00  0.00000000E+00  0.00000000E+00
  0.00000000E+00  0.00000000E+00  0.00000000E+00
  0.00000000E+00  0.00000000E+00  0.00000000E+00
  0.00000000E+00  0.00000000E+00  0.00000000E+00
  0.00000000E+00  0.00000000E+00  0.00000000E+00
  0.00000000E+00  0.00000000E+00  0.00000000E+00
  0.00000000E+00  0.00000000E+00  0.00000000E+00
  0.00000000E+00  0.00000000E+00  0.00000000E+00
  0.00000000E+00  0.00000000E+00  0.00000000E+00
  0.00000000E+00  0.00000000E+00  0.00000000E+00
  0.00000000E+00  0.00000000E+00  0.00000000E+00
  0.00000000E+00  0.00000000E+00  0.00000000E+00
  0.00000000E+00  0.00000000E+00  0.00000000E+00
  0.00000000E+00  0.00000000E+00  0.00000000E+00
  0.00000000E+00  0.00000000E+00  0.00000000E+00
  0.00000000E+00  0.00000000E+00  0.00000000E+00
  0.00000000E+00  0.00000000E+00  0.00000000E+00
  0.00000000E+00  0.00000000E+00  0.00000000E+00
  0.00000000E+00  0.00000000E+00  0.00000000E+00
  0.00000000E+00  0.00000000E+00  0.00000000E+00
  0.00000000E+00  0.00000000E+00  0.00000000E+00
  0.00000000E+00  0.00000000E+00  0.00000000E+00
  0.00000000E+00  0.00000000E+00  0.00000000E+00
  0.00000000E+00  0.00000000E+00  0.00000000E+00
  0.00000000E+00  0.00000000E+00  0.00000000E+00
  0.00000000E+00  0.00000000E+00  0.00000000E+00
  0.00000000E+00  0.00000000E+00  0.00000000E+00
  0.00000000E+00  0.00000000E+00  0.00000000E+00
  0.00000000E+00  0.00000000E+00  0.00000000E+00
  0.00000000E+00  0.00000000E+00  0.00000000E+00
  0.00000000E+00  0.00000000E+00  0.00000000E+00
  0.00000000E+00  0.00000000E+00  0.00000000E+00
  0.00000000E+00  0.00000000E+00  0.00000000E+00
  0.00000000E+00  0.00000000E+00  0.00000000E+00
  0.00000000E+00  0.00000000E+00  0.00000000E+00
  0.00000000E+00  0.00000000E+00  0.00000000E+00
  0.00000000E+00  0.00000000E+00  0.00000000E+00
  0.00000000E+00  0.00000000E+00  0.00000000E+00
  0.00000000E+00  0.00000000E+00  0.00000000E+00
  0.00000000E+00  0.00000000E+00  0.00000000E+00
  0.00000000E+00  0.00000000E+00  0.00000000E+00
  0.00000000E+00  0.00000000E+00  0.00000000E+00
  0.00000000E+00  0.00000000E+00  0.00000000E+00
  0.00000000E+00  0.00000000E+00  0.00000000E+00
  0.00000000E+00  0.00000000E+00  0.00000000E+00
  0.00000000E+00  0.00000000E+00  0.00000000E+00
  0.00000000E+00  0.00000000E+00  0.00000000E+00
  0.00000000E+00  0.00000000E+00  0.00000000E+00
  0.00000000E+00  0.00000000E+00  0.00000000E+00
  0.00000000E+00  0.00000000E+00  0.00000000E+00
  0.00000000E+00  0.00000000E+00  0.00000000E+00
  0.00000000E+00  0.00000000E+00  0.00000000E+00
  0.00000000E+00  0.00000000E+00  0.00000000E+00
  0.00000000E+00  0.00000000E+00  0.00000000E+00
  0.00000000E+00  0.00000000E+00  0.00000000E+00
  0.00000000E+00  0.00000000E+00  0.00000000E+00
  0.00000000E+00  0.00000000E+00  0.00000000E+00
  0.00000000E+00  0.00000000E+00  0.00000000E+00
  0.00000000E+00  0.00000000E+00  0.00000000E+00
  0.00000000E+00  0.00000000E+00  0.00000000E+00
  0.00000000E+00  0.00000000E+00  0.00000000E+00
  0.00000000E+00  0.00000000E+00  0.00000000E+00
