H2 Ir48 C6 Cl4                          
    1.000000000000000     
    10.9622130000000002    0.0000000000000000    0.0000000000000000
    -5.4811069999999997    9.4935550000000006    0.0000000000000000
     0.0000000000000000    0.0000000000000000   17.4774080000000005
   H    Ir   C    Cl
     2    48     6     4
Selective dynamics
Direct
  0.2438253731218722  0.5059780082035914  0.7707853097404964   T   T   T
  0.5060496056628878  0.2437590159988900  0.7709001317258100   T   T   T
  0.0833330000000032  0.1666669999999968  0.3432999999999993   F   F   F
  0.0833330000000032  0.4166669999999968  0.3432999999999993   F   F   F
  0.0833330000000032  0.6666669999999968  0.3432999999999993   F   F   F
  0.0833330000000032  0.9166669999999968  0.3432999999999993   F   F   F
  0.3333330000000032  0.1666669999999968  0.3432999999999993   F   F   F
  0.3333330000000032  0.4166669999999968  0.3432999999999993   F   F   F
  0.3333330000000032  0.6666669999999968  0.3432999999999993   F   F   F
  0.3333330000000032  0.9166669999999968  0.3432999999999993   F   F   F
  0.5833330000000032  0.1666669999999968  0.3432999999999993   F   F   F
  0.5833330000000032  0.4166669999999968  0.3432999999999993   F   F   F
  0.5833330000000032  0.6666669999999968  0.3432999999999993   F   F   F
  0.5833330000000032  0.9166669999999968  0.3432999999999993   F   F   F
  0.8333330000000032  0.1666669999999968  0.3432999999999993   F   F   F
  0.8333330000000032  0.4166669999999968  0.3432999999999993   F   F   F
  0.8333330000000032  0.6666669999999968  0.3432999999999993   F   F   F
  0.8333330000000032  0.9166669999999968  0.3432999999999993   F   F   F
  0.9996914202903824  0.9998001664132730  0.5938026370842806   T   T   T
  0.9996402270560623  0.2501117163410953  0.5942328222160853   T   T   T
  0.9999518379180259  0.5003939877683479  0.5940443100858417   T   T   T
  0.9998695313384687  0.7501646371485222  0.5938534992490077   T   T   T
  0.2499039684869544  0.9998850769534471  0.5943534821851131   T   T   T
  0.2502668012186078  0.2501342746288202  0.5930888421745806   T   T   T
  0.2498112987705028  0.5002209547424954  0.5940737708945321   T   T   T
  0.2496424233813812  0.7500822244226271  0.5940455001943477   T   T   T
  0.5001287345873493  0.0001591210448169  0.5941383101436557   T   T   T
  0.5001068403167395  0.2499230989293579  0.5941697644114683   T   T   T
  0.4998949482839095  0.4997635644642600  0.5931034692274153   T   T   T
  0.4999219773335497  0.7503915574019828  0.5942383899390364   T   T   T
  0.7497954869700862  0.0002358335704571  0.5937811915348803   T   T   T
  0.7498736617697048  0.2499054873650408  0.5941371824155652   T   T   T
  0.7501472874749666  0.5001317588814302  0.5943505326870877   T   T   T
  0.7502322361632778  0.7503416826296672  0.5937993156704522   T   T   T
  0.1665545985385677  0.0833250989564576  0.4684821169782509   T   T   T
  0.1666203524105896  0.3334024239060014  0.4685433551649183   T   T   T
  0.1667054578483018  0.5833261182143445  0.4686286896755547   T   T   T
  0.1666308654919817  0.8333498445821164  0.4684410783953652   T   T   T
  0.4163291801951559  0.0832825962620802  0.4687046323678246   T   T   T
  0.4168207121148910  0.3332074824487350  0.4680049767664798   T   T   T
  0.4166250886550813  0.5834075962684011  0.4685358458698730   T   T   T
  0.4165630189893861  0.8334885322923142  0.4688295422623270   T   T   T
  0.6665311341347717  0.0834905778790898  0.4684941131854004   T   T   T
  0.6667333802797941  0.3336921322074957  0.4686994740332580   T   T   T
  0.6666883119181790  0.5834660894157722  0.4684730875993992   T   T   T
  0.6666156375596728  0.8333565849315931  0.4685529912262254   T   T   T
  0.9166585688543805  0.0834015668928103  0.4685570652825746   T   T   T
  0.9165312176574147  0.3334554182194083  0.4688270436107658   T   T   T
  0.9166741675922339  0.5833947643072861  0.4684407078744002   T   T   T
  0.9167214346585695  0.8333059654253745  0.4683560663492017   T   T   T
  0.3012962365322380  0.4484795968686583  0.7708849634123993   T   T   T
  0.4487917554863188  0.5229891757838701  0.7727379552531488   T   T   T
  0.5230131254487631  0.4487100503625285  0.7727734483088824   T   T   T
  0.4485128267101217  0.3012912501718716  0.7709740226364232   T   T   T
  0.3010504630008626  0.2267399391301979  0.7727645653235484   T   T   T
  0.2268239950482851  0.3010144901488658  0.7727319321753754   T   T   T
  0.5342811894508515  0.7033360372776727  0.7768934065936648   T   T   T
  0.7034002555875887  0.5342858649096769  0.7770012296071229   T   T   T
  0.2155468672613807  0.0463937306017144  0.7769701488655443   T   T   T
  0.0464476167684111  0.2155339190258090  0.7768665864633562   T   T   T
 
  0.00000000E+00  0.00000000E+00  0.00000000E+00
  0.00000000E+00  0.00000000E+00  0.00000000E+00
  0.00000000E+00  0.00000000E+00  0.00000000E+00
  0.00000000E+00  0.00000000E+00  0.00000000E+00
  0.00000000E+00  0.00000000E+00  0.00000000E+00
  0.00000000E+00  0.00000000E+00  0.00000000E+00
  0.00000000E+00  0.00000000E+00  0.00000000E+00
  0.00000000E+00  0.00000000E+00  0.00000000E+00
  0.00000000E+00  0.00000000E+00  0.00000000E+00
  0.00000000E+00  0.00000000E+00  0.00000000E+00
  0.00000000E+00  0.00000000E+00  0.00000000E+00
  0.00000000E+00  0.00000000E+00  0.00000000E+00
  0.00000000E+00  0.00000000E+00  0.00000000E+00
  0.00000000E+00  0.00000000E+00  0.00000000E+00
  0.00000000E+00  0.00000000E+00  0.00000000E+00
  0.00000000E+00  0.00000000E+00  0.00000000E+00
  0.00000000E+00  0.00000000E+00  0.00000000E+00
  0.00000000E+00  0.00000000E+00  0.00000000E+00
  0.00000000E+00  0.00000000E+00  0.00000000E+00
  0.00000000E+00  0.00000000E+00  0.00000000E+00
  0.00000000E+00  0.00000000E+00  0.00000000E+00
  0.00000000E+00  0.00000000E+00  0.00000000E+00
  0.00000000E+00  0.00000000E+00  0.00000000E+00
  0.00000000E+00  0.00000000E+00  0.00000000E+00
  0.00000000E+00  0.00000000E+00  0.00000000E+00
  0.00000000E+00  0.00000000E+00  0.00000000E+00
  0.00000000E+00  0.00000000E+00  0.00000000E+00
  0.00000000E+00  0.00000000E+00  0.00000000E+00
  0.00000000E+00  0.00000000E+00  0.00000000E+00
  0.00000000E+00  0.00000000E+00  0.00000000E+00
  0.00000000E+00  0.00000000E+00  0.00000000E+00
  0.00000000E+00  0.00000000E+00  0.00000000E+00
  0.00000000E+00  0.00000000E+00  0.00000000E+00
  0.00000000E+00  0.00000000E+00  0.00000000E+00
  0.00000000E+00  0.00000000E+00  0.00000000E+00
  0.00000000E+00  0.00000000E+00  0.00000000E+00
  0.00000000E+00  0.00000000E+00  0.00000000E+00
  0.00000000E+00  0.00000000E+00  0.00000000E+00
  0.00000000E+00  0.00000000E+00  0.00000000E+00
  0.00000000E+00  0.00000000E+00  0.00000000E+00
  0.00000000E+00  0.00000000E+00  0.00000000E+00
  0.00000000E+00  0.00000000E+00  0.00000000E+00
  0.00000000E+00  0.00000000E+00  0.00000000E+00
  0.00000000E+00  0.00000000E+00  0.00000000E+00
  0.00000000E+00  0.00000000E+00  0.00000000E+00
  0.00000000E+00  0.00000000E+00  0.00000000E+00
  0.00000000E+00  0.00000000E+00  0.00000000E+00
  0.00000000E+00  0.00000000E+00  0.00000000E+00
  0.00000000E+00  0.00000000E+00  0.00000000E+00
  0.00000000E+00  0.00000000E+00  0.00000000E+00
  0.00000000E+00  0.00000000E+00  0.00000000E+00
  0.00000000E+00  0.00000000E+00  0.00000000E+00
  0.00000000E+00  0.00000000E+00  0.00000000E+00
  0.00000000E+00  0.00000000E+00  0.00000000E+00
  0.00000000E+00  0.00000000E+00  0.00000000E+00
  0.00000000E+00  0.00000000E+00  0.00000000E+00
  0.00000000E+00  0.00000000E+00  0.00000000E+00
  0.00000000E+00  0.00000000E+00  0.00000000E+00
  0.00000000E+00  0.00000000E+00  0.00000000E+00
  0.00000000E+00  0.00000000E+00  0.00000000E+00
