Pd48 C6 F2 H4                           
    1.000000000000000     
    11.1817229999999999    0.0000000000000000    0.0000000000000000
     0.0000000000000000   11.1817229999999999    0.0000000000000000
     0.0000000000000000    0.0000000000000000   16.9015856000000007
   Pd   C    F    H 
    48     6     2     4
Selective dynamics
Direct
  0.9992322174729154  0.2490954229047162  0.4104074033893568   T   T   T
  0.9999858573139093  0.4999996056081173  0.4094751834265722   T   T   T
  0.0007557290422611  0.7509083757231210  0.4104083804568859   T   T   T
  0.0000054829745721  0.0000031123381419  0.4104865531023449   T   T   T
  0.2505010691544527  0.2504919332983917  0.4111008485869334   T   T   T
  0.2522390746019170  0.5003437444085037  0.4122687222292711   T   T   T
  0.2519838841733133  0.7480193871349812  0.4121779590304158   T   T   T
  0.2490963265583943  0.9992424504424093  0.4104090612735334   T   T   T
  0.5003494399693267  0.2522327331353793  0.4122702586307767   T   T   T
  0.4999982493157660  0.5000016878066518  0.4120120294434244   T   T   T
  0.4996534544581053  0.7477610579022667  0.4122730412839175   T   T   T
  0.4999981355926195  0.9999966537484539  0.4094752536107293   T   T   T
  0.7480133830072688  0.2519936641005174  0.4121805605983724   T   T   T
  0.7477510293996943  0.4996526013878153  0.4122767127519396   T   T   T
  0.7494881033781482  0.7494933292821742  0.4111042954795181   T   T   T
  0.7508992436094815  0.0007627053577934  0.4104066044161812   T   T   T
  0.1244843063900731  0.1244896646930087  0.5260796714845029   T   T   T
  0.1227754130184096  0.3747027352634760  0.5250063348445764   T   T   T
  0.1227748743646231  0.6239039022727795  0.5258146414917846   T   T   T
  0.1250847079584929  0.8749151683498582  0.5263933511645149   T   T   T
  0.3746987591205411  0.1227784157223013  0.5250258438394724   T   T   T
  0.3710401694031304  0.3710408665865756  0.5305254684576681   T   T   T
  0.3729653125193479  0.6270267546787025  0.5351209831630257   T   T   T
  0.3760919714773721  0.8772123603274267  0.5258240807136616   T   T   T
  0.6239010938413898  0.1227885357891978  0.5258244961961296   T   T   T
  0.6270267585375748  0.3729683638679830  0.5351292209239276   T   T   T
  0.6289508605689491  0.6289525186417890  0.5305345796302490   T   T   T
  0.6252932586360842  0.8772218130802898  0.5250248071125299   T   T   T
  0.8749116533464374  0.1250919033484124  0.5263933793044444   T   T   T
  0.8772147519357603  0.3761022146695936  0.5258417383396647   T   T   T
  0.8772176504208815  0.6253019965447919  0.5250173088728900   T   T   T
  0.8755123478238502  0.8755142529403770  0.5260573911762592   T   T   T
  0.1249999995528412  0.1249999995528412  0.2958302326380533   F   F   F
  0.1249999995528412  0.3749999986585237  0.2958302326380533   F   F   F
  0.1249999995528412  0.6249999977642062  0.2958302326380533   F   F   F
  0.1249999995528412  0.8749999968698887  0.2958302326380533   F   F   F
  0.3749999986585237  0.1249999995528412  0.2958302326380533   F   F   F
  0.3749999986585237  0.3749999986585237  0.2958302326380533   F   F   F
  0.3749999986585237  0.6249999977642062  0.2958302326380533   F   F   F
  0.3749999986585237  0.8749999968698887  0.2958302326380533   F   F   F
  0.6249999977642062  0.1249999995528412  0.2958302326380533   F   F   F
  0.6249999977642062  0.3749999986585237  0.2958302326380533   F   F   F
  0.6249999977642062  0.6249999977642062  0.2958302326380533   F   F   F
  0.6249999977642062  0.8749999968698887  0.2958302326380533   F   F   F
  0.8749999968698887  0.1249999995528412  0.2958302326380533   F   F   F
  0.8749999968698887  0.3749999986585237  0.2958302326380533   F   F   F
  0.8749999968698887  0.6249999977642062  0.2958302326380533   F   F   F
  0.8749999968698887  0.8749999968698887  0.2958302326380533   F   F   F
  0.5912947385199772  0.5912979785238264  0.6474488464115495   T   T   T
  0.6252016145869703  0.4652819711880340  0.6501109719813627   T   T   T
  0.5347072393382888  0.3747731226694810  0.6501115119104171   T   T   T
  0.4086712308378466  0.4086771969978926  0.6474362874443287   T   T   T
  0.3747844480883984  0.5346849840159251  0.6500992411775144   T   T   T
  0.4653048089751550  0.6251845432450978  0.6500992114143642   T   T   T
  0.6651896776422674  0.6651739405108614  0.6922399074504639   T   T   T
  0.3348324495743498  0.3348225251236130  0.6922128689430096   T   T   T
  0.7136634702655300  0.4460875381932041  0.6743950615555860   T   T   T
  0.5538872945705791  0.2863342634683832  0.6743787281740126   T   T   T
  0.2863463000108553  0.5538748250697694  0.6743624459324096   T   T   T
  0.4461031332191538  0.7136446734384521  0.6743807915415303   T   T   T
 
  0.00000000E+00  0.00000000E+00  0.00000000E+00
  0.00000000E+00  0.00000000E+00  0.00000000E+00
  0.00000000E+00  0.00000000E+00  0.00000000E+00
  0.00000000E+00  0.00000000E+00  0.00000000E+00
  0.00000000E+00  0.00000000E+00  0.00000000E+00
  0.00000000E+00  0.00000000E+00  0.00000000E+00
  0.00000000E+00  0.00000000E+00  0.00000000E+00
  0.00000000E+00  0.00000000E+00  0.00000000E+00
  0.00000000E+00  0.00000000E+00  0.00000000E+00
  0.00000000E+00  0.00000000E+00  0.00000000E+00
  0.00000000E+00  0.00000000E+00  0.00000000E+00
  0.00000000E+00  0.00000000E+00  0.00000000E+00
  0.00000000E+00  0.00000000E+00  0.00000000E+00
  0.00000000E+00  0.00000000E+00  0.00000000E+00
  0.00000000E+00  0.00000000E+00  0.00000000E+00
  0.00000000E+00  0.00000000E+00  0.00000000E+00
  0.00000000E+00  0.00000000E+00  0.00000000E+00
  0.00000000E+00  0.00000000E+00  0.00000000E+00
  0.00000000E+00  0.00000000E+00  0.00000000E+00
  0.00000000E+00  0.00000000E+00  0.00000000E+00
  0.00000000E+00  0.00000000E+00  0.00000000E+00
  0.00000000E+00  0.00000000E+00  0.00000000E+00
  0.00000000E+00  0.00000000E+00  0.00000000E+00
  0.00000000E+00  0.00000000E+00  0.00000000E+00
  0.00000000E+00  0.00000000E+00  0.00000000E+00
  0.00000000E+00  0.00000000E+00  0.00000000E+00
  0.00000000E+00  0.00000000E+00  0.00000000E+00
  0.00000000E+00  0.00000000E+00  0.00000000E+00
  0.00000000E+00  0.00000000E+00  0.00000000E+00
  0.00000000E+00  0.00000000E+00  0.00000000E+00
  0.00000000E+00  0.00000000E+00  0.00000000E+00
  0.00000000E+00  0.00000000E+00  0.00000000E+00
  0.00000000E+00  0.00000000E+00  0.00000000E+00
  0.00000000E+00  0.00000000E+00  0.00000000E+00
  0.00000000E+00  0.00000000E+00  0.00000000E+00
  0.00000000E+00  0.00000000E+00  0.00000000E+00
  0.00000000E+00  0.00000000E+00  0.00000000E+00
  0.00000000E+00  0.00000000E+00  0.00000000E+00
  0.00000000E+00  0.00000000E+00  0.00000000E+00
  0.00000000E+00  0.00000000E+00  0.00000000E+00
  0.00000000E+00  0.00000000E+00  0.00000000E+00
  0.00000000E+00  0.00000000E+00  0.00000000E+00
  0.00000000E+00  0.00000000E+00  0.00000000E+00
  0.00000000E+00  0.00000000E+00  0.00000000E+00
  0.00000000E+00  0.00000000E+00  0.00000000E+00
  0.00000000E+00  0.00000000E+00  0.00000000E+00
  0.00000000E+00  0.00000000E+00  0.00000000E+00
  0.00000000E+00  0.00000000E+00  0.00000000E+00
  0.00000000E+00  0.00000000E+00  0.00000000E+00
  0.00000000E+00  0.00000000E+00  0.00000000E+00
  0.00000000E+00  0.00000000E+00  0.00000000E+00
  0.00000000E+00  0.00000000E+00  0.00000000E+00
  0.00000000E+00  0.00000000E+00  0.00000000E+00
  0.00000000E+00  0.00000000E+00  0.00000000E+00
  0.00000000E+00  0.00000000E+00  0.00000000E+00
  0.00000000E+00  0.00000000E+00  0.00000000E+00
  0.00000000E+00  0.00000000E+00  0.00000000E+00
  0.00000000E+00  0.00000000E+00  0.00000000E+00
  0.00000000E+00  0.00000000E+00  0.00000000E+00
  0.00000000E+00  0.00000000E+00  0.00000000E+00
