Pd48 C6 F6                              
    1.000000000000000     
    11.1817229999999999    0.0000000000000000    0.0000000000000000
     0.0000000000000000   15.8133443000000007    0.0000000000000000
     0.0000000000000000    0.0000000000000000   15.6556714100000001
   Pd   C    F 
    48     6     6
Selective dynamics
Direct
  0.2496784486453691  0.9998803966572041  0.4033225821855311   T   T   T
  0.2515619317850906  0.2527415867331442  0.4051027267144534   T   T   T
  0.2449276522115156  0.5003747787703077  0.3963339318825376   T   T   T
  0.2540853312381586  0.7459913812789836  0.4061207813924241   T   T   T
  0.4999999982113650  0.0000000000000000  0.4041445666327661   T   T   T
  0.5001671522317608  0.2537666296974592  0.4067301637443421   T   T   T
  0.4999999982113650  0.4999999987352481  0.3846694125592691   T   T   T
  0.4998328441909692  0.7462333684054130  0.4067301637443421   T   T   T
  0.7503215477773608  0.0001196033427959  0.4033225821855311   T   T   T
  0.7459146651845714  0.2540086168238815  0.4061207813924241   T   T   T
  0.7550723442112144  0.4996252187001886  0.3963339318825376   T   T   T
  0.7484380646376394  0.7472584113697209  0.4051027267144534   T   T   T
  0.0000000000000000  0.0000000000000000  0.4032016381552381   T   T   T
  0.9991665200376332  0.2520209148447208  0.4041556964533086   T   T   T
  0.9999999964227371  0.4999999987352481  0.4043518320031509   T   T   T
  0.0008334728078410  0.7479790832581443  0.4041556964533086   T   T   T
  0.1247386136227391  0.1265197992948472  0.4872504981326031   T   T   T
  0.1254685440473935  0.3763248100660448  0.4893023629336426   T   T   T
  0.1299270814045599  0.6236362810016658  0.4893333409285887   T   T   T
  0.1267902659088449  0.8728474798069783  0.4870390686502333   T   T   T
  0.3750144769292874  0.1261740160529854  0.4876908411545529   T   T   T
  0.3734735696285938  0.3895413506277166  0.4895408332269184   T   T   T
  0.3824717948778229  0.6033273480086692  0.4970287476254853   T   T   T
  0.3762080470334226  0.8739539192284838  0.4881972030694115   T   T   T
  0.6237919493893074  0.1260460782420125  0.4881972030694115   T   T   T
  0.6175282015449071  0.3966726494618200  0.4970287476254853   T   T   T
  0.6265264267941362  0.6104586468427726  0.4895408332269184   T   T   T
  0.6249855194934426  0.8738259814175109  0.4876908411545529   T   T   T
  0.8732097305138851  0.1271525176635180  0.4870390686502333   T   T   T
  0.8700729150181701  0.3763637164688234  0.4893333409285887   T   T   T
  0.8745314523753365  0.6236751874044444  0.4893023629336426   T   T   T
  0.8752613827999909  0.8734801981756490  0.4872504981326031   T   T   T
  0.1249999995528412  0.1249999995257198  0.3193730801482104   F   F   F
  0.1249999995528412  0.3749999992095283  0.3193730801482104   F   F   F
  0.1249999995528412  0.6249999982609609  0.3193730801482104   F   F   F
  0.1249999995528412  0.8749999979447765  0.3193730801482104   F   F   F
  0.3749999986585237  0.1249999995257198  0.3193730801482104   F   F   F
  0.3749999986585237  0.3749999992095283  0.3193730801482104   F   F   F
  0.3749999986585237  0.6249999982609609  0.3193730801482104   F   F   F
  0.3749999986585237  0.8749999979447765  0.3193730801482104   F   F   F
  0.6249999977642062  0.1249999995257198  0.3193730801482104   F   F   F
  0.6249999977642062  0.3749999992095283  0.3193730801482104   F   F   F
  0.6249999977642062  0.6249999982609609  0.3193730801482104   F   F   F
  0.6249999977642062  0.8749999979447765  0.3193730801482104   F   F   F
  0.8749999968698887  0.1249999995257198  0.3193730801482104   F   F   F
  0.8749999968698887  0.3749999992095283  0.3193730801482104   F   F   F
  0.8749999968698887  0.6249999982609609  0.3193730801482104   F   F   F
  0.8749999968698887  0.8749999979447765  0.3193730801482104   F   F   F
  0.3760959428841488  0.5307678295936071  0.6106398715635493   T   T   T
  0.4738536960428377  0.5904144766977026  0.6169677699735061   T   T   T
  0.6007624407898859  0.5632987396430380  0.6085938729314293   T   T   T
  0.6239040284977193  0.4692321552293350  0.6106398715635493   T   T   T
  0.5261463254207612  0.4095855334203407  0.6169677699735061   T   T   T
  0.3992375556328511  0.4367012578274512  0.6085938729314293   T   T   T
  0.2743857055350674  0.5502955843916837  0.6555054389659318   T   T   T
  0.4572591432100950  0.6592826590583343  0.6681743863235923   T   T   T
  0.6738720547641890  0.6047949671397248  0.6668721087359373   T   T   T
  0.7256142908876697  0.4497044130788055  0.6555054389659318   T   T   T
  0.5427409193920667  0.3407173586482273  0.6681743863235923   T   T   T
  0.3261279675937274  0.3952050429783114  0.6668721087359373   T   T   T
 
  0.00000000E+00  0.00000000E+00  0.00000000E+00
  0.00000000E+00  0.00000000E+00  0.00000000E+00
  0.00000000E+00  0.00000000E+00  0.00000000E+00
  0.00000000E+00  0.00000000E+00  0.00000000E+00
  0.00000000E+00  0.00000000E+00  0.00000000E+00
  0.00000000E+00  0.00000000E+00  0.00000000E+00
  0.00000000E+00  0.00000000E+00  0.00000000E+00
  0.00000000E+00  0.00000000E+00  0.00000000E+00
  0.00000000E+00  0.00000000E+00  0.00000000E+00
  0.00000000E+00  0.00000000E+00  0.00000000E+00
  0.00000000E+00  0.00000000E+00  0.00000000E+00
  0.00000000E+00  0.00000000E+00  0.00000000E+00
  0.00000000E+00  0.00000000E+00  0.00000000E+00
  0.00000000E+00  0.00000000E+00  0.00000000E+00
  0.00000000E+00  0.00000000E+00  0.00000000E+00
  0.00000000E+00  0.00000000E+00  0.00000000E+00
  0.00000000E+00  0.00000000E+00  0.00000000E+00
  0.00000000E+00  0.00000000E+00  0.00000000E+00
  0.00000000E+00  0.00000000E+00  0.00000000E+00
  0.00000000E+00  0.00000000E+00  0.00000000E+00
  0.00000000E+00  0.00000000E+00  0.00000000E+00
  0.00000000E+00  0.00000000E+00  0.00000000E+00
  0.00000000E+00  0.00000000E+00  0.00000000E+00
  0.00000000E+00  0.00000000E+00  0.00000000E+00
  0.00000000E+00  0.00000000E+00  0.00000000E+00
  0.00000000E+00  0.00000000E+00  0.00000000E+00
  0.00000000E+00  0.00000000E+00  0.00000000E+00
  0.00000000E+00  0.00000000E+00  0.00000000E+00
  0.00000000E+00  0.00000000E+00  0.00000000E+00
  0.00000000E+00  0.00000000E+00  0.00000000E+00
  0.00000000E+00  0.00000000E+00  0.00000000E+00
  0.00000000E+00  0.00000000E+00  0.00000000E+00
  0.00000000E+00  0.00000000E+00  0.00000000E+00
  0.00000000E+00  0.00000000E+00  0.00000000E+00
  0.00000000E+00  0.00000000E+00  0.00000000E+00
  0.00000000E+00  0.00000000E+00  0.00000000E+00
  0.00000000E+00  0.00000000E+00  0.00000000E+00
  0.00000000E+00  0.00000000E+00  0.00000000E+00
  0.00000000E+00  0.00000000E+00  0.00000000E+00
  0.00000000E+00  0.00000000E+00  0.00000000E+00
  0.00000000E+00  0.00000000E+00  0.00000000E+00
  0.00000000E+00  0.00000000E+00  0.00000000E+00
  0.00000000E+00  0.00000000E+00  0.00000000E+00
  0.00000000E+00  0.00000000E+00  0.00000000E+00
  0.00000000E+00  0.00000000E+00  0.00000000E+00
  0.00000000E+00  0.00000000E+00  0.00000000E+00
  0.00000000E+00  0.00000000E+00  0.00000000E+00
  0.00000000E+00  0.00000000E+00  0.00000000E+00
  0.00000000E+00  0.00000000E+00  0.00000000E+00
  0.00000000E+00  0.00000000E+00  0.00000000E+00
  0.00000000E+00  0.00000000E+00  0.00000000E+00
  0.00000000E+00  0.00000000E+00  0.00000000E+00
  0.00000000E+00  0.00000000E+00  0.00000000E+00
  0.00000000E+00  0.00000000E+00  0.00000000E+00
  0.00000000E+00  0.00000000E+00  0.00000000E+00
  0.00000000E+00  0.00000000E+00  0.00000000E+00
  0.00000000E+00  0.00000000E+00  0.00000000E+00
  0.00000000E+00  0.00000000E+00  0.00000000E+00
  0.00000000E+00  0.00000000E+00  0.00000000E+00
  0.00000000E+00  0.00000000E+00  0.00000000E+00
