Rh  C  N  F                             
   1.00000000000000     
    10.8721879999999995    0.0000000000000000    0.0000000000000000
    -5.4360939999999998    9.4155909999999992    0.0000000000000000
     0.0000000000000000    0.0000000000000000   24.6578279400000042
   Rh   C    N    F 
    64     4     2     4
Selective dynamics
Direct
  0.9999999559446024  0.7499999670758868  0.3041630438110658   F   F   F
  0.2499999889626636  0.0000000000000000  0.3041630438110658   F   F   F
  0.2499999891709876  0.2499999893793188  0.3041630438110658   F   F   F
  0.2499999888482805  0.4999999776965680  0.3041630438110658   F   F   F
  0.2499999890566116  0.7499999670758868  0.3041630438110658   F   F   F
  0.4999999779253272  0.0000000000000000  0.3041630438110658   F   F   F
  0.4999999781336513  0.2499999893793188  0.3041630438110658   F   F   F
  0.4999999778109441  0.4999999776965680  0.3041630438110658   F   F   F
  0.7499999668879909  0.0000000000000000  0.3041630438110658   F   F   F
  0.7499999670963149  0.2499999893793188  0.3041630438110658   F   F   F
  0.7499999667736077  0.4999999776965680  0.3041630438110658   F   F   F
  0.7499999669819388  0.7499999670758868  0.3041630438110658   F   F   F
  0.0000000000000000  0.0000000000000000  0.3041630438110658   F   F   F
  0.9999999560589785  0.2499999893793188  0.3041630438110658   F   F   F
  0.9999999998856168  0.4999999776965680  0.3041630438110658   F   F   F
  0.4999999780192752  0.7499999670758868  0.3041630438110658   F   F   F
  0.0833330000000032  0.1666669999999968  0.3941659420955475   F   F   F
  0.0833330000000032  0.4166669999999968  0.3941659420955475   F   F   F
  0.0833330000000032  0.6666669999999968  0.3941659420955475   F   F   F
  0.0833330000000032  0.9166669999999968  0.3941659420955475   F   F   F
  0.3333330000000032  0.1666669999999968  0.3941659420955475   F   F   F
  0.3333330000000032  0.4166669999999968  0.3941659420955475   F   F   F
  0.3333330000000032  0.6666669999999968  0.3941659420955475   F   F   F
  0.3333330000000032  0.9166669999999968  0.3941659420955475   F   F   F
  0.5833330000000032  0.1666669999999968  0.3941659420955475   F   F   F
  0.5833330000000032  0.4166669999999968  0.3941659420955475   F   F   F
  0.5833330000000032  0.6666669999999968  0.3941659420955475   F   F   F
  0.5833330000000032  0.9166669999999968  0.3941659420955475   F   F   F
  0.8333330000000032  0.1666669999999968  0.3941659420955475   F   F   F
  0.8333330000000032  0.4166669999999968  0.3941659420955475   F   F   F
  0.8333330000000032  0.6666669999999968  0.3941659420955475   F   F   F
  0.8333330000000032  0.9166669999999968  0.3941659420955475   F   F   F
  0.9974726713343576  0.9972855890979816  0.5653722889892866   T   T   T
  0.9954108957918987  0.2482416509459932  0.5655630575769773   T   T   T
 -0.0001033968361173  0.4999110370013795  0.5657761643255999   T   T   T
  0.0010996843520932  0.7497332100651347  0.5654121576304875   T   T   T
  0.2478435599675654  0.9951188996084669  0.5655102991165274   T   T   T
  0.2438161992912895  0.2429514927342337  0.5698079846808608   T   T   T
  0.2499848471765355  0.4999075437725335  0.5693635993510013   T   T   T
  0.2500659617443189  0.7501026527210756  0.5657274941970666   T   T   T
  0.5000536206522649  0.0000719758510214  0.5658425509087451   T   T   T
  0.4992729388640577  0.2505550997971894  0.5693968303373893   T   T   T
  0.5070504284760723  0.5061499100180515  0.5696378011085311   T   T   T
  0.5014202792274488  0.7544045371543671  0.5656186499447849   T   T   T
  0.7497101047992786 -0.0002051468090558  0.5654374093201999   T   T   T
  0.7492922225117081  0.2491471206334276  0.5657673272352168   T   T   T
  0.7552952649446979  0.5024439278269909  0.5656408288525325   T   T   T
  0.7533681313934107  0.7528896757092342  0.5654564837469924   T   T   T
  0.1672107541250739  0.0843241114124162  0.4798814786922738   T   T   T
  0.1678753052119548  0.3335803590895882  0.4802539538766903   T   T   T
  0.1685219824585868  0.5811869886831261  0.4807794072501476   T   T   T
  0.1674488849484246  0.8335027504853606  0.4793692162166618   T   T   T
  0.4172957780936616  0.0856354552441294  0.4804815179373653   T   T   T
  0.4161881411412930  0.3339252976662225  0.4803237728460087   T   T   T
  0.4163348789066016  0.5821773086424488  0.4802315812668871   T   T   T
  0.4167122297502705  0.8332502375010525  0.4797444460152444   T   T   T
  0.6661972086852366  0.0833626648677289  0.4798083715007144   T   T   T
  0.6644771350485287  0.3330393167887202  0.4805109823435236   T   T   T
  0.6658074592827221  0.5829223580420460  0.4799619428549880   T   T   T
  0.6662625420582059  0.8327604976292607  0.4795178686841984   T   T   T
  0.9171061536956882  0.0836151148609464  0.4795635710583458   T   T   T
  0.9166410562671251  0.3331279351242396  0.4797831984417984   T   T   T
  0.9166833325652918  0.5826032818610309  0.4795972162813418   T   T   T
  0.9169289848196839  0.8330879656392367  0.4794123425687494   T   T   T
  0.5197651679390766  0.4415126375817244  0.6505953834296597   T   T   T
  0.4430197011869754  0.5183073059616831  0.6505516095630939   T   T   T
  0.2313627678290755  0.3064880705932193  0.6505815965554494   T   T   T
  0.3082592105542374  0.2297274645450610  0.6506911594016550   T   T   T
  0.2967047199096283  0.4527984714360110  0.6503800926180753   T   T   T
  0.4545405699362119  0.2952086485724350  0.6508680315990627   T   T   T
  0.2427810089721578  0.0967308442904779  0.6735314216309359   T   T   T
  0.0981300565709189  0.2414272264828393  0.6731963205420041   T   T   T
  0.6525936908652620  0.5067485125150429  0.6735064880493488   T   T   T
  0.5078314924729156  0.6513308196739700  0.6732871525388323   T   T   T
 
  0.00000000E+00  0.00000000E+00  0.00000000E+00
  0.00000000E+00  0.00000000E+00  0.00000000E+00
  0.00000000E+00  0.00000000E+00  0.00000000E+00
  0.00000000E+00  0.00000000E+00  0.00000000E+00
  0.00000000E+00  0.00000000E+00  0.00000000E+00
  0.00000000E+00  0.00000000E+00  0.00000000E+00
  0.00000000E+00  0.00000000E+00  0.00000000E+00
  0.00000000E+00  0.00000000E+00  0.00000000E+00
  0.00000000E+00  0.00000000E+00  0.00000000E+00
  0.00000000E+00  0.00000000E+00  0.00000000E+00
  0.00000000E+00  0.00000000E+00  0.00000000E+00
  0.00000000E+00  0.00000000E+00  0.00000000E+00
  0.00000000E+00  0.00000000E+00  0.00000000E+00
  0.00000000E+00  0.00000000E+00  0.00000000E+00
  0.00000000E+00  0.00000000E+00  0.00000000E+00
  0.00000000E+00  0.00000000E+00  0.00000000E+00
  0.00000000E+00  0.00000000E+00  0.00000000E+00
  0.00000000E+00  0.00000000E+00  0.00000000E+00
  0.00000000E+00  0.00000000E+00  0.00000000E+00
  0.00000000E+00  0.00000000E+00  0.00000000E+00
  0.00000000E+00  0.00000000E+00  0.00000000E+00
  0.00000000E+00  0.00000000E+00  0.00000000E+00
  0.00000000E+00  0.00000000E+00  0.00000000E+00
  0.00000000E+00  0.00000000E+00  0.00000000E+00
  0.00000000E+00  0.00000000E+00  0.00000000E+00
  0.00000000E+00  0.00000000E+00  0.00000000E+00
  0.00000000E+00  0.00000000E+00  0.00000000E+00
  0.00000000E+00  0.00000000E+00  0.00000000E+00
  0.00000000E+00  0.00000000E+00  0.00000000E+00
  0.00000000E+00  0.00000000E+00  0.00000000E+00
  0.00000000E+00  0.00000000E+00  0.00000000E+00
  0.00000000E+00  0.00000000E+00  0.00000000E+00
  0.00000000E+00  0.00000000E+00  0.00000000E+00
  0.00000000E+00  0.00000000E+00  0.00000000E+00
  0.00000000E+00  0.00000000E+00  0.00000000E+00
  0.00000000E+00  0.00000000E+00  0.00000000E+00
  0.00000000E+00  0.00000000E+00  0.00000000E+00
  0.00000000E+00  0.00000000E+00  0.00000000E+00
  0.00000000E+00  0.00000000E+00  0.00000000E+00
  0.00000000E+00  0.00000000E+00  0.00000000E+00
  0.00000000E+00  0.00000000E+00  0.00000000E+00
  0.00000000E+00  0.00000000E+00  0.00000000E+00
  0.00000000E+00  0.00000000E+00  0.00000000E+00
  0.00000000E+00  0.00000000E+00  0.00000000E+00
  0.00000000E+00  0.00000000E+00  0.00000000E+00
  0.00000000E+00  0.00000000E+00  0.00000000E+00
  0.00000000E+00  0.00000000E+00  0.00000000E+00
  0.00000000E+00  0.00000000E+00  0.00000000E+00
  0.00000000E+00  0.00000000E+00  0.00000000E+00
  0.00000000E+00  0.00000000E+00  0.00000000E+00
  0.00000000E+00  0.00000000E+00  0.00000000E+00
  0.00000000E+00  0.00000000E+00  0.00000000E+00
  0.00000000E+00  0.00000000E+00  0.00000000E+00
  0.00000000E+00  0.00000000E+00  0.00000000E+00
  0.00000000E+00  0.00000000E+00  0.00000000E+00
  0.00000000E+00  0.00000000E+00  0.00000000E+00
  0.00000000E+00  0.00000000E+00  0.00000000E+00
  0.00000000E+00  0.00000000E+00  0.00000000E+00
  0.00000000E+00  0.00000000E+00  0.00000000E+00
  0.00000000E+00  0.00000000E+00  0.00000000E+00
  0.00000000E+00  0.00000000E+00  0.00000000E+00
  0.00000000E+00  0.00000000E+00  0.00000000E+00
  0.00000000E+00  0.00000000E+00  0.00000000E+00
  0.00000000E+00  0.00000000E+00  0.00000000E+00
  0.00000000E+00  0.00000000E+00  0.00000000E+00
  0.00000000E+00  0.00000000E+00  0.00000000E+00
  0.00000000E+00  0.00000000E+00  0.00000000E+00
  0.00000000E+00  0.00000000E+00  0.00000000E+00
  0.00000000E+00  0.00000000E+00  0.00000000E+00
  0.00000000E+00  0.00000000E+00  0.00000000E+00
  0.00000000E+00  0.00000000E+00  0.00000000E+00
  0.00000000E+00  0.00000000E+00  0.00000000E+00
  0.00000000E+00  0.00000000E+00  0.00000000E+00
  0.00000000E+00  0.00000000E+00  0.00000000E+00
