Cu48 C6 H2 Br4                          
    1.000000000000000     
    10.2424774999999997    0.0000000000000000    0.0000000000000000
     0.0000000000000000   10.2424774999999997    0.0000000000000000
     0.0000000000000000    0.0000000000000000   16.5541665999999985
   Cu   C    H    Br
    48     6     2     4
Selective dynamics
Direct
  0.2494532291001832  0.9992857680594014  0.4090615679372078   T   T   T
  0.2496764199517543  0.2496739004417634  0.4085815207398653   T   T   T
  0.2502910452158602  0.4998389988129475  0.4090406186882092   T   T   T
  0.2506477717333482  0.7493444219796785  0.4098041621256243   T   T   T
  0.5000052910128758  0.0000004868534305  0.4089986850083207   T   T   T
  0.4998462836491058  0.2502906496998918  0.4090449804104352   T   T   T
  0.5000059390395961  0.4999924375535727  0.4092524112079090   T   T   T
  0.5001659987747686  0.7497077649795898  0.4090478638892776   T   T   T
  0.7505462869977251  0.0007146958467601  0.4090519162903092   T   T   T
  0.7493510530587102  0.2506531866794717  0.4097947890382656   T   T   T
  0.7497122920571968  0.5001550560085590  0.4090337503459622   T   T   T
  0.7503277704672158  0.7503229757844139  0.4085754077636423   T   T   T
  0.9999985499944373  0.0000002329963351  0.4092566281114571   T   T   T
  0.9992838214638269  0.2494552382313486  0.4090503667279748   T   T   T
  0.9999994048250116  0.4999980772939665  0.4089815953316815   T   T   T
  0.0007131301864831  0.7505410718795389  0.4090486249262568   T   T   T
  0.1248910433670574  0.1248833200466350  0.5164706866344702   T   T   T
  0.1239627119933502  0.3737044308053470  0.5149346724456478   T   T   T
  0.1243185159628908  0.6251575575021562  0.5166419514993876   T   T   T
  0.1248096557876366  0.8751923454959183  0.5167307746455307   T   T   T
  0.3737169476751347  0.1239614340400621  0.5149489769411133   T   T   T
  0.3722033189058962  0.3722040539148352  0.5165362264171804   T   T   T
  0.3754647160783264  0.6245439399125843  0.5163667319725818   T   T   T
  0.3748386216411248  0.8756901830855028  0.5166442078228641   T   T   T
  0.6251621877791820  0.1243057280463091  0.5166370106685818   T   T   T
  0.6245435336474543  0.3754481119202140  0.5163761361570209   T   T   T
  0.6277984579277600  0.6277938409840971  0.5165327133714968   T   T   T
  0.6262901608214477  0.8760431457550624  0.5149427593857396   T   T   T
  0.8751883196862664  0.1248073366913971  0.5167368273046264   T   T   T
  0.8756917441008838  0.3748380150539745  0.5166335324333957   T   T   T
  0.8760368166005748  0.6262880694806583  0.5149340296959366   T   T   T
  0.8751143515868449  0.8751133869352188  0.5164607228044886   T   T   T
  0.1250000002440785  0.1249999992677573  0.3020387628574426   F   F   F
  0.1250000002440785  0.3749999997559215  0.3020387628574426   F   F   F
  0.1250000002440785  0.6249999982914289  0.3020387628574426   F   F   F
  0.1250000002440785  0.8749999987795931  0.3020387628574426   F   F   F
  0.3749999997559215  0.1249999992677573  0.3020387628574426   F   F   F
  0.3749999997559215  0.3749999997559215  0.3020387628574426   F   F   F
  0.3749999997559215  0.6249999982914289  0.3020387628574426   F   F   F
  0.3749999997559215  0.8749999987795931  0.3020387628574426   F   F   F
  0.6249999982914289  0.1249999992677573  0.3020387628574426   F   F   F
  0.6249999982914289  0.3749999997559215  0.3020387628574426   F   F   F
  0.6249999992677573  0.6249999982914289  0.3020387628574426   F   F   F
  0.6249999992677573  0.8749999987795931  0.3020387628574426   F   F   F
  0.8749999987795931  0.1249999992677573  0.3020387628574426   F   F   F
  0.8749999978032648  0.3749999997559215  0.3020387628574426   F   F   F
  0.8749999987795931  0.6249999982914289  0.3020387628574426   F   F   F
  0.8749999987795931  0.8749999987795931  0.3020387628574426   F   F   F
  0.5996003781228652  0.5995723041814784  0.6417915776335690   T   T   T
  0.6331468082110590  0.4631671416221934  0.6521269748724166   T   T   T
  0.5368385886593501  0.3668518197039177  0.6521342133584866   T   T   T
  0.4004380508092709  0.4003893277545529  0.6417928553892267   T   T   T
  0.3669300973161782  0.5368625491905661  0.6521338473192984   T   T   T
  0.4631289197985282  0.6330752789427194  0.6521379247997459   T   T   T
  0.6707212993918716  0.6706994606618295  0.6634262708127920   T   T   T
  0.3293084525402890  0.3292603860079808  0.6634229523339101   T   T   T
  0.8103113043556078  0.4266531155047062  0.6798363136536025   T   T   T
  0.5733605218411029  0.1896956899724671  0.6798340176401254   T   T   T
  0.1897163832978848  0.5733117515925272  0.6798506058861093   T   T   T
  0.4266635446939873  0.8102684813343402  0.6798524734010130   T   T   T
 
  0.00000000E+00  0.00000000E+00  0.00000000E+00
  0.00000000E+00  0.00000000E+00  0.00000000E+00
  0.00000000E+00  0.00000000E+00  0.00000000E+00
  0.00000000E+00  0.00000000E+00  0.00000000E+00
  0.00000000E+00  0.00000000E+00  0.00000000E+00
  0.00000000E+00  0.00000000E+00  0.00000000E+00
  0.00000000E+00  0.00000000E+00  0.00000000E+00
  0.00000000E+00  0.00000000E+00  0.00000000E+00
  0.00000000E+00  0.00000000E+00  0.00000000E+00
  0.00000000E+00  0.00000000E+00  0.00000000E+00
  0.00000000E+00  0.00000000E+00  0.00000000E+00
  0.00000000E+00  0.00000000E+00  0.00000000E+00
  0.00000000E+00  0.00000000E+00  0.00000000E+00
  0.00000000E+00  0.00000000E+00  0.00000000E+00
  0.00000000E+00  0.00000000E+00  0.00000000E+00
  0.00000000E+00  0.00000000E+00  0.00000000E+00
  0.00000000E+00  0.00000000E+00  0.00000000E+00
  0.00000000E+00  0.00000000E+00  0.00000000E+00
  0.00000000E+00  0.00000000E+00  0.00000000E+00
  0.00000000E+00  0.00000000E+00  0.00000000E+00
  0.00000000E+00  0.00000000E+00  0.00000000E+00
  0.00000000E+00  0.00000000E+00  0.00000000E+00
  0.00000000E+00  0.00000000E+00  0.00000000E+00
  0.00000000E+00  0.00000000E+00  0.00000000E+00
  0.00000000E+00  0.00000000E+00  0.00000000E+00
  0.00000000E+00  0.00000000E+00  0.00000000E+00
  0.00000000E+00  0.00000000E+00  0.00000000E+00
  0.00000000E+00  0.00000000E+00  0.00000000E+00
  0.00000000E+00  0.00000000E+00  0.00000000E+00
  0.00000000E+00  0.00000000E+00  0.00000000E+00
  0.00000000E+00  0.00000000E+00  0.00000000E+00
  0.00000000E+00  0.00000000E+00  0.00000000E+00
  0.00000000E+00  0.00000000E+00  0.00000000E+00
  0.00000000E+00  0.00000000E+00  0.00000000E+00
  0.00000000E+00  0.00000000E+00  0.00000000E+00
  0.00000000E+00  0.00000000E+00  0.00000000E+00
  0.00000000E+00  0.00000000E+00  0.00000000E+00
  0.00000000E+00  0.00000000E+00  0.00000000E+00
  0.00000000E+00  0.00000000E+00  0.00000000E+00
  0.00000000E+00  0.00000000E+00  0.00000000E+00
  0.00000000E+00  0.00000000E+00  0.00000000E+00
  0.00000000E+00  0.00000000E+00  0.00000000E+00
  0.00000000E+00  0.00000000E+00  0.00000000E+00
  0.00000000E+00  0.00000000E+00  0.00000000E+00
  0.00000000E+00  0.00000000E+00  0.00000000E+00
  0.00000000E+00  0.00000000E+00  0.00000000E+00
  0.00000000E+00  0.00000000E+00  0.00000000E+00
  0.00000000E+00  0.00000000E+00  0.00000000E+00
  0.00000000E+00  0.00000000E+00  0.00000000E+00
  0.00000000E+00  0.00000000E+00  0.00000000E+00
  0.00000000E+00  0.00000000E+00  0.00000000E+00
  0.00000000E+00  0.00000000E+00  0.00000000E+00
  0.00000000E+00  0.00000000E+00  0.00000000E+00
  0.00000000E+00  0.00000000E+00  0.00000000E+00
  0.00000000E+00  0.00000000E+00  0.00000000E+00
  0.00000000E+00  0.00000000E+00  0.00000000E+00
  0.00000000E+00  0.00000000E+00  0.00000000E+00
  0.00000000E+00  0.00000000E+00  0.00000000E+00
  0.00000000E+00  0.00000000E+00  0.00000000E+00
  0.00000000E+00  0.00000000E+00  0.00000000E+00
