Ir  C  F                                
    1.000000000000000     
    10.9622135000000007    0.0000000000000000    0.0000000000000000
     0.0000000000000000   10.9622135000000007    0.0000000000000000
     0.0000000000000000    0.0000000000000000   23.8135916099999996
   Ir   C    F 
    64     6     6
Selective dynamics
Direct
  0.0000000000000000  0.2499999995438884  0.3149461921926360   F   F   F
  0.7499999986316652  0.7499999986316652  0.3149461921926360   F   F   F
  0.0000000000000000  0.4999999990877768  0.3149461921926360   F   F   F
  0.0000000000000000  0.7499999986316652  0.3149461921926360   F   F   F
  0.0000000000000000  0.0000000000000000  0.3149461921926360   F   F   F
  0.2499999995438884  0.2499999995438884  0.3149461921926360   F   F   F
  0.2499999995438884  0.4999999990877768  0.3149461921926360   F   F   F
  0.7499999986316652  0.0000000000000000  0.3149461921926360   F   F   F
  0.2499999995438884  0.7499999986316652  0.3149461921926360   F   F   F
  0.2499999995438884  0.0000000000000000  0.3149461921926360   F   F   F
  0.4999999990877768  0.2499999995438884  0.3149461921926360   F   F   F
  0.4999999990877768  0.4999999990877768  0.3149461921926360   F   F   F
  0.4999999990877768  0.7499999986316652  0.3149461921926360   F   F   F
  0.4999999990877768  0.0000000000000000  0.3149461921926360   F   F   F
  0.7499999986316652  0.2499999995438884  0.3149461921926360   F   F   F
  0.7499999986316652  0.4999999990877768  0.3149461921926360   F   F   F
  0.9984664873898929  0.2498030856874242  0.4780293203358398   T   T   T
  0.0000000000000000  0.4999999990877768  0.4780939325808425   T   T   T
  0.0015335126101070  0.7501969124881297  0.4780293203358398   T   T   T
  0.0000000000000000 -0.0000000000000000  0.4782396404993041   T   T   T
  0.2491773866107945  0.2491811729391511  0.4778600153007755   T   T   T
  0.2506998911645471  0.4993914662971838  0.4786840484449754   T   T   T
  0.2526023585856244  0.7473992499270657  0.4793186392912178   T   T   T
  0.2498032678390691  0.9984644102475165  0.4780277996691184   T   T   T
  0.4993939449335804  0.2506995784317244  0.4786847330522760   T   T   T
  0.4999999990877768  0.4999999990877768  0.4789884701721008   T   T   T
  0.5006060532419733  0.7493004197438291  0.4786847330522760   T   T   T
  0.4999999990877768 -0.0000000000000000  0.4780932821218776   T   T   T
  0.7473976395899292  0.2526007482484879  0.4793186392912178   T   T   T
  0.7493001070110064  0.5006085318783698  0.4786840484449754   T   T   T
  0.7508226115647589  0.7508188252364023  0.4778600153007755   T   T   T
  0.7501967303364848  0.0015355897524833  0.4780277996691184   T   T   T
  0.1249672738012937  0.1249690989702164  0.5562345167929603   T   T   T
  0.1230495634447046  0.3741319927235160  0.5560801301456941   T   T   T
  0.1239252054259851  0.6241794866907063  0.5566451524118097   T   T   T
  0.1252877424505458  0.8747123444291915  0.5563930024993249   T   T   T
  0.3741338965450147  0.1230488255754758  0.5560806686385213   T   T   T
  0.3715410018830806  0.3715414283590019  0.5571661564283822   T   T   T
  0.3741852419735588  0.6258171410019219  0.5648053942802254   T   T   T
  0.3758203700748700  0.8760732392586507  0.5566463741408316   T   T   T
  0.6241796290129066  0.1239267598291264  0.5566463741408316   T   T   T
  0.6258147571142177  0.3741828580858547  0.5648053942802254   T   T   T
  0.6284589972046962  0.6284585707287750  0.5571661564283822   T   T   T
  0.6258661025427620  0.8769511735123011  0.5560806686385213   T   T   T
  0.8747122566372312  0.1252876546585854  0.5563930024993249   T   T   T
  0.8760747936617920  0.3758205123970702  0.5566451524118097   T   T   T
  0.8769504356430723  0.6258680063642607  0.5560801301456941   T   T   T
  0.8750327252864828  0.8750309001175601  0.5562345167929603   T   T   T
  0.1250000002280558  0.1250000002280558  0.3963225717718615   F   F   F
  0.1250000002280558  0.3749999997719442  0.3963225717718615   F   F   F
  0.1250000002280558  0.6249999993158326  0.3963225717718615   F   F   F
  0.1250000002280558  0.8749999988597210  0.3963225717718615   F   F   F
  0.3749999997719442  0.1250000002280558  0.3963225717718615   F   F   F
  0.3749999997719442  0.3749999997719442  0.3963225717718615   F   F   F
  0.3749999997719442  0.6249999993158326  0.3963225717718615   F   F   F
  0.3749999997719442  0.8749999988597210  0.3963225717718615   F   F   F
  0.6249999993158326  0.1250000002280558  0.3963225717718615   F   F   F
  0.6249999993158326  0.3749999997719442  0.3963225717718615   F   F   F
  0.6249999993158326  0.6249999993158326  0.3963225717718615   F   F   F
  0.6249999993158326  0.8749999988597210  0.3963225717718615   F   F   F
  0.8749999988597210  0.1250000002280558  0.3963225717718615   F   F   F
  0.8749999988597210  0.3749999997719442  0.3963225717718615   F   F   F
  0.8749999988597210  0.6249999993158326  0.3963225717718615   F   F   F
  0.8749999988597210  0.8749999988597210  0.3963225717718615   F   F   F
  0.3703316465214000  0.5358139725083626  0.6450724602903398   T   T   T
  0.4641865985157968  0.6296682680278778  0.6450720045478667   T   T   T
  0.5979333834113846  0.5979355837461328  0.6417704736087587   T   T   T
  0.6296683233751921  0.4641860128960450  0.6450724602903398   T   T   T
  0.5358134297631645  0.3703317447432680  0.6450720045478667   T   T   T
  0.4020666156763923  0.4020644153416441  0.6417704736087587   T   T   T
  0.2684600206496680  0.5584239989387447  0.6763939631278637   T   T   T
  0.4415748710404920  0.7315400658919716  0.6763915962508795   T   T   T
  0.6665676486119385  0.6665686933998392  0.6786887139314207   T   T   T
  0.7315399784381088  0.4415760001490320  0.6763939631278637   T   T   T
  0.5584251992007927  0.2684599505280741  0.6763915962508795   T   T   T
  0.3334323796670230  0.3334313193713069  0.6786887139314207   T   T   T
 
  0.00000000E+00  0.00000000E+00  0.00000000E+00
  0.00000000E+00  0.00000000E+00  0.00000000E+00
  0.00000000E+00  0.00000000E+00  0.00000000E+00
  0.00000000E+00  0.00000000E+00  0.00000000E+00
  0.00000000E+00  0.00000000E+00  0.00000000E+00
  0.00000000E+00  0.00000000E+00  0.00000000E+00
  0.00000000E+00  0.00000000E+00  0.00000000E+00
  0.00000000E+00  0.00000000E+00  0.00000000E+00
  0.00000000E+00  0.00000000E+00  0.00000000E+00
  0.00000000E+00  0.00000000E+00  0.00000000E+00
  0.00000000E+00  0.00000000E+00  0.00000000E+00
  0.00000000E+00  0.00000000E+00  0.00000000E+00
  0.00000000E+00  0.00000000E+00  0.00000000E+00
  0.00000000E+00  0.00000000E+00  0.00000000E+00
  0.00000000E+00  0.00000000E+00  0.00000000E+00
  0.00000000E+00  0.00000000E+00  0.00000000E+00
  0.00000000E+00  0.00000000E+00  0.00000000E+00
  0.00000000E+00  0.00000000E+00  0.00000000E+00
  0.00000000E+00  0.00000000E+00  0.00000000E+00
  0.00000000E+00  0.00000000E+00  0.00000000E+00
  0.00000000E+00  0.00000000E+00  0.00000000E+00
  0.00000000E+00  0.00000000E+00  0.00000000E+00
  0.00000000E+00  0.00000000E+00  0.00000000E+00
  0.00000000E+00  0.00000000E+00  0.00000000E+00
  0.00000000E+00  0.00000000E+00  0.00000000E+00
  0.00000000E+00  0.00000000E+00  0.00000000E+00
  0.00000000E+00  0.00000000E+00  0.00000000E+00
  0.00000000E+00  0.00000000E+00  0.00000000E+00
  0.00000000E+00  0.00000000E+00  0.00000000E+00
  0.00000000E+00  0.00000000E+00  0.00000000E+00
  0.00000000E+00  0.00000000E+00  0.00000000E+00
  0.00000000E+00  0.00000000E+00  0.00000000E+00
  0.00000000E+00  0.00000000E+00  0.00000000E+00
  0.00000000E+00  0.00000000E+00  0.00000000E+00
  0.00000000E+00  0.00000000E+00  0.00000000E+00
  0.00000000E+00  0.00000000E+00  0.00000000E+00
  0.00000000E+00  0.00000000E+00  0.00000000E+00
  0.00000000E+00  0.00000000E+00  0.00000000E+00
  0.00000000E+00  0.00000000E+00  0.00000000E+00
  0.00000000E+00  0.00000000E+00  0.00000000E+00
  0.00000000E+00  0.00000000E+00  0.00000000E+00
  0.00000000E+00  0.00000000E+00  0.00000000E+00
  0.00000000E+00  0.00000000E+00  0.00000000E+00
  0.00000000E+00  0.00000000E+00  0.00000000E+00
  0.00000000E+00  0.00000000E+00  0.00000000E+00
  0.00000000E+00  0.00000000E+00  0.00000000E+00
  0.00000000E+00  0.00000000E+00  0.00000000E+00
  0.00000000E+00  0.00000000E+00  0.00000000E+00
  0.00000000E+00  0.00000000E+00  0.00000000E+00
  0.00000000E+00  0.00000000E+00  0.00000000E+00
  0.00000000E+00  0.00000000E+00  0.00000000E+00
  0.00000000E+00  0.00000000E+00  0.00000000E+00
  0.00000000E+00  0.00000000E+00  0.00000000E+00
  0.00000000E+00  0.00000000E+00  0.00000000E+00
  0.00000000E+00  0.00000000E+00  0.00000000E+00
  0.00000000E+00  0.00000000E+00  0.00000000E+00
  0.00000000E+00  0.00000000E+00  0.00000000E+00
  0.00000000E+00  0.00000000E+00  0.00000000E+00
  0.00000000E+00  0.00000000E+00  0.00000000E+00
  0.00000000E+00  0.00000000E+00  0.00000000E+00
  0.00000000E+00  0.00000000E+00  0.00000000E+00
  0.00000000E+00  0.00000000E+00  0.00000000E+00
  0.00000000E+00  0.00000000E+00  0.00000000E+00
  0.00000000E+00  0.00000000E+00  0.00000000E+00
  0.00000000E+00  0.00000000E+00  0.00000000E+00
  0.00000000E+00  0.00000000E+00  0.00000000E+00
  0.00000000E+00  0.00000000E+00  0.00000000E+00
  0.00000000E+00  0.00000000E+00  0.00000000E+00
  0.00000000E+00  0.00000000E+00  0.00000000E+00
  0.00000000E+00  0.00000000E+00  0.00000000E+00
  0.00000000E+00  0.00000000E+00  0.00000000E+00
  0.00000000E+00  0.00000000E+00  0.00000000E+00
  0.00000000E+00  0.00000000E+00  0.00000000E+00
  0.00000000E+00  0.00000000E+00  0.00000000E+00
  0.00000000E+00  0.00000000E+00  0.00000000E+00
  0.00000000E+00  0.00000000E+00  0.00000000E+00
