Pt  C  H Cl                             
    1.000000000000000     
    11.2480068000000006    0.0000000000000000    0.0000000000000000
     0.0000000000000000   11.2480068000000006    0.0000000000000000
     0.0000000000000000    0.0000000000000000   23.9651564400000012
   Pt   C    H    Cl
    64     6     2     4
Selective dynamics
Direct
  0.2500000008890453  0.0000000000000000  0.3129543518222917   F   F   F
  0.0000000000000000  0.5000000017780906  0.3129543518222917   F   F   F
  0.2500000008890453  0.2500000008890453  0.3129543518222917   F   F   F
  0.2500000008890453  0.5000000017780906  0.3129543518222917   F   F   F
  0.2500000008890453  0.7500000026671358  0.3129543518222917   F   F   F
  0.5000000017780906  0.0000000000000000  0.3129543518222917   F   F   F
  0.5000000017780906  0.2500000008890453  0.3129543518222917   F   F   F
  0.0000000000000000  0.7500000026671358  0.3129543518222917   F   F   F
  0.5000000017780906  0.5000000017780906  0.3129543518222917   F   F   F
  0.5000000017780906  0.7500000026671358  0.3129543518222917   F   F   F
  0.7500000026671358  0.0000000000000000  0.3129543518222917   F   F   F
  0.7500000026671358  0.2500000008890453  0.3129543518222917   F   F   F
  0.7500000026671358  0.5000000017780906  0.3129543518222917   F   F   F
  0.7500000026671358  0.7500000026671358  0.3129543518222917   F   F   F
  0.0000000000000000  0.0000000000000000  0.3129543518222917   F   F   F
  0.0000000000000000  0.2500000008890453  0.3129543518222917   F   F   F
  0.2500310671407360  0.0001712670139952  0.4782697498056804   T   T   T
  0.2501285938700363  0.2501488470355571  0.4784357306251545   T   T   T
  0.2494285056173334  0.4991150763732408  0.4780480461294479   T   T   T
  0.2496074927688008  0.7503936555564142  0.4778500729193698   T   T   T
  0.5000093965275451 -0.0000319420549546  0.4783487738134024   T   T   T
  0.4991315792252820  0.2494347512923526  0.4780583821654313   T   T   T
  0.5000093448572276  0.4999856983517889  0.4779796570682137   T   T   T
  0.5008682079016833  0.7505670621282592  0.4780598463729731   T   T   T
  0.7499718785686882  0.9998225772243013  0.4782798218972905   T   T   T
  0.7503793653598334  0.2496209277010177  0.4778651192222264   T   T   T
  0.7505582616266600  0.5008609753262276  0.4780627354535716   T   T   T
  0.7498560652445374  0.7498753085022867  0.4784473366625464   T   T   T
  0.0000147577206450 -0.0000191877229635  0.4782261467496494   T   T   T
  0.0001757787456193  0.2500374410455681  0.4782719440093209   T   T   T
  0.0000012433478359  0.4999660622603231  0.4783363760043898   T   T   T
  0.9998259807444618  0.7499747728315065  0.4782666932305963   T   T   T
  0.1249483192461956  0.1249562481894256  0.5601966497190607   T   T   T
  0.1252109640821489  0.3746909492355266  0.5601989074109316   T   T   T
  0.1244323280515103  0.6251349152225087  0.5603010038445116   T   T   T
  0.1249265838432424  0.8750688639963592  0.5600650457790634   T   T   T
  0.3746851673371696  0.1252097117341448  0.5601973355229204   T   T   T
  0.3749643816545133  0.3749784318780580  0.5614701627106001   T   T   T
  0.3746925116009514  0.6252845011567376  0.5580208316903381   T   T   T
  0.3748494155587808  0.8755687751730776  0.5603090281216414   T   T   T
  0.6251184139545201  0.1244362930283910  0.5603181093630807   T   T   T
  0.6252743560021008  0.3747066951447884  0.5580268236850918   T   T   T
  0.6250110112280625  0.6250202845171656  0.5614829254238620   T   T   T
  0.6252938603546538  0.8747985323151675  0.5602213579450434   T   T   T
  0.8750887746535512  0.1249314744025083  0.5600723879119563   T   T   T
  0.8755853288023043  0.3748696024357531  0.5603031410095314   T   T   T
  0.8748099563615078  0.6253081658682783  0.5602009361776705   T   T   T
  0.8750721269502375  0.8750584953873914  0.5602015995907530   T   T   T
  0.1250000008890453  0.1250000000000000  0.3959242036977884   F   F   F
  0.1250000008890453  0.3750000008890453  0.3959242036977884   F   F   F
  0.1250000008890453  0.6250000026671358  0.3959242036977884   F   F   F
  0.1250000008890453  0.8750000026671358  0.3959242036977884   F   F   F
  0.3750000017780906  0.1250000000000000  0.3959242036977884   F   F   F
  0.3750000017780906  0.3750000008890453  0.3959242036977884   F   F   F
  0.3750000017780906  0.6250000026671358  0.3959242036977884   F   F   F
  0.3750000017780906  0.8750000026671358  0.3959242036977884   F   F   F
  0.6250000026671358  0.1250000000000000  0.3959242036977884   F   F   F
  0.6250000026671358  0.3750000008890453  0.3959242036977884   F   F   F
  0.6250000026671358  0.6250000026671358  0.3959242036977884   F   F   F
  0.6250000026671358  0.8750000026671358  0.3959242036977884   F   F   F
  0.8750000035561882  0.1250000000000000  0.3959242036977884   F   F   F
  0.8750000026671358  0.3750000008890453  0.3959242036977884   F   F   F
  0.8750000035561882  0.6250000026671358  0.3959242036977884   F   F   F
  0.8750000035561882  0.8750000026671358  0.3959242036977884   F   F   F
  0.4120351137708192  0.4120224401149321  0.6821081166336143   T   T   T
  0.3792283316588240  0.5323423034244139  0.6843738347205683   T   T   T
  0.4676309342380232  0.6207711350241744  0.6843730164573669   T   T   T
  0.5879815663173494  0.5879871856918711  0.6820899825446890   T   T   T
  0.6207909300707412  0.4676471428292867  0.6843519487091443   T   T   T
  0.5323706116310555  0.3792318330538059  0.6843669840395363   T   T   T
  0.3435884164653839  0.3436125128071375  0.6843165285444786   T   T   T
  0.6564308365193846  0.6564333888375213  0.6843028607720368   T   T   T
  0.2311027569429435  0.5677166008781808  0.6893816261467516   T   T   T
  0.4321222934221642  0.7689082147234093  0.6894254474454845   T   T   T
  0.7689569247460761  0.4322548683790695  0.6893208612155942   T   T   T
  0.5678712808807769  0.2311009963913221  0.6893822441576475   T   T   T
 
  0.00000000E+00  0.00000000E+00  0.00000000E+00
  0.00000000E+00  0.00000000E+00  0.00000000E+00
  0.00000000E+00  0.00000000E+00  0.00000000E+00
  0.00000000E+00  0.00000000E+00  0.00000000E+00
  0.00000000E+00  0.00000000E+00  0.00000000E+00
  0.00000000E+00  0.00000000E+00  0.00000000E+00
  0.00000000E+00  0.00000000E+00  0.00000000E+00
  0.00000000E+00  0.00000000E+00  0.00000000E+00
  0.00000000E+00  0.00000000E+00  0.00000000E+00
  0.00000000E+00  0.00000000E+00  0.00000000E+00
  0.00000000E+00  0.00000000E+00  0.00000000E+00
  0.00000000E+00  0.00000000E+00  0.00000000E+00
  0.00000000E+00  0.00000000E+00  0.00000000E+00
  0.00000000E+00  0.00000000E+00  0.00000000E+00
  0.00000000E+00  0.00000000E+00  0.00000000E+00
  0.00000000E+00  0.00000000E+00  0.00000000E+00
  0.00000000E+00  0.00000000E+00  0.00000000E+00
  0.00000000E+00  0.00000000E+00  0.00000000E+00
  0.00000000E+00  0.00000000E+00  0.00000000E+00
  0.00000000E+00  0.00000000E+00  0.00000000E+00
  0.00000000E+00  0.00000000E+00  0.00000000E+00
  0.00000000E+00  0.00000000E+00  0.00000000E+00
  0.00000000E+00  0.00000000E+00  0.00000000E+00
  0.00000000E+00  0.00000000E+00  0.00000000E+00
  0.00000000E+00  0.00000000E+00  0.00000000E+00
  0.00000000E+00  0.00000000E+00  0.00000000E+00
  0.00000000E+00  0.00000000E+00  0.00000000E+00
  0.00000000E+00  0.00000000E+00  0.00000000E+00
  0.00000000E+00  0.00000000E+00  0.00000000E+00
  0.00000000E+00  0.00000000E+00  0.00000000E+00
  0.00000000E+00  0.00000000E+00  0.00000000E+00
  0.00000000E+00  0.00000000E+00  0.00000000E+00
  0.00000000E+00  0.00000000E+00  0.00000000E+00
  0.00000000E+00  0.00000000E+00  0.00000000E+00
  0.00000000E+00  0.00000000E+00  0.00000000E+00
  0.00000000E+00  0.00000000E+00  0.00000000E+00
  0.00000000E+00  0.00000000E+00  0.00000000E+00
  0.00000000E+00  0.00000000E+00  0.00000000E+00
  0.00000000E+00  0.00000000E+00  0.00000000E+00
  0.00000000E+00  0.00000000E+00  0.00000000E+00
  0.00000000E+00  0.00000000E+00  0.00000000E+00
  0.00000000E+00  0.00000000E+00  0.00000000E+00
  0.00000000E+00  0.00000000E+00  0.00000000E+00
  0.00000000E+00  0.00000000E+00  0.00000000E+00
  0.00000000E+00  0.00000000E+00  0.00000000E+00
  0.00000000E+00  0.00000000E+00  0.00000000E+00
  0.00000000E+00  0.00000000E+00  0.00000000E+00
  0.00000000E+00  0.00000000E+00  0.00000000E+00
  0.00000000E+00  0.00000000E+00  0.00000000E+00
  0.00000000E+00  0.00000000E+00  0.00000000E+00
  0.00000000E+00  0.00000000E+00  0.00000000E+00
  0.00000000E+00  0.00000000E+00  0.00000000E+00
  0.00000000E+00  0.00000000E+00  0.00000000E+00
  0.00000000E+00  0.00000000E+00  0.00000000E+00
  0.00000000E+00  0.00000000E+00  0.00000000E+00
  0.00000000E+00  0.00000000E+00  0.00000000E+00
  0.00000000E+00  0.00000000E+00  0.00000000E+00
  0.00000000E+00  0.00000000E+00  0.00000000E+00
  0.00000000E+00  0.00000000E+00  0.00000000E+00
  0.00000000E+00  0.00000000E+00  0.00000000E+00
  0.00000000E+00  0.00000000E+00  0.00000000E+00
  0.00000000E+00  0.00000000E+00  0.00000000E+00
  0.00000000E+00  0.00000000E+00  0.00000000E+00
  0.00000000E+00  0.00000000E+00  0.00000000E+00
  0.00000000E+00  0.00000000E+00  0.00000000E+00
  0.00000000E+00  0.00000000E+00  0.00000000E+00
  0.00000000E+00  0.00000000E+00  0.00000000E+00
  0.00000000E+00  0.00000000E+00  0.00000000E+00
  0.00000000E+00  0.00000000E+00  0.00000000E+00
  0.00000000E+00  0.00000000E+00  0.00000000E+00
  0.00000000E+00  0.00000000E+00  0.00000000E+00
  0.00000000E+00  0.00000000E+00  0.00000000E+00
  0.00000000E+00  0.00000000E+00  0.00000000E+00
  0.00000000E+00  0.00000000E+00  0.00000000E+00
  0.00000000E+00  0.00000000E+00  0.00000000E+00
  0.00000000E+00  0.00000000E+00  0.00000000E+00
