Pt48 C6 Cl6                             
    1.000000000000000     
    11.2480069999999994    0.0000000000000000    0.0000000000000000
    -5.6240030000000001    9.7410599999999992    0.0000000000000000
     0.0000000000000000    0.0000000000000000   16.5931210000000000
   Pt   C    Cl
    48     6     6
Selective dynamics
Direct
  0.0833330000000032  0.1666669999999968  0.3615959999999987   F   F   F
  0.0833330000000032  0.4166669999999968  0.3615959999999987   F   F   F
  0.0833330000000032  0.6666669999999968  0.3615959999999987   F   F   F
  0.0833330000000032  0.9166669999999968  0.3615959999999987   F   F   F
  0.3333330000000032  0.1666669999999968  0.3615959999999987   F   F   F
  0.3333330000000032  0.4166669999999968  0.3615959999999987   F   F   F
  0.3333330000000032  0.6666669999999968  0.3615959999999987   F   F   F
  0.3333330000000032  0.9166669999999968  0.3615959999999987   F   F   F
  0.5833330000000032  0.1666669999999968  0.3615959999999987   F   F   F
  0.5833330000000032  0.4166669999999968  0.3615959999999987   F   F   F
  0.5833330000000032  0.6666669999999968  0.3615959999999987   F   F   F
  0.5833330000000032  0.9166669999999968  0.3615959999999987   F   F   F
  0.8333330000000032  0.1666669999999968  0.3615959999999987   F   F   F
  0.8333330000000032  0.4166669999999968  0.3615959999999987   F   F   F
  0.8333330000000032  0.6666669999999968  0.3615959999999987   F   F   F
  0.8333330000000032  0.9166669999999968  0.3615959999999987   F   F   F
  0.2444837396557986  0.2459501126875452  0.6389777752464241   T   T   T
  0.2410596342009228  0.4986290306869989  0.6395315900640099   T   T   T
  0.2503509302994402  0.7506554271018260  0.6427160519277493   T   T   T
  0.2503008727803291  0.9997017325595081  0.6410141528963464   T   T   T
  0.4967353450618006  0.2423378018502405  0.6393961973225188   T   T   T
  0.4915110759766463  0.4944799731989349  0.6472925750239682   T   T   T
  0.4985953039961117  0.7514089870545249  0.6505545203789538   T   T   T
  0.4993413567275695  0.9996452488843346  0.6427018493225702   T   T   T
  0.7492490152896210  0.2521996470688634  0.6425531620168954   T   T   T
  0.7485460748970212  0.5014425782928313  0.6496243320140280   T   T   T
  0.7555208500578203  0.7584892485999646  0.6472884977539550   T   T   T
  0.7513700160018075  0.0089370566574303  0.6395290575479393   T   T   T
  0.9979151099515704  0.2520967839414041  0.6409809064471972   T   T   T
  0.9978001394895344  0.5007466760445922  0.6425694562539448   T   T   T
  0.0076575944484674  0.7532634935912057  0.6394185545353963   T   T   T
  0.0040484736468329  0.0055174099014508  0.6389875381242973   T   T   T
  0.1678338433206008  0.0821760652900494  0.4989127728885308   T   T   T
  0.1665710053027709  0.3332172033665373  0.4998904173353580   T   T   T
  0.1657465435896910  0.5838457062939426  0.5004990472867163   T   T   T
  0.1677599706740622  0.8327589517667491  0.4998447207456280   T   T   T
  0.4172355393178151  0.0822326819775512  0.4998317647857675   T   T   T
  0.4178253021742293  0.3355049740207647  0.5027326876918039   T   T   T
  0.4174291547655855  0.5838045851405127  0.5044964339867377   T   T   T
  0.4186792127704635  0.8313019311810450  0.5046857122832904   T   T   T
  0.6661490620921455  0.0842537364961657  0.5004852541356115   T   T   T
  0.6670222178430834  0.3358829261468657  0.5033920679793980   T   T   T
  0.6664100234781145  0.5835791824334677  0.5047958554755212   T   T   T
  0.6661897323956865  0.8325578999831365  0.5044953009464379   T   T   T
  0.9167885341391582  0.0834348483073910  0.4998937068483968   T   T   T
  0.9159017465385801  0.3341122056466830  0.5009684952813060   T   T   T
  0.9141181811553096  0.5829722007886957  0.5034046627568785   T   T   T
  0.9144978347909500  0.8321686189368336  0.5027419400811013   T   T   T
  0.6987760794414655  0.7747371614592851  0.7681772743872699   T   T   T
  0.7738204120120855  0.6999326119631561  0.7677393039001430   T   T   T
  0.7055179784747025  0.5445220238407700  0.7663308399443594   T   T   T
  0.5500022474106032  0.4761970229173045  0.7677413815528880   T   T   T
  0.4753147450973856  0.5512161876633996  0.7681651920487766   T   T   T
  0.5433246796066982  0.7066948036252327  0.7669258936142853   T   T   T
  0.7830129699406285  0.9408761476872414  0.8075162038504828   T   T   T
  0.9401910895723233  0.7837256671313639  0.8066553781232315   T   T   T
  0.7704790789149669  0.4795107214299392  0.8408898534290614   T   T   T
  0.4662598483823075  0.3098244112444490  0.8066607728583648   T   T   T
  0.3091211666473441  0.4670129171821529  0.8074897522345452   T   T   T
  0.4787368037432387  0.7712783773666985  0.8420278501685416   T   T   T
 
  0.00000000E+00  0.00000000E+00  0.00000000E+00
  0.00000000E+00  0.00000000E+00  0.00000000E+00
  0.00000000E+00  0.00000000E+00  0.00000000E+00
  0.00000000E+00  0.00000000E+00  0.00000000E+00
  0.00000000E+00  0.00000000E+00  0.00000000E+00
  0.00000000E+00  0.00000000E+00  0.00000000E+00
  0.00000000E+00  0.00000000E+00  0.00000000E+00
  0.00000000E+00  0.00000000E+00  0.00000000E+00
  0.00000000E+00  0.00000000E+00  0.00000000E+00
  0.00000000E+00  0.00000000E+00  0.00000000E+00
  0.00000000E+00  0.00000000E+00  0.00000000E+00
  0.00000000E+00  0.00000000E+00  0.00000000E+00
  0.00000000E+00  0.00000000E+00  0.00000000E+00
  0.00000000E+00  0.00000000E+00  0.00000000E+00
  0.00000000E+00  0.00000000E+00  0.00000000E+00
  0.00000000E+00  0.00000000E+00  0.00000000E+00
  0.00000000E+00  0.00000000E+00  0.00000000E+00
  0.00000000E+00  0.00000000E+00  0.00000000E+00
  0.00000000E+00  0.00000000E+00  0.00000000E+00
  0.00000000E+00  0.00000000E+00  0.00000000E+00
  0.00000000E+00  0.00000000E+00  0.00000000E+00
  0.00000000E+00  0.00000000E+00  0.00000000E+00
  0.00000000E+00  0.00000000E+00  0.00000000E+00
  0.00000000E+00  0.00000000E+00  0.00000000E+00
  0.00000000E+00  0.00000000E+00  0.00000000E+00
  0.00000000E+00  0.00000000E+00  0.00000000E+00
  0.00000000E+00  0.00000000E+00  0.00000000E+00
  0.00000000E+00  0.00000000E+00  0.00000000E+00
  0.00000000E+00  0.00000000E+00  0.00000000E+00
  0.00000000E+00  0.00000000E+00  0.00000000E+00
  0.00000000E+00  0.00000000E+00  0.00000000E+00
  0.00000000E+00  0.00000000E+00  0.00000000E+00
  0.00000000E+00  0.00000000E+00  0.00000000E+00
  0.00000000E+00  0.00000000E+00  0.00000000E+00
  0.00000000E+00  0.00000000E+00  0.00000000E+00
  0.00000000E+00  0.00000000E+00  0.00000000E+00
  0.00000000E+00  0.00000000E+00  0.00000000E+00
  0.00000000E+00  0.00000000E+00  0.00000000E+00
  0.00000000E+00  0.00000000E+00  0.00000000E+00
  0.00000000E+00  0.00000000E+00  0.00000000E+00
  0.00000000E+00  0.00000000E+00  0.00000000E+00
  0.00000000E+00  0.00000000E+00  0.00000000E+00
  0.00000000E+00  0.00000000E+00  0.00000000E+00
  0.00000000E+00  0.00000000E+00  0.00000000E+00
  0.00000000E+00  0.00000000E+00  0.00000000E+00
  0.00000000E+00  0.00000000E+00  0.00000000E+00
  0.00000000E+00  0.00000000E+00  0.00000000E+00
  0.00000000E+00  0.00000000E+00  0.00000000E+00
  0.00000000E+00  0.00000000E+00  0.00000000E+00
  0.00000000E+00  0.00000000E+00  0.00000000E+00
  0.00000000E+00  0.00000000E+00  0.00000000E+00
  0.00000000E+00  0.00000000E+00  0.00000000E+00
  0.00000000E+00  0.00000000E+00  0.00000000E+00
  0.00000000E+00  0.00000000E+00  0.00000000E+00
  0.00000000E+00  0.00000000E+00  0.00000000E+00
  0.00000000E+00  0.00000000E+00  0.00000000E+00
  0.00000000E+00  0.00000000E+00  0.00000000E+00
  0.00000000E+00  0.00000000E+00  0.00000000E+00
  0.00000000E+00  0.00000000E+00  0.00000000E+00
  0.00000000E+00  0.00000000E+00  0.00000000E+00
