Au  C  H  F                             
    1.000000000000000     
    11.7981856999999994    0.0000000000000000    0.0000000000000000
     0.0000000000000000   16.6851543000000007    0.0000000000000000
     0.0000000000000000    0.0000000000000000   22.4243196299999994
   Au   C    H    F 
    64     6     4     2
Selective dynamics
Direct
  0.0000000016951773  0.2499999991010000  0.3344583079330619   F   F   F
  0.7500000012713812  0.7499999979023286  0.3344583079330619   F   F   F
  0.0000000016951773  0.4999999988013286  0.3344583079330619   F   F   F
  0.0000000016951773  0.7499999979023286  0.3344583079330619   F   F   F
  0.0000000016951773  0.0000000000000000  0.3344583079330619   F   F   F
  0.2500000004237961  0.2499999991010000  0.3344583079330619   F   F   F
  0.2500000004237961  0.4999999988013286  0.3344583079330619   F   F   F
  0.7500000012713812  0.0000000000000000  0.3344583079330619   F   F   F
  0.2500000004237961  0.7499999979023286  0.3344583079330619   F   F   F
  0.2500000004237961  0.0000000000000000  0.3344583079330619   F   F   F
  0.5000000008475851  0.2499999991010000  0.3344583079330619   F   F   F
  0.5000000008475851  0.4999999988013286  0.3344583079330619   F   F   F
  0.5000000008475851  0.7499999979023286  0.3344583079330619   F   F   F
  0.5000000008475851  0.0000000000000000  0.3344583079330619   F   F   F
  0.7500000012713812  0.2499999991010000  0.3344583079330619   F   F   F
  0.7500000012713812  0.4999999988013286  0.3344583079330619   F   F   F
 -0.0000733777109641  0.2499683839863696  0.4700073183887697   T   T   T
  0.0000730863565322  0.4999985084020113  0.4700225367087518   T   T   T
  0.0002134161087005  0.7500003392694959  0.4699881780785036   T   T   T
 -0.0008552207329454 -0.0000415512978276  0.4702037188768192   T   T   T
  0.2492283421374806  0.2499127988872686  0.4702091592655737   T   T   T
  0.2501755127781066  0.4999845536135324  0.4700168495318527   T   T   T
  0.2508584275664295  0.7499349019408239  0.4702277583892168   T   T   T
  0.2491469569345178 -0.0000680761445034  0.4702050213521112   T   T   T
  0.4992165022291785  0.2498999258958687  0.4701845327185071   T   T   T
  0.5012640083401079  0.5000173766999705  0.4698211899140360   T   T   T
  0.5008163411389881  0.7499609440359477  0.4702174242297499   T   T   T
  0.4998023165536272 -0.0000272577733113  0.4700008688438396   T   T   T
  0.7495946941489683  0.2504728121352809  0.4705974469336923   T   T   T
  0.7509111565377378  0.4999834066464369  0.4701990180868343   T   T   T
  0.7508285567755104  0.7500890958312036  0.4702106646222070   T   T   T
  0.7492179358797959 -0.0000085031609799  0.4701876250317015   T   T   T
  0.1249937754005032  0.1249833876619753  0.5286871732197100   T   T   T
  0.1242440764772033  0.3748221138154778  0.5286489177670238   T   T   T
  0.1250548923914806  0.6249958740290070  0.5287220904899289   T   T   T
  0.1242776233877101  0.8746586514447886  0.5286922024244491   T   T   T
  0.3756996010572874  0.1246481100457828  0.5286838517850836   T   T   T
  0.3756883758742548  0.3750702951457996  0.5275906452918532   T   T   T
  0.3750337607309258  0.6248424100962864  0.5287098577675705   T   T   T
  0.3749889750751165  0.8750182197125437  0.5286828987511105   T   T   T
  0.6250073033725917  0.1250187579679804  0.5286913363099320   T   T   T
  0.6250470513423017  0.3751337369682477  0.5287434687887187   T   T   T
  0.6260611748201057  0.6249049547349806  0.5276629795458166   T   T   T
  0.6249972921686981  0.8749961038908551  0.5287065798712790   T   T   T
  0.8749573666353886  0.1250291939283419  0.5286998212137020   T   T   T
  0.8750136232436020  0.3750004072306498  0.5287512173502015   T   T   T
  0.8759122651611295  0.6252177023691993  0.5286971344940077   T   T   T
  0.8749550766960141  0.8749876196584255  0.5287044001614644   T   T   T
  0.1250000006356942  0.1249999995504965  0.4002249949199452   F   F   F
  0.1250000006356942  0.3749999992508322  0.4002249949199452   F   F   F
  0.1250000006356942  0.6249999983518251  0.4002249949199452   F   F   F
  0.1250000006356942  0.8749999974528251  0.4002249949199452   F   F   F
  0.3750000002118981  0.1249999995504965  0.4002249949199452   F   F   F
  0.3750000002118981  0.3749999992508322  0.4002249949199452   F   F   F
  0.3750000010594832  0.6249999983518251  0.4002249949199452   F   F   F
  0.3750000010594832  0.8749999974528251  0.4002249949199452   F   F   F
  0.6250000006356942  0.1249999995504965  0.4002249949199452   F   F   F
  0.6250000006356942  0.3749999992508322  0.4002249949199452   F   F   F
  0.6250000014832793  0.6249999983518251  0.4002249949199452   F   F   F
  0.6250000006356942  0.8749999974528251  0.4002249949199452   F   F   F
  0.8750000010594832  0.1249999995504965  0.4002249949199452   F   F   F
  0.8750000010594832  0.3749999992508322  0.4002249949199452   F   F   F
  0.8750000019070754  0.6249999983518251  0.4002249949199452   F   F   F
  0.8750000010594832  0.8749999974528251  0.4002249949199452   F   F   F
  0.5669907195522176  0.5666932426487474  0.6633524022482893   T   T   T
  0.6187575283729755  0.4919163839356124  0.6624612046636480   T   T   T
  0.5501771666773611  0.4234955585746684  0.6624190972095511   T   T   T
  0.4328378365447475  0.4332635922427749  0.6633948429496652   T   T   T
  0.3810862464311353  0.5080485981985556  0.6624768325808186   T   T   T
  0.4496711518589175  0.5764639037274367  0.6623783626888246   T   T   T
  0.7108952509539684  0.4872912821902731  0.6623697206783929   T   T   T
  0.5867092177351110  0.3635116320903660  0.6637557412399351   T   T   T
  0.2889484679997627  0.5126745288954757  0.6624004221920454   T   T   T
  0.4131455745860105  0.6364630746023936  0.6637083865561297   T   T   T
  0.6337485847202404  0.6334980995111007  0.6662475167284410   T   T   T
  0.3660886017836568  0.3664614982023080  0.6663324534435917   T   T   T
 
  0.00000000E+00  0.00000000E+00  0.00000000E+00
  0.00000000E+00  0.00000000E+00  0.00000000E+00
  0.00000000E+00  0.00000000E+00  0.00000000E+00
  0.00000000E+00  0.00000000E+00  0.00000000E+00
  0.00000000E+00  0.00000000E+00  0.00000000E+00
  0.00000000E+00  0.00000000E+00  0.00000000E+00
  0.00000000E+00  0.00000000E+00  0.00000000E+00
  0.00000000E+00  0.00000000E+00  0.00000000E+00
  0.00000000E+00  0.00000000E+00  0.00000000E+00
  0.00000000E+00  0.00000000E+00  0.00000000E+00
  0.00000000E+00  0.00000000E+00  0.00000000E+00
  0.00000000E+00  0.00000000E+00  0.00000000E+00
  0.00000000E+00  0.00000000E+00  0.00000000E+00
  0.00000000E+00  0.00000000E+00  0.00000000E+00
  0.00000000E+00  0.00000000E+00  0.00000000E+00
  0.00000000E+00  0.00000000E+00  0.00000000E+00
  0.00000000E+00  0.00000000E+00  0.00000000E+00
  0.00000000E+00  0.00000000E+00  0.00000000E+00
  0.00000000E+00  0.00000000E+00  0.00000000E+00
  0.00000000E+00  0.00000000E+00  0.00000000E+00
  0.00000000E+00  0.00000000E+00  0.00000000E+00
  0.00000000E+00  0.00000000E+00  0.00000000E+00
  0.00000000E+00  0.00000000E+00  0.00000000E+00
  0.00000000E+00  0.00000000E+00  0.00000000E+00
  0.00000000E+00  0.00000000E+00  0.00000000E+00
  0.00000000E+00  0.00000000E+00  0.00000000E+00
  0.00000000E+00  0.00000000E+00  0.00000000E+00
  0.00000000E+00  0.00000000E+00  0.00000000E+00
  0.00000000E+00  0.00000000E+00  0.00000000E+00
  0.00000000E+00  0.00000000E+00  0.00000000E+00
  0.00000000E+00  0.00000000E+00  0.00000000E+00
  0.00000000E+00  0.00000000E+00  0.00000000E+00
  0.00000000E+00  0.00000000E+00  0.00000000E+00
  0.00000000E+00  0.00000000E+00  0.00000000E+00
  0.00000000E+00  0.00000000E+00  0.00000000E+00
  0.00000000E+00  0.00000000E+00  0.00000000E+00
  0.00000000E+00  0.00000000E+00  0.00000000E+00
  0.00000000E+00  0.00000000E+00  0.00000000E+00
  0.00000000E+00  0.00000000E+00  0.00000000E+00
  0.00000000E+00  0.00000000E+00  0.00000000E+00
  0.00000000E+00  0.00000000E+00  0.00000000E+00
  0.00000000E+00  0.00000000E+00  0.00000000E+00
  0.00000000E+00  0.00000000E+00  0.00000000E+00
  0.00000000E+00  0.00000000E+00  0.00000000E+00
  0.00000000E+00  0.00000000E+00  0.00000000E+00
  0.00000000E+00  0.00000000E+00  0.00000000E+00
  0.00000000E+00  0.00000000E+00  0.00000000E+00
  0.00000000E+00  0.00000000E+00  0.00000000E+00
  0.00000000E+00  0.00000000E+00  0.00000000E+00
  0.00000000E+00  0.00000000E+00  0.00000000E+00
  0.00000000E+00  0.00000000E+00  0.00000000E+00
  0.00000000E+00  0.00000000E+00  0.00000000E+00
  0.00000000E+00  0.00000000E+00  0.00000000E+00
  0.00000000E+00  0.00000000E+00  0.00000000E+00
  0.00000000E+00  0.00000000E+00  0.00000000E+00
  0.00000000E+00  0.00000000E+00  0.00000000E+00
  0.00000000E+00  0.00000000E+00  0.00000000E+00
  0.00000000E+00  0.00000000E+00  0.00000000E+00
  0.00000000E+00  0.00000000E+00  0.00000000E+00
  0.00000000E+00  0.00000000E+00  0.00000000E+00
  0.00000000E+00  0.00000000E+00  0.00000000E+00
  0.00000000E+00  0.00000000E+00  0.00000000E+00
  0.00000000E+00  0.00000000E+00  0.00000000E+00
  0.00000000E+00  0.00000000E+00  0.00000000E+00
  0.00000000E+00  0.00000000E+00  0.00000000E+00
  0.00000000E+00  0.00000000E+00  0.00000000E+00
  0.00000000E+00  0.00000000E+00  0.00000000E+00
  0.00000000E+00  0.00000000E+00  0.00000000E+00
  0.00000000E+00  0.00000000E+00  0.00000000E+00
  0.00000000E+00  0.00000000E+00  0.00000000E+00
  0.00000000E+00  0.00000000E+00  0.00000000E+00
  0.00000000E+00  0.00000000E+00  0.00000000E+00
  0.00000000E+00  0.00000000E+00  0.00000000E+00
  0.00000000E+00  0.00000000E+00  0.00000000E+00
  0.00000000E+00  0.00000000E+00  0.00000000E+00
  0.00000000E+00  0.00000000E+00  0.00000000E+00
