Au48 C4 N2 Br4                          
    1.000000000000000     
    11.7981856999999994    0.0000000000000000    0.0000000000000000
     0.0000000000000000   16.6851543000000007    0.0000000000000000
     0.0000000000000000    0.0000000000000000   15.8893076700000009
   Au   C    N    Br
    48     4     2     4
Selective dynamics
Direct
  0.0000727649812475  0.2500870951595573  0.4056628393028063   T   T   T
  0.9999995301090863  0.4999998039568396  0.4056401862190029   T   T   T
  0.9999253869580471  0.7499118517202561  0.4056610956622677   T   T   T
  0.9999986397912295  0.0000012623964736  0.4056492455775711   T   T   T
  0.2498625292832060  0.2500292298683959  0.4057432311499056   T   T   T
  0.2498105105912103  0.4998949757491076  0.4053868763737967   T   T   T
  0.2495462936464250  0.7502487169873007  0.4051352155567045   T   T   T
  0.2500415378854655  0.0000310935914101  0.4056357326034572   T   T   T
  0.4996928029698111  0.2497688875441071  0.4052108854365173   T   T   T
  0.5000003741385513  0.5000001040693149  0.4066010667275179   T   T   T
  0.5003080184777104  0.7502306340574734  0.4052108100942391   T   T   T
  0.5000004589946059  0.0000004164229992  0.4055331184190507   T   T   T
  0.7504550437363093  0.2497505040969727  0.4051359182585443   T   T   T
  0.7501897137240618  0.5001048755438688  0.4053848082567413   T   T   T
  0.7501370959544218  0.7499701318450960  0.4057421001506896   T   T   T
  0.7499593479931193  0.9999705817224864  0.4056374292354121   T   T   T
  0.1250284435809590  0.1249321605754758  0.4964660075285963   T   T   T
  0.1247694548160041  0.3752103673172016  0.4971844213045244   T   T   T
  0.1237570848182088  0.6249416282479032  0.4968831027977600   T   T   T
  0.1252763077884964  0.8749316351535796  0.4965686599659236   T   T   T
  0.3752635053917430  0.1251312448798885  0.4965790530687642   T   T   T
  0.3739722017473568  0.3749075517196445  0.4964606069351944   T   T   T
  0.3740095378294370  0.6250413889636732  0.4943954249080917   T   T   T
  0.3750315966248010  0.8748101371150625  0.4966816516952690   T   T   T
  0.6249734112838112  0.1251896570831050  0.4966797475609468   T   T   T
  0.6259904643456196  0.3749593847883759  0.4943951956423192   T   T   T
  0.6260274929362311  0.6250924277753924  0.4964601051480173   T   T   T
  0.6247372920840917  0.8748686050535639  0.4965790124170226   T   T   T
  0.8747232248445869  0.1250683844038321  0.4965615329721160   T   T   T
  0.8762431027225972  0.3750591097780571  0.4968819069496462   T   T   T
  0.8752301745835069  0.6247894164972934  0.4971841774360257   T   T   T
  0.8749664771107390  0.8750672842633165  0.4964664518555466   T   T   T
  0.1250000006356942  0.1249999995504965  0.3146770207892899   F   F   F
  0.1250000006356942  0.3749999992508322  0.3146770207892899   F   F   F
  0.1250000006356942  0.6249999983518251  0.3146770207892899   F   F   F
  0.1250000006356942  0.8749999974528251  0.3146770207892899   F   F   F
  0.3750000002118981  0.1249999995504965  0.3146770207892899   F   F   F
  0.3750000002118981  0.3749999992508322  0.3146770207892899   F   F   F
  0.3750000010594832  0.6249999983518251  0.3146770207892899   F   F   F
  0.3750000010594832  0.8749999974528251  0.3146770207892899   F   F   F
  0.6250000006356942  0.1249999995504965  0.3146770207892899   F   F   F
  0.6250000006356942  0.3749999992508322  0.3146770207892899   F   F   F
  0.6250000014832793  0.6249999983518251  0.3146770207892899   F   F   F
  0.6250000006356942  0.8749999974528251  0.3146770207892899   F   F   F
  0.8750000010594832  0.1249999995504965  0.3146770207892899   F   F   F
  0.8750000010594832  0.3749999992508322  0.3146770207892899   F   F   F
  0.8750000019070754  0.6249999983518251  0.3146770207892899   F   F   F
  0.8750000010594832  0.8749999974528251  0.3146770207892899   F   F   F
  0.5447971014211532  0.4260416026084783  0.6864025094265003   T   T   T
  0.6142195579891663  0.4949272234126170  0.6860512751809793   T   T   T
  0.4552073760772331  0.5739598279247531  0.6864027678424094   T   T   T
  0.3857861084266787  0.5050749905524796  0.6860509127317016   T   T   T
  0.5669056204794316  0.5669150123740678  0.6853291511711177   T   T   T
  0.4330989293498604  0.4330862424964863  0.6853284857828825   T   T   T
  0.2258287089699209  0.5100378461269983  0.6838217791344974   T   T   T
  0.3949956527421818  0.6793864095668383  0.6855054558249236   T   T   T
  0.6050072179649248  0.3206148339070936  0.6855084676467982   T   T   T
  0.7741765253597279  0.4899647216616430  0.6838222257228495   T   T   T
 
  0.00000000E+00  0.00000000E+00  0.00000000E+00
  0.00000000E+00  0.00000000E+00  0.00000000E+00
  0.00000000E+00  0.00000000E+00  0.00000000E+00
  0.00000000E+00  0.00000000E+00  0.00000000E+00
  0.00000000E+00  0.00000000E+00  0.00000000E+00
  0.00000000E+00  0.00000000E+00  0.00000000E+00
  0.00000000E+00  0.00000000E+00  0.00000000E+00
  0.00000000E+00  0.00000000E+00  0.00000000E+00
  0.00000000E+00  0.00000000E+00  0.00000000E+00
  0.00000000E+00  0.00000000E+00  0.00000000E+00
  0.00000000E+00  0.00000000E+00  0.00000000E+00
  0.00000000E+00  0.00000000E+00  0.00000000E+00
  0.00000000E+00  0.00000000E+00  0.00000000E+00
  0.00000000E+00  0.00000000E+00  0.00000000E+00
  0.00000000E+00  0.00000000E+00  0.00000000E+00
  0.00000000E+00  0.00000000E+00  0.00000000E+00
  0.00000000E+00  0.00000000E+00  0.00000000E+00
  0.00000000E+00  0.00000000E+00  0.00000000E+00
  0.00000000E+00  0.00000000E+00  0.00000000E+00
  0.00000000E+00  0.00000000E+00  0.00000000E+00
  0.00000000E+00  0.00000000E+00  0.00000000E+00
  0.00000000E+00  0.00000000E+00  0.00000000E+00
  0.00000000E+00  0.00000000E+00  0.00000000E+00
  0.00000000E+00  0.00000000E+00  0.00000000E+00
  0.00000000E+00  0.00000000E+00  0.00000000E+00
  0.00000000E+00  0.00000000E+00  0.00000000E+00
  0.00000000E+00  0.00000000E+00  0.00000000E+00
  0.00000000E+00  0.00000000E+00  0.00000000E+00
  0.00000000E+00  0.00000000E+00  0.00000000E+00
  0.00000000E+00  0.00000000E+00  0.00000000E+00
  0.00000000E+00  0.00000000E+00  0.00000000E+00
  0.00000000E+00  0.00000000E+00  0.00000000E+00
  0.00000000E+00  0.00000000E+00  0.00000000E+00
  0.00000000E+00  0.00000000E+00  0.00000000E+00
  0.00000000E+00  0.00000000E+00  0.00000000E+00
  0.00000000E+00  0.00000000E+00  0.00000000E+00
  0.00000000E+00  0.00000000E+00  0.00000000E+00
  0.00000000E+00  0.00000000E+00  0.00000000E+00
  0.00000000E+00  0.00000000E+00  0.00000000E+00
  0.00000000E+00  0.00000000E+00  0.00000000E+00
  0.00000000E+00  0.00000000E+00  0.00000000E+00
  0.00000000E+00  0.00000000E+00  0.00000000E+00
  0.00000000E+00  0.00000000E+00  0.00000000E+00
  0.00000000E+00  0.00000000E+00  0.00000000E+00
  0.00000000E+00  0.00000000E+00  0.00000000E+00
  0.00000000E+00  0.00000000E+00  0.00000000E+00
  0.00000000E+00  0.00000000E+00  0.00000000E+00
  0.00000000E+00  0.00000000E+00  0.00000000E+00
  0.00000000E+00  0.00000000E+00  0.00000000E+00
  0.00000000E+00  0.00000000E+00  0.00000000E+00
  0.00000000E+00  0.00000000E+00  0.00000000E+00
  0.00000000E+00  0.00000000E+00  0.00000000E+00
  0.00000000E+00  0.00000000E+00  0.00000000E+00
  0.00000000E+00  0.00000000E+00  0.00000000E+00
  0.00000000E+00  0.00000000E+00  0.00000000E+00
  0.00000000E+00  0.00000000E+00  0.00000000E+00
  0.00000000E+00  0.00000000E+00  0.00000000E+00
  0.00000000E+00  0.00000000E+00  0.00000000E+00
