Rh  C  H Br                             
    1.000000000000000     
    10.8856652999999994    0.0000000000000000    0.0000000000000000
     0.0000000000000000   10.8856652999999994    0.0000000000000000
     0.0000000000000000    0.0000000000000000   23.7729958199999984
   Rh   C    H    Br
    64     6     4     2
Selective dynamics
Direct
  0.0000000000000000  0.0000000000000000  0.3154840078544225   F   F   F
  0.7500000013779555  0.5000000009186394  0.3154840078544225   F   F   F
  0.0000000018372788  0.2500000004593161  0.3154840078544225   F   F   F
  0.0000000018372788  0.5000000009186394  0.3154840078544225   F   F   F
  0.0000000000000000  0.7500000013779555  0.3154840078544225   F   F   F
  0.2500000004593161  0.0000000000000000  0.3154840078544225   F   F   F
  0.2500000004593161  0.2500000004593161  0.3154840078544225   F   F   F
  0.7500000013779555  0.7500000013779555  0.3154840078544225   F   F   F
  0.2500000004593161  0.5000000009186394  0.3154840078544225   F   F   F
  0.2500000004593161  0.7500000013779555  0.3154840078544225   F   F   F
  0.5000000009186394  0.0000000000000000  0.3154840078544225   F   F   F
  0.5000000009186394  0.2500000004593161  0.3154840078544225   F   F   F
  0.5000000009186394  0.5000000009186394  0.3154840078544225   F   F   F
  0.5000000009186394  0.7500000013779555  0.3154840078544225   F   F   F
  0.7500000013779555  0.0000000000000000  0.3154840078544225   F   F   F
  0.7500000013779555  0.2500000004593161  0.3154840078544225   F   F   F
  0.0000013931675872  0.0000121042574565  0.4735557708267834   T   T   T
  0.9995599093828769  0.2498366045185496  0.4735929954255664   T   T   T
 -0.0000165421721000  0.5000043463265487  0.4735288410087301   T   T   T
  0.0004170792343288  0.7501535730103140  0.4735960820938840   T   T   T
  0.2498467657125791  0.9995967561826961  0.4736075275290040   T   T   T
  0.2494253082532537  0.2494608026832064  0.4735893741967463   T   T   T
  0.2498971642922111  0.5001600440129819  0.4738695787494865   T   T   T
  0.2513899424697413  0.7486187370947636  0.4739540606886087   T   T   T
  0.5000184567933943  0.0000160283650724  0.4735819167890935   T   T   T
  0.5001435664462979  0.2499162402723205  0.4738708853239870   T   T   T
  0.4999720016777556  0.4999814314557333  0.4736089560174206   T   T   T
  0.4998279428566059  0.7501106474007471  0.4738684728257890   T   T   T
  0.7501730577902654  0.0004231395213430  0.4735922623368407   T   T   T
  0.7486010941315081  0.2513752896423324  0.4739550897666143   T   T   T
  0.7500945857225798  0.4997918286138931  0.4738588303699658   T   T   T
  0.7505804252462448  0.7505493377287684  0.4735903270221294   T   T   T
  0.1245410402761990  0.1245295379379041  0.5489500204812460   T   T   T
  0.1233203280783983  0.3747779610247951  0.5491516001121993   T   T   T
  0.1237412805561591  0.6252152225680966  0.5489134282569444   T   T   T
  0.1255208193294280  0.8744482317005159  0.5489454377191397   T   T   T
  0.3747445174285626  0.1233369851024489  0.5491651769703254   T   T   T
  0.3741115058490196  0.3741138390511032  0.5487062254800689   T   T   T
  0.3731210139494273  0.6268540664543771  0.5527975916583067   T   T   T
  0.3747678572870594  0.8762540953760777  0.5489212524006469   T   T   T
  0.6252314442974227  0.1237704503765312  0.5489242083302426   T   T   T
  0.6268784014269831  0.3731399648446469  0.5527722761791428   T   T   T
  0.6257905649481253  0.6257951755016482  0.5486502666683305   T   T   T
  0.6252278064561975  0.8766857860926044  0.5491620141887100   T   T   T
  0.8744999300865077  0.1255008770782829  0.5489628784109981   T   T   T
  0.8762589263244366  0.3747970077501941  0.5489065976350960   T   T   T
  0.8766700697484232  0.6252235814523027  0.5491579927232665   T   T   T
  0.8754687816341011  0.8754866067138670  0.5489601272698454   T   T   T
  0.1249999997703384  0.1249999997703384  0.3964301349042145   F   F   F
  0.1250000006889778  0.3750000002296616  0.3964301349042145   F   F   F
  0.1250000006889778  0.6250000006889778  0.3964301349042145   F   F   F
  0.1250000006889778  0.8750000011483010  0.3964301349042145   F   F   F
  0.3750000011483010  0.1249999997703384  0.3964301349042145   F   F   F
  0.3750000011483010  0.3750000002296616  0.3964301349042145   F   F   F
  0.3750000011483010  0.6250000006889778  0.3964301349042145   F   F   F
  0.3750000011483010  0.8750000011483010  0.3964301349042145   F   F   F
  0.6250000006889778  0.1249999997703384  0.3964301349042145   F   F   F
  0.6250000006889778  0.3750000002296616  0.3964301349042145   F   F   F
  0.6250000016076172  0.6250000006889778  0.3964301349042145   F   F   F
  0.6250000016076172  0.8750000011483010  0.3964301349042145   F   F   F
  0.8750000011483010  0.1249999997703384  0.3964301349042145   F   F   F
  0.8750000011483010  0.3750000002296616  0.3964301349042145   F   F   F
  0.8750000011483010  0.6250000006889778  0.3964301349042145   F   F   F
  0.8750000020669404  0.8750000011483010  0.3964301349042145   F   F   F
  0.4059303558586356  0.4059245554568724  0.6319070868263614   T   T   T
  0.3713221365689316  0.5357336774501471  0.6362667539902109   T   T   T
  0.4642700196841472  0.6286714241321754  0.6362569933569973   T   T   T
  0.5940882063498153  0.5940531188599937  0.6318452280704475   T   T   T
  0.6286879569210477  0.4642022037280240  0.6362616817497166   T   T   T
  0.5357084623881012  0.3713089049857652  0.6362549685136378   T   T   T
  0.2805657209986732  0.5568152187519830  0.6531373293220496   T   T   T
  0.4432915098480288  0.7194199987891109  0.6531086992092194   T   T   T
  0.7194468903064143  0.4431937257390175  0.6531315409345305   T   T   T
  0.5567452770707965  0.2805529998142872  0.6531196624189317   T   T   T
  0.2913367837906727  0.2913426151702982  0.6691142500072171   T   T   T
  0.7089423844733882  0.7088993501063693  0.6687356399404657   T   T   T
 
  0.00000000E+00  0.00000000E+00  0.00000000E+00
  0.00000000E+00  0.00000000E+00  0.00000000E+00
  0.00000000E+00  0.00000000E+00  0.00000000E+00
  0.00000000E+00  0.00000000E+00  0.00000000E+00
  0.00000000E+00  0.00000000E+00  0.00000000E+00
  0.00000000E+00  0.00000000E+00  0.00000000E+00
  0.00000000E+00  0.00000000E+00  0.00000000E+00
  0.00000000E+00  0.00000000E+00  0.00000000E+00
  0.00000000E+00  0.00000000E+00  0.00000000E+00
  0.00000000E+00  0.00000000E+00  0.00000000E+00
  0.00000000E+00  0.00000000E+00  0.00000000E+00
  0.00000000E+00  0.00000000E+00  0.00000000E+00
  0.00000000E+00  0.00000000E+00  0.00000000E+00
  0.00000000E+00  0.00000000E+00  0.00000000E+00
  0.00000000E+00  0.00000000E+00  0.00000000E+00
  0.00000000E+00  0.00000000E+00  0.00000000E+00
  0.00000000E+00  0.00000000E+00  0.00000000E+00
  0.00000000E+00  0.00000000E+00  0.00000000E+00
  0.00000000E+00  0.00000000E+00  0.00000000E+00
  0.00000000E+00  0.00000000E+00  0.00000000E+00
  0.00000000E+00  0.00000000E+00  0.00000000E+00
  0.00000000E+00  0.00000000E+00  0.00000000E+00
  0.00000000E+00  0.00000000E+00  0.00000000E+00
  0.00000000E+00  0.00000000E+00  0.00000000E+00
  0.00000000E+00  0.00000000E+00  0.00000000E+00
  0.00000000E+00  0.00000000E+00  0.00000000E+00
  0.00000000E+00  0.00000000E+00  0.00000000E+00
  0.00000000E+00  0.00000000E+00  0.00000000E+00
  0.00000000E+00  0.00000000E+00  0.00000000E+00
  0.00000000E+00  0.00000000E+00  0.00000000E+00
  0.00000000E+00  0.00000000E+00  0.00000000E+00
  0.00000000E+00  0.00000000E+00  0.00000000E+00
  0.00000000E+00  0.00000000E+00  0.00000000E+00
  0.00000000E+00  0.00000000E+00  0.00000000E+00
  0.00000000E+00  0.00000000E+00  0.00000000E+00
  0.00000000E+00  0.00000000E+00  0.00000000E+00
  0.00000000E+00  0.00000000E+00  0.00000000E+00
  0.00000000E+00  0.00000000E+00  0.00000000E+00
  0.00000000E+00  0.00000000E+00  0.00000000E+00
  0.00000000E+00  0.00000000E+00  0.00000000E+00
  0.00000000E+00  0.00000000E+00  0.00000000E+00
  0.00000000E+00  0.00000000E+00  0.00000000E+00
  0.00000000E+00  0.00000000E+00  0.00000000E+00
  0.00000000E+00  0.00000000E+00  0.00000000E+00
  0.00000000E+00  0.00000000E+00  0.00000000E+00
  0.00000000E+00  0.00000000E+00  0.00000000E+00
  0.00000000E+00  0.00000000E+00  0.00000000E+00
  0.00000000E+00  0.00000000E+00  0.00000000E+00
  0.00000000E+00  0.00000000E+00  0.00000000E+00
  0.00000000E+00  0.00000000E+00  0.00000000E+00
  0.00000000E+00  0.00000000E+00  0.00000000E+00
  0.00000000E+00  0.00000000E+00  0.00000000E+00
  0.00000000E+00  0.00000000E+00  0.00000000E+00
  0.00000000E+00  0.00000000E+00  0.00000000E+00
  0.00000000E+00  0.00000000E+00  0.00000000E+00
  0.00000000E+00  0.00000000E+00  0.00000000E+00
  0.00000000E+00  0.00000000E+00  0.00000000E+00
  0.00000000E+00  0.00000000E+00  0.00000000E+00
  0.00000000E+00  0.00000000E+00  0.00000000E+00
  0.00000000E+00  0.00000000E+00  0.00000000E+00
  0.00000000E+00  0.00000000E+00  0.00000000E+00
  0.00000000E+00  0.00000000E+00  0.00000000E+00
  0.00000000E+00  0.00000000E+00  0.00000000E+00
  0.00000000E+00  0.00000000E+00  0.00000000E+00
  0.00000000E+00  0.00000000E+00  0.00000000E+00
  0.00000000E+00  0.00000000E+00  0.00000000E+00
  0.00000000E+00  0.00000000E+00  0.00000000E+00
  0.00000000E+00  0.00000000E+00  0.00000000E+00
  0.00000000E+00  0.00000000E+00  0.00000000E+00
  0.00000000E+00  0.00000000E+00  0.00000000E+00
  0.00000000E+00  0.00000000E+00  0.00000000E+00
  0.00000000E+00  0.00000000E+00  0.00000000E+00
  0.00000000E+00  0.00000000E+00  0.00000000E+00
  0.00000000E+00  0.00000000E+00  0.00000000E+00
  0.00000000E+00  0.00000000E+00  0.00000000E+00
  0.00000000E+00  0.00000000E+00  0.00000000E+00
