Pt  C  H Br                             
    1.000000000000000     
    11.2480068000000006    0.0000000000000000    0.0000000000000000
     0.0000000000000000   11.2480068000000006    0.0000000000000000
     0.0000000000000000    0.0000000000000000   23.9651564400000012
   Pt   C    H    Br
    64     6     4     2
Selective dynamics
Direct
  0.2500000008890453  0.0000000000000000  0.3129543518222917   F   F   F
  0.0000000000000000  0.5000000017780906  0.3129543518222917   F   F   F
  0.2500000008890453  0.2500000008890453  0.3129543518222917   F   F   F
  0.2500000008890453  0.5000000017780906  0.3129543518222917   F   F   F
  0.2500000008890453  0.7500000026671358  0.3129543518222917   F   F   F
  0.5000000017780906  0.0000000000000000  0.3129543518222917   F   F   F
  0.5000000017780906  0.2500000008890453  0.3129543518222917   F   F   F
  0.0000000000000000  0.7500000026671358  0.3129543518222917   F   F   F
  0.5000000017780906  0.5000000017780906  0.3129543518222917   F   F   F
  0.5000000017780906  0.7500000026671358  0.3129543518222917   F   F   F
  0.7500000026671358  0.0000000000000000  0.3129543518222917   F   F   F
  0.7500000026671358  0.2500000008890453  0.3129543518222917   F   F   F
  0.7500000026671358  0.5000000017780906  0.3129543518222917   F   F   F
  0.7500000026671358  0.7500000026671358  0.3129543518222917   F   F   F
  0.0000000000000000  0.0000000000000000  0.3129543518222917   F   F   F
  0.0000000000000000  0.2500000008890453  0.3129543518222917   F   F   F
  0.2500396921145752  0.9998310385978606  0.4783239002074656   T   T   T
  0.2499875681261268  0.2499857607327718  0.4782325562426218   T   T   T
  0.2499332535766541  0.5007386070942448  0.4782702297055857   T   T   T
  0.2501138143214961  0.7498815514801324  0.4786071896870712   T   T   T
  0.5000008443829292  0.0000017781780505  0.4783707014332875   T   T   T
  0.5007397999705288  0.2499345143533271  0.4782696295234674   T   T   T
  0.5000011050558363  0.4999972269586800  0.4783139136599794   T   T   T
  0.4992647277349499  0.7500647594620963  0.4782733641434704   T   T   T
  0.7499594121159898  0.0001676575822275  0.4783231873729449   T   T   T
  0.7498784928988830  0.2501193625540155  0.4786062520824082   T   T   T
  0.7500647728764998  0.4992637942266215  0.4782731230611132   T   T   T
  0.7500173395131381  0.7500137841665232  0.4782337879443284   T   T   T
  0.9999985401856544  0.9999956827803802  0.4782044143261089   T   T   T
  0.9998305945306224  0.2500409790414385  0.4783242008205232   T   T   T
 -0.0000015428512669  0.5000044293624986  0.4783723984386977   T   T   T
  0.0001668975864513  0.7499589227097900  0.4783240544844181   T   T   T
  0.1250398729547620  0.1250392088035418  0.5601249780183194   T   T   T
  0.1246140980991501  0.3749812953664857  0.5603305235634466   T   T   T
  0.1247939378125454  0.6249299028849067  0.5603655119032847   T   T   T
  0.1247827403967935  0.8752124592259005  0.5602022741778335   T   T   T
  0.3749784170389904  0.1246145215493281  0.5603310560611512   T   T   T
  0.3751999679558595  0.3751979770283053  0.5591011753792816   T   T   T
  0.3740286165618223  0.6259681547551212  0.5615017576011544   T   T   T
  0.3750720711149492  0.8752036221080027  0.5603671364802558   T   T   T
  0.6249285034780513  0.1247951325024146  0.5603661601706355   T   T   T
  0.6259674006096251  0.3740343576699408  0.5615076472473503   T   T   T
  0.6248081063373289  0.6248096577035680  0.5591043307111905   T   T   T
  0.6250254916909017  0.8753799865456449  0.5603304364775306   T   T   T
  0.8752135455908354  0.1247835666793365  0.5602018371472122   T   T   T
  0.8752033358011847  0.3750735626133406  0.5603679148778988   T   T   T
  0.8753817018268425  0.6250257715844688  0.5603320333903834   T   T   T
  0.8749585555655416  0.8749575872216075  0.5601230374035592   T   T   T
  0.1250000008890453  0.1250000000000000  0.3959242036977884   F   F   F
  0.1250000008890453  0.3750000008890453  0.3959242036977884   F   F   F
  0.1250000008890453  0.6250000026671358  0.3959242036977884   F   F   F
  0.1250000008890453  0.8750000026671358  0.3959242036977884   F   F   F
  0.3750000017780906  0.1250000000000000  0.3959242036977884   F   F   F
  0.3750000017780906  0.3750000008890453  0.3959242036977884   F   F   F
  0.3750000017780906  0.6250000026671358  0.3959242036977884   F   F   F
  0.3750000017780906  0.8750000026671358  0.3959242036977884   F   F   F
  0.6250000026671358  0.1250000000000000  0.3959242036977884   F   F   F
  0.6250000026671358  0.3750000008890453  0.3959242036977884   F   F   F
  0.6250000026671358  0.6250000026671358  0.3959242036977884   F   F   F
  0.6250000026671358  0.8750000026671358  0.3959242036977884   F   F   F
  0.8750000035561882  0.1250000000000000  0.3959242036977884   F   F   F
  0.8750000026671358  0.3750000008890453  0.3959242036977884   F   F   F
  0.8750000035561882  0.6250000026671358  0.3959242036977884   F   F   F
  0.8750000035561882  0.8750000026671358  0.3959242036977884   F   F   F
  0.4127943417400580  0.4128448605859033  0.6841118120286335   T   T   T
  0.3792979626456356  0.5325889305235881  0.6835881479239304   T   T   T
  0.4674284533834456  0.6207375805595434  0.6835965774668494   T   T   T
  0.5872234028860956  0.5871907858345927  0.6841430909463305   T   T   T
  0.6206889827072122  0.4674009641479657  0.6835977612072180   T   T   T
  0.5325569696902811  0.3792543888893865  0.6835889505261683   T   T   T
  0.2856969992631078  0.5576890724427365  0.6840191299376287   T   T   T
  0.4423456610071858  0.7143110903514908  0.6840353166480154   T   T   T
  0.7142881519665478  0.4423128102515413  0.6840412003786221   T   T   T
  0.5576488989800590  0.2856906185453594  0.6840223073444102   T   T   T
  0.2926843473402295  0.2928169623803545  0.6865338858085187   T   T   T
  0.7073535565808293  0.7071450280850852  0.6866771742430084   T   T   T
 
  0.00000000E+00  0.00000000E+00  0.00000000E+00
  0.00000000E+00  0.00000000E+00  0.00000000E+00
  0.00000000E+00  0.00000000E+00  0.00000000E+00
  0.00000000E+00  0.00000000E+00  0.00000000E+00
  0.00000000E+00  0.00000000E+00  0.00000000E+00
  0.00000000E+00  0.00000000E+00  0.00000000E+00
  0.00000000E+00  0.00000000E+00  0.00000000E+00
  0.00000000E+00  0.00000000E+00  0.00000000E+00
  0.00000000E+00  0.00000000E+00  0.00000000E+00
  0.00000000E+00  0.00000000E+00  0.00000000E+00
  0.00000000E+00  0.00000000E+00  0.00000000E+00
  0.00000000E+00  0.00000000E+00  0.00000000E+00
  0.00000000E+00  0.00000000E+00  0.00000000E+00
  0.00000000E+00  0.00000000E+00  0.00000000E+00
  0.00000000E+00  0.00000000E+00  0.00000000E+00
  0.00000000E+00  0.00000000E+00  0.00000000E+00
  0.00000000E+00  0.00000000E+00  0.00000000E+00
  0.00000000E+00  0.00000000E+00  0.00000000E+00
  0.00000000E+00  0.00000000E+00  0.00000000E+00
  0.00000000E+00  0.00000000E+00  0.00000000E+00
  0.00000000E+00  0.00000000E+00  0.00000000E+00
  0.00000000E+00  0.00000000E+00  0.00000000E+00
  0.00000000E+00  0.00000000E+00  0.00000000E+00
  0.00000000E+00  0.00000000E+00  0.00000000E+00
  0.00000000E+00  0.00000000E+00  0.00000000E+00
  0.00000000E+00  0.00000000E+00  0.00000000E+00
  0.00000000E+00  0.00000000E+00  0.00000000E+00
  0.00000000E+00  0.00000000E+00  0.00000000E+00
  0.00000000E+00  0.00000000E+00  0.00000000E+00
  0.00000000E+00  0.00000000E+00  0.00000000E+00
  0.00000000E+00  0.00000000E+00  0.00000000E+00
  0.00000000E+00  0.00000000E+00  0.00000000E+00
  0.00000000E+00  0.00000000E+00  0.00000000E+00
  0.00000000E+00  0.00000000E+00  0.00000000E+00
  0.00000000E+00  0.00000000E+00  0.00000000E+00
  0.00000000E+00  0.00000000E+00  0.00000000E+00
  0.00000000E+00  0.00000000E+00  0.00000000E+00
  0.00000000E+00  0.00000000E+00  0.00000000E+00
  0.00000000E+00  0.00000000E+00  0.00000000E+00
  0.00000000E+00  0.00000000E+00  0.00000000E+00
  0.00000000E+00  0.00000000E+00  0.00000000E+00
  0.00000000E+00  0.00000000E+00  0.00000000E+00
  0.00000000E+00  0.00000000E+00  0.00000000E+00
  0.00000000E+00  0.00000000E+00  0.00000000E+00
  0.00000000E+00  0.00000000E+00  0.00000000E+00
  0.00000000E+00  0.00000000E+00  0.00000000E+00
  0.00000000E+00  0.00000000E+00  0.00000000E+00
  0.00000000E+00  0.00000000E+00  0.00000000E+00
  0.00000000E+00  0.00000000E+00  0.00000000E+00
  0.00000000E+00  0.00000000E+00  0.00000000E+00
  0.00000000E+00  0.00000000E+00  0.00000000E+00
  0.00000000E+00  0.00000000E+00  0.00000000E+00
  0.00000000E+00  0.00000000E+00  0.00000000E+00
  0.00000000E+00  0.00000000E+00  0.00000000E+00
  0.00000000E+00  0.00000000E+00  0.00000000E+00
  0.00000000E+00  0.00000000E+00  0.00000000E+00
  0.00000000E+00  0.00000000E+00  0.00000000E+00
  0.00000000E+00  0.00000000E+00  0.00000000E+00
  0.00000000E+00  0.00000000E+00  0.00000000E+00
  0.00000000E+00  0.00000000E+00  0.00000000E+00
  0.00000000E+00  0.00000000E+00  0.00000000E+00
  0.00000000E+00  0.00000000E+00  0.00000000E+00
  0.00000000E+00  0.00000000E+00  0.00000000E+00
  0.00000000E+00  0.00000000E+00  0.00000000E+00
  0.00000000E+00  0.00000000E+00  0.00000000E+00
  0.00000000E+00  0.00000000E+00  0.00000000E+00
  0.00000000E+00  0.00000000E+00  0.00000000E+00
  0.00000000E+00  0.00000000E+00  0.00000000E+00
  0.00000000E+00  0.00000000E+00  0.00000000E+00
  0.00000000E+00  0.00000000E+00  0.00000000E+00
  0.00000000E+00  0.00000000E+00  0.00000000E+00
  0.00000000E+00  0.00000000E+00  0.00000000E+00
  0.00000000E+00  0.00000000E+00  0.00000000E+00
  0.00000000E+00  0.00000000E+00  0.00000000E+00
  0.00000000E+00  0.00000000E+00  0.00000000E+00
  0.00000000E+00  0.00000000E+00  0.00000000E+00
