Ir  C  H  F                             
   1.00000000000000     
    10.9622130000000002    0.0000000000000000    0.0000000000000000
    -5.4811069999999997    9.4935550000000006    0.0000000000000000
     0.0000000000000000    0.0000000000000000   24.7129573799999989
   Ir   C    H    F 
    64     6     4     2
Selective dynamics
Direct
  0.7500000643925233  0.7500000284403470  0.3034845196661777   F   F   F
  0.0000000000000000  0.0000000000000000  0.3034845196661777   F   F   F
  0.0000000102134052  0.2500000094801180  0.3034845196661777   F   F   F
  0.0000000213390337  0.5000000189602289  0.3034845196661777   F   F   F
  0.0000000753392229  0.7500000284403470  0.3034845196661777   F   F   F
  0.2500000109466924  0.0000000000000000  0.3034845196661777   F   F   F
  0.2500000211600977  0.2500000094801180  0.3034845196661777   F   F   F
  0.2500000322857332  0.5000000189602289  0.3034845196661777   F   F   F
  0.5000000218933920  0.0000000000000000  0.3034845196661777   F   F   F
  0.5000000321067972  0.2500000094801180  0.3034845196661777   F   F   F
  0.5000000432324256  0.5000000189602289  0.3034845196661777   F   F   F
  0.5000000534458309  0.7500000284403470  0.3034845196661777   F   F   F
  0.7500000328400844  0.0000000000000000  0.3034845196661777   F   F   F
  0.7500000430534897  0.2500000094801180  0.3034845196661777   F   F   F
  0.7500000541791181  0.5000000189602289  0.3034845196661777   F   F   F
  0.2500000424991384  0.7500000284403470  0.3034845196661777   F   F   F
  0.0833330000000032  0.1666669999999968  0.3940302372665698   F   F   F
  0.0833330000000032  0.4166669999999968  0.3940302372665698   F   F   F
  0.0833330000000032  0.6666669999999968  0.3940302372665698   F   F   F
  0.0833330000000032  0.9166669999999968  0.3940302372665698   F   F   F
  0.3333330000000032  0.1666669999999968  0.3940302372665698   F   F   F
  0.3333330000000032  0.4166669999999968  0.3940302372665698   F   F   F
  0.3333330000000032  0.6666669999999968  0.3940302372665698   F   F   F
  0.3333330000000032  0.9166669999999968  0.3940302372665698   F   F   F
  0.5833330000000032  0.1666669999999968  0.3940302372665698   F   F   F
  0.5833330000000032  0.4166669999999968  0.3940302372665698   F   F   F
  0.5833330000000032  0.6666669999999968  0.3940302372665698   F   F   F
  0.5833330000000032  0.9166669999999968  0.3940302372665698   F   F   F
  0.8333330000000032  0.1666669999999968  0.3940302372665698   F   F   F
  0.8333330000000032  0.4166669999999968  0.3940302372665698   F   F   F
  0.8333330000000032  0.6666669999999968  0.3940302372665698   F   F   F
  0.8333330000000032  0.9166669999999968  0.3940302372665698   F   F   F
  0.9996834539618760  0.9999110447367662  0.5730041870784385   T   T   T
  0.9996692723806639  0.2499594255562891  0.5729108996153373   T   T   T
  0.0000566044295635  0.5000005069107459  0.5729165582222520   T   T   T
  0.0000645251728077  0.7500917070005747  0.5730156140871143   T   T   T
  0.2499874003402342  0.9998016621821025  0.5729233614506795   T   T   T
  0.2496036194312626  0.2497010732122913  0.5733496037132650   T   T   T
  0.2497342643935407  0.5003723429527549  0.5725204170026086   T   T   T
  0.2501102137051066  0.7501619611850000  0.5729822500183557   T   T   T
  0.4999874695467176  0.0000958352107637  0.5729153025392261   T   T   T
  0.5003257416414730  0.2498208427336466  0.5726024822361360   T   T   T
  0.5006949754344918  0.5007377548352637  0.5734357571023313   T   T   T
  0.5002234255650424  0.7506242248187814  0.5729158528798474   T   T   T
  0.7499954714281102  0.0000765101606744  0.5730502013187981   T   T   T
  0.7500708305091619  0.2501118607535018  0.5729955019140109   T   T   T
  0.7503160660274671  0.5000599509441398  0.5729345741044807   T   T   T
  0.7502270420186166  0.7503416447925153  0.5730488775412512   T   T   T
  0.1665649712747975  0.0832461912427778  0.4835276448845836   T   T   T
  0.1668284863409948  0.3332317027500840  0.4835901321732650   T   T   T
  0.1666952347862251  0.5834273166815547  0.4834047306636570   T   T   T
  0.1666668114298292  0.8332962901382643  0.4834688136372313   T   T   T
  0.4166200432523215  0.0833666087393923  0.4834483242022180   T   T   T
  0.4165393516951098  0.3335459716756018  0.4837365434420531   T   T   T
  0.4168704257539201  0.5833287407152353  0.4835616091089825   T   T   T
  0.4166781710592523  0.8333547236543195  0.4834571640693326   T   T   T
  0.6667171935885517  0.0833877421465980  0.4835295002541388   T   T   T
  0.6667053558605724  0.3334264814022927  0.4834780291835076   T   T   T
  0.6668549070636559  0.5835088233420764  0.4835405938049276   T   T   T
  0.6667863592833074  0.8334042330020562  0.4835633484008163   T   T   T
  0.9167088661819680  0.0833503622177469  0.4835143985459897   T   T   T
  0.9167194353767032  0.3334300464673342  0.4834567045603771   T   T   T
  0.9167679441858413  0.5833968832365242  0.4834401311005099   T   T   T
  0.9167567431804443  0.8332906814710337  0.4834314497153335   T   T   T
  0.3012721181345932  0.4484600968609821  0.6992956017663393   T   T   T
  0.4477790422330164  0.5244901984822908  0.6975425885145814   T   T   T
  0.5215988637559981  0.4506476781937652  0.6974919483913763   T   T   T
  0.4456552653105640  0.3041796186271389  0.6992323047189202   T   T   T
  0.2991324484992638  0.2280830106719037  0.6975127982269824   T   T   T
  0.2252838051220057  0.3019755538999341  0.6975548193820256   T   T   T
  0.5031424448840256  0.6392416868146646  0.6965080604349989   T   T   T
  0.6363317827766486  0.5061988957519319  0.6964623477108294   T   T   T
  0.2438072288394255  0.1134687525384938  0.6964689958632367   T   T   T
  0.1106226118346371  0.2468686983979951  0.6965110348170485   T   T   T
  0.2295136212988923  0.5202153842421982  0.7012011984414815   T   T   T
  0.5174617664078837  0.2325446934837808  0.7010931587948436   T   T   T
 
  0.00000000E+00  0.00000000E+00  0.00000000E+00
  0.00000000E+00  0.00000000E+00  0.00000000E+00
  0.00000000E+00  0.00000000E+00  0.00000000E+00
  0.00000000E+00  0.00000000E+00  0.00000000E+00
  0.00000000E+00  0.00000000E+00  0.00000000E+00
  0.00000000E+00  0.00000000E+00  0.00000000E+00
  0.00000000E+00  0.00000000E+00  0.00000000E+00
  0.00000000E+00  0.00000000E+00  0.00000000E+00
  0.00000000E+00  0.00000000E+00  0.00000000E+00
  0.00000000E+00  0.00000000E+00  0.00000000E+00
  0.00000000E+00  0.00000000E+00  0.00000000E+00
  0.00000000E+00  0.00000000E+00  0.00000000E+00
  0.00000000E+00  0.00000000E+00  0.00000000E+00
  0.00000000E+00  0.00000000E+00  0.00000000E+00
  0.00000000E+00  0.00000000E+00  0.00000000E+00
  0.00000000E+00  0.00000000E+00  0.00000000E+00
  0.00000000E+00  0.00000000E+00  0.00000000E+00
  0.00000000E+00  0.00000000E+00  0.00000000E+00
  0.00000000E+00  0.00000000E+00  0.00000000E+00
  0.00000000E+00  0.00000000E+00  0.00000000E+00
  0.00000000E+00  0.00000000E+00  0.00000000E+00
  0.00000000E+00  0.00000000E+00  0.00000000E+00
  0.00000000E+00  0.00000000E+00  0.00000000E+00
  0.00000000E+00  0.00000000E+00  0.00000000E+00
  0.00000000E+00  0.00000000E+00  0.00000000E+00
  0.00000000E+00  0.00000000E+00  0.00000000E+00
  0.00000000E+00  0.00000000E+00  0.00000000E+00
  0.00000000E+00  0.00000000E+00  0.00000000E+00
  0.00000000E+00  0.00000000E+00  0.00000000E+00
  0.00000000E+00  0.00000000E+00  0.00000000E+00
  0.00000000E+00  0.00000000E+00  0.00000000E+00
  0.00000000E+00  0.00000000E+00  0.00000000E+00
  0.00000000E+00  0.00000000E+00  0.00000000E+00
  0.00000000E+00  0.00000000E+00  0.00000000E+00
  0.00000000E+00  0.00000000E+00  0.00000000E+00
  0.00000000E+00  0.00000000E+00  0.00000000E+00
  0.00000000E+00  0.00000000E+00  0.00000000E+00
  0.00000000E+00  0.00000000E+00  0.00000000E+00
  0.00000000E+00  0.00000000E+00  0.00000000E+00
  0.00000000E+00  0.00000000E+00  0.00000000E+00
  0.00000000E+00  0.00000000E+00  0.00000000E+00
  0.00000000E+00  0.00000000E+00  0.00000000E+00
  0.00000000E+00  0.00000000E+00  0.00000000E+00
  0.00000000E+00  0.00000000E+00  0.00000000E+00
  0.00000000E+00  0.00000000E+00  0.00000000E+00
  0.00000000E+00  0.00000000E+00  0.00000000E+00
  0.00000000E+00  0.00000000E+00  0.00000000E+00
  0.00000000E+00  0.00000000E+00  0.00000000E+00
  0.00000000E+00  0.00000000E+00  0.00000000E+00
  0.00000000E+00  0.00000000E+00  0.00000000E+00
  0.00000000E+00  0.00000000E+00  0.00000000E+00
  0.00000000E+00  0.00000000E+00  0.00000000E+00
  0.00000000E+00  0.00000000E+00  0.00000000E+00
  0.00000000E+00  0.00000000E+00  0.00000000E+00
  0.00000000E+00  0.00000000E+00  0.00000000E+00
  0.00000000E+00  0.00000000E+00  0.00000000E+00
  0.00000000E+00  0.00000000E+00  0.00000000E+00
  0.00000000E+00  0.00000000E+00  0.00000000E+00
  0.00000000E+00  0.00000000E+00  0.00000000E+00
  0.00000000E+00  0.00000000E+00  0.00000000E+00
  0.00000000E+00  0.00000000E+00  0.00000000E+00
  0.00000000E+00  0.00000000E+00  0.00000000E+00
  0.00000000E+00  0.00000000E+00  0.00000000E+00
  0.00000000E+00  0.00000000E+00  0.00000000E+00
  0.00000000E+00  0.00000000E+00  0.00000000E+00
  0.00000000E+00  0.00000000E+00  0.00000000E+00
  0.00000000E+00  0.00000000E+00  0.00000000E+00
  0.00000000E+00  0.00000000E+00  0.00000000E+00
  0.00000000E+00  0.00000000E+00  0.00000000E+00
  0.00000000E+00  0.00000000E+00  0.00000000E+00
  0.00000000E+00  0.00000000E+00  0.00000000E+00
  0.00000000E+00  0.00000000E+00  0.00000000E+00
  0.00000000E+00  0.00000000E+00  0.00000000E+00
  0.00000000E+00  0.00000000E+00  0.00000000E+00
  0.00000000E+00  0.00000000E+00  0.00000000E+00
  0.00000000E+00  0.00000000E+00  0.00000000E+00
