Au  C  H  F                             
   1.00000000000000     
    11.7981859999999994    0.0000000000000000    0.0000000000000000
    -5.8990929999999997   10.2175279999999997    0.0000000000000000
     0.0000000000000000    0.0000000000000000   25.2248836799999978
   Au   C    H    F 
    64     6     2     4
Selective dynamics
Direct
  0.9999999981222629  0.7500000352335690  0.2973254543071064   F   F   F
  0.2499999923717056  0.0000000000000000  0.2973254543071064   F   F   F
  0.2500000016343193  0.2500000117445254  0.2973254543071064   F   F   F
  0.2500000117445254  0.5000000234890507  0.2973254543071064   F   F   F
  0.2500000210071391  0.7500000352335690  0.2973254543071064   F   F   F
  0.4999999847434182  0.0000000000000000  0.2973254543071064   F   F   F
  0.4999999940060320  0.2500000117445254  0.2973254543071064   F   F   F
  0.5000000041162309  0.5000000234890507  0.2973254543071064   F   F   F
  0.7499999771151238  0.0000000000000000  0.2973254543071064   F   F   F
  0.7499999863777376  0.2500000117445254  0.2973254543071064   F   F   F
  0.7499999964879436  0.5000000234890507  0.2973254543071064   F   F   F
  0.7500000057505574  0.7500000352335690  0.2973254543071064   F   F   F
  0.9999999694868364  0.0000000000000000  0.2973254543071064   F   F   F
  0.0000000092626138  0.2500000117445254  0.2973254543071064   F   F   F
  0.9999999888596491  0.5000000234890507  0.2973254543071064   F   F   F
  0.5000000133788447  0.7500000352335690  0.2973254543071064   F   F   F
  0.0833330000000032  0.1666669999999968  0.3927984241947584   F   F   F
  0.0833330000000032  0.4166669999999968  0.3927984241947584   F   F   F
  0.0833330000000032  0.6666669999999968  0.3927984241947584   F   F   F
  0.0833330000000032  0.9166669999999968  0.3927984241947584   F   F   F
  0.3333330000000032  0.1666669999999968  0.3927984241947584   F   F   F
  0.3333330000000032  0.4166669999999968  0.3927984241947584   F   F   F
  0.3333330000000032  0.6666669999999968  0.3927984241947584   F   F   F
  0.3333330000000032  0.9166669999999968  0.3927984241947584   F   F   F
  0.5833330000000032  0.1666669999999968  0.3927984241947584   F   F   F
  0.5833330000000032  0.4166669999999968  0.3927984241947584   F   F   F
  0.5833330000000032  0.6666669999999968  0.3927984241947584   F   F   F
  0.5833330000000032  0.9166669999999968  0.3927984241947584   F   F   F
  0.8333330000000032  0.1666669999999968  0.3927984241947584   F   F   F
  0.8333330000000032  0.4166669999999968  0.3927984241947584   F   F   F
  0.8333330000000032  0.6666669999999968  0.3927984241947584   F   F   F
  0.8333330000000032  0.9166669999999968  0.3927984241947584   F   F   F
  0.2513883362099460  0.2507009932742975  0.5832626562227167   T   T   T
  0.2513416815861580  0.5013639390438466  0.5832004606339762   T   T   T
  0.2495366880049579  0.7509423084170745  0.5832697536835527   T   T   T
  0.2499151224779985  0.0000940437391030  0.5843642747324546   T   T   T
  0.5009578022503886  0.2515272189759307  0.5833261933762997   T   T   T
  0.5000473145165627  0.4998712540219304  0.5811310099880307   T   T   T
  0.4999965206655788  0.7501210429877415  0.5815455762849249   T   T   T
  0.4987731328707144 -0.0000368939748324  0.5833021586168671   T   T   T
  0.7489448317509046  0.2486348806272185  0.5832383960456866   T   T   T
  0.7513501971240742  0.4999514612375471  0.5832159277461837   T   T   T
  0.7501301831073042  0.7500481350345678  0.5811547667167055   T   T   T
  0.7500267376802898  0.0000893339256675  0.5815900293139209   T   T   T
  0.0014164789773288  0.2510386997579239  0.5831880111100745   T   T   T
  0.0006463634763965  0.4990069372854521  0.5833247834640959   T   T   T
  0.0000809249251646  0.7500467982876555  0.5816372177701737   T   T   T
  0.0002488921994231  0.0003677975959469  0.5815243517801441   T   T   T
  0.1668030328723357  0.0833758347709502  0.4864430698348067   T   T   T
  0.1667087726121175  0.3333574891071386  0.4864701577862013   T   T   T
  0.1667321380424491  0.5833522859046028  0.4869369408250243   T   T   T
  0.1668169742016715  0.8334267469039132  0.4864186156543022   T   T   T
  0.4160507223431731  0.0841311178043041  0.4879456877964023   T   T   T
  0.4166599024368747  0.3333256537337645  0.4864006254543179   T   T   T
  0.4165345019259941  0.5833033610585759  0.4863379649472747   T   T   T
  0.4165518343357190  0.8334682388738538  0.4864142618476083   T   T   T
  0.6662897770808563  0.0832954284898820  0.4863827372536599   T   T   T
  0.6666529003536552  0.3332792930188562  0.4869281687910278   T   T   T
  0.6668154800216605  0.5832478722428003  0.4863600020734374   T   T   T
  0.6666503979081562  0.8333477881367310  0.4863111066389555   T   T   T
  0.9167423618257871  0.0834974136120347  0.4863758602912859   T   T   T
  0.9166504907974042  0.3332541453488546  0.4864551533237149   T   T   T
  0.9168060136123507  0.5821538775862727  0.4877844623506233   T   T   T
  0.9167469291009362  0.8332921315391661  0.4863108524861911   T   T   T
  0.6931408328120129  0.5558164091297797  0.7069429257644441   T   T   T
  0.5569753812784265  0.4894461784632635  0.7071303867833509   T   T   T
  0.4890763280444272  0.5583038816928163  0.7070698216999037   T   T   T
  0.5564032066303634  0.6944925261341720  0.7067207693146623   T   T   T
  0.6925353666167104  0.7608753820619834  0.7068463639044608   T   T   T
  0.7604392065573546  0.6920165553409692  0.7069806741099591   T   T   T
  0.7461702885084075  0.5022683744232466  0.7069438968750096   T   T   T
  0.5033631148262444  0.7480736370956416  0.7064244123328937   T   T   T
  0.4894984278678190  0.3570930402151224  0.7077357953472020   T   T   T
  0.3566932976161850  0.4917198668199347  0.7075762646756700   T   T   T
  0.7601754006151278  0.8932223260499571  0.7071669427674788   T   T   T
  0.8928418192096588  0.7586291316553985  0.7074685868885146   T   T   T
 
  0.00000000E+00  0.00000000E+00  0.00000000E+00
  0.00000000E+00  0.00000000E+00  0.00000000E+00
  0.00000000E+00  0.00000000E+00  0.00000000E+00
  0.00000000E+00  0.00000000E+00  0.00000000E+00
  0.00000000E+00  0.00000000E+00  0.00000000E+00
  0.00000000E+00  0.00000000E+00  0.00000000E+00
  0.00000000E+00  0.00000000E+00  0.00000000E+00
  0.00000000E+00  0.00000000E+00  0.00000000E+00
  0.00000000E+00  0.00000000E+00  0.00000000E+00
  0.00000000E+00  0.00000000E+00  0.00000000E+00
  0.00000000E+00  0.00000000E+00  0.00000000E+00
  0.00000000E+00  0.00000000E+00  0.00000000E+00
  0.00000000E+00  0.00000000E+00  0.00000000E+00
  0.00000000E+00  0.00000000E+00  0.00000000E+00
  0.00000000E+00  0.00000000E+00  0.00000000E+00
  0.00000000E+00  0.00000000E+00  0.00000000E+00
  0.00000000E+00  0.00000000E+00  0.00000000E+00
  0.00000000E+00  0.00000000E+00  0.00000000E+00
  0.00000000E+00  0.00000000E+00  0.00000000E+00
  0.00000000E+00  0.00000000E+00  0.00000000E+00
  0.00000000E+00  0.00000000E+00  0.00000000E+00
  0.00000000E+00  0.00000000E+00  0.00000000E+00
  0.00000000E+00  0.00000000E+00  0.00000000E+00
  0.00000000E+00  0.00000000E+00  0.00000000E+00
  0.00000000E+00  0.00000000E+00  0.00000000E+00
  0.00000000E+00  0.00000000E+00  0.00000000E+00
  0.00000000E+00  0.00000000E+00  0.00000000E+00
  0.00000000E+00  0.00000000E+00  0.00000000E+00
  0.00000000E+00  0.00000000E+00  0.00000000E+00
  0.00000000E+00  0.00000000E+00  0.00000000E+00
  0.00000000E+00  0.00000000E+00  0.00000000E+00
  0.00000000E+00  0.00000000E+00  0.00000000E+00
  0.00000000E+00  0.00000000E+00  0.00000000E+00
  0.00000000E+00  0.00000000E+00  0.00000000E+00
  0.00000000E+00  0.00000000E+00  0.00000000E+00
  0.00000000E+00  0.00000000E+00  0.00000000E+00
  0.00000000E+00  0.00000000E+00  0.00000000E+00
  0.00000000E+00  0.00000000E+00  0.00000000E+00
  0.00000000E+00  0.00000000E+00  0.00000000E+00
  0.00000000E+00  0.00000000E+00  0.00000000E+00
  0.00000000E+00  0.00000000E+00  0.00000000E+00
  0.00000000E+00  0.00000000E+00  0.00000000E+00
  0.00000000E+00  0.00000000E+00  0.00000000E+00
  0.00000000E+00  0.00000000E+00  0.00000000E+00
  0.00000000E+00  0.00000000E+00  0.00000000E+00
  0.00000000E+00  0.00000000E+00  0.00000000E+00
  0.00000000E+00  0.00000000E+00  0.00000000E+00
  0.00000000E+00  0.00000000E+00  0.00000000E+00
  0.00000000E+00  0.00000000E+00  0.00000000E+00
  0.00000000E+00  0.00000000E+00  0.00000000E+00
  0.00000000E+00  0.00000000E+00  0.00000000E+00
  0.00000000E+00  0.00000000E+00  0.00000000E+00
  0.00000000E+00  0.00000000E+00  0.00000000E+00
  0.00000000E+00  0.00000000E+00  0.00000000E+00
  0.00000000E+00  0.00000000E+00  0.00000000E+00
  0.00000000E+00  0.00000000E+00  0.00000000E+00
  0.00000000E+00  0.00000000E+00  0.00000000E+00
  0.00000000E+00  0.00000000E+00  0.00000000E+00
  0.00000000E+00  0.00000000E+00  0.00000000E+00
  0.00000000E+00  0.00000000E+00  0.00000000E+00
  0.00000000E+00  0.00000000E+00  0.00000000E+00
  0.00000000E+00  0.00000000E+00  0.00000000E+00
  0.00000000E+00  0.00000000E+00  0.00000000E+00
  0.00000000E+00  0.00000000E+00  0.00000000E+00
  0.00000000E+00  0.00000000E+00  0.00000000E+00
  0.00000000E+00  0.00000000E+00  0.00000000E+00
  0.00000000E+00  0.00000000E+00  0.00000000E+00
  0.00000000E+00  0.00000000E+00  0.00000000E+00
  0.00000000E+00  0.00000000E+00  0.00000000E+00
  0.00000000E+00  0.00000000E+00  0.00000000E+00
  0.00000000E+00  0.00000000E+00  0.00000000E+00
  0.00000000E+00  0.00000000E+00  0.00000000E+00
  0.00000000E+00  0.00000000E+00  0.00000000E+00
  0.00000000E+00  0.00000000E+00  0.00000000E+00
  0.00000000E+00  0.00000000E+00  0.00000000E+00
  0.00000000E+00  0.00000000E+00  0.00000000E+00
