Rh  C  F                                
    1.000000000000000     
    10.8856652999999994    0.0000000000000000    0.0000000000000000
     0.0000000000000000   10.8856652999999994    0.0000000000000000
     0.0000000000000000    0.0000000000000000   23.7729958199999984
   Rh   C    F 
    64     6     6
Selective dynamics
Direct
  0.0000000000000000  0.0000000000000000  0.3154840078544225   F   F   F
  0.7500000013779555  0.5000000009186394  0.3154840078544225   F   F   F
  0.0000000018372788  0.2500000004593161  0.3154840078544225   F   F   F
  0.0000000018372788  0.5000000009186394  0.3154840078544225   F   F   F
  0.0000000000000000  0.7500000013779555  0.3154840078544225   F   F   F
  0.2500000004593161  0.0000000000000000  0.3154840078544225   F   F   F
  0.2500000004593161  0.2500000004593161  0.3154840078544225   F   F   F
  0.7500000013779555  0.7500000013779555  0.3154840078544225   F   F   F
  0.2500000004593161  0.5000000009186394  0.3154840078544225   F   F   F
  0.2500000004593161  0.7500000013779555  0.3154840078544225   F   F   F
  0.5000000009186394  0.0000000000000000  0.3154840078544225   F   F   F
  0.5000000009186394  0.2500000004593161  0.3154840078544225   F   F   F
  0.5000000009186394  0.5000000009186394  0.3154840078544225   F   F   F
  0.5000000009186394  0.7500000013779555  0.3154840078544225   F   F   F
  0.7500000013779555  0.0000000000000000  0.3154840078544225   F   F   F
  0.7500000013779555  0.2500000004593161  0.3154840078544225   F   F   F
 -0.0000000000000000 -0.0000000000000000  0.4735929203900861   T   T   T
  0.9988959719015271  0.2498926201123450  0.4735689214748823   T   T   T
  0.0000000018372788  0.5000000009186394  0.4734145282493790   T   T   T
  0.0011040299357518  0.7501073817249270  0.4735689214748823   T   T   T
  0.2499077934635029  0.9989019778270062  0.4735749777539789   T   T   T
  0.2492479633911311  0.2492176844659973  0.4733808751051597   T   T   T
  0.2499217542504452  0.4997613054967949  0.4738833169147461   T   T   T
  0.2522138721417975  0.7477660371394915  0.4741658589149498   T   T   T
  0.5000000009186394 -0.0000000000000000  0.4734307078516061   T   T   T
  0.4997681569053114  0.2498958060827775  0.4738753005422239   T   T   T
  0.5000000009186394  0.5000000009186394  0.4738012152054550   T   T   T
  0.5002318449319674  0.7501041957544943  0.4738753005422239   T   T   T
  0.7500922083737686  0.0010980221729938  0.4735749777539789   T   T   T
  0.7477861296954742  0.2522339646977802  0.4741658589149498   T   T   T
  0.7500782475868262  0.5002386963404845  0.4738833169147461   T   T   T
  0.7507520384461406  0.7507823173712741  0.4733808751051597   T   T   T
  0.1248332248495848  0.1248444775577786  0.5487448875776839   T   T   T
  0.1231141996202689  0.3740859972816217  0.5485700584882391   T   T   T
  0.1243979158439809  0.6246768885000352  0.5491604145923120   T   T   T
  0.1257093665720344  0.8742877683165833  0.5488908631040373   T   T   T
  0.3740652420502152  0.1231273134233461  0.5485710895194350   T   T   T
  0.3721835657529479  0.3721778728282144  0.5494000766621074   T   T   T
  0.3754755689204196  0.6245444220131410  0.5542863265870701   T   T   T
  0.3753288873308162  0.8755753624794261  0.5491648817028196   T   T   T
  0.6246711145064625  0.1244246384392129  0.5491648817028196   T   T   T
  0.6245244329168590  0.3754555789054987  0.5542863265870701   T   T   T
  0.6278164370029706  0.6278221280904247  0.5494000766621074   T   T   T
  0.6259347607057031  0.8768726874952932  0.5485710895194350   T   T   T
  0.8742906352652445  0.1257122326020559  0.5488908631040373   T   T   T
  0.8756020859932979  0.3753231124186040  0.5491604145923120   T   T   T
  0.8768858022170100  0.6259140036370179  0.5485700584882391   T   T   T
  0.8751667769876940  0.8751555233608608  0.5487448875776839   T   T   T
  0.1249999997703384  0.1249999997703384  0.3964301349042145   F   F   F
  0.1250000006889778  0.3750000002296616  0.3964301349042145   F   F   F
  0.1250000006889778  0.6250000006889778  0.3964301349042145   F   F   F
  0.1250000006889778  0.8750000011483010  0.3964301349042145   F   F   F
  0.3750000011483010  0.1249999997703384  0.3964301349042145   F   F   F
  0.3750000011483010  0.3750000002296616  0.3964301349042145   F   F   F
  0.3750000011483010  0.6250000006889778  0.3964301349042145   F   F   F
  0.3750000011483010  0.8750000011483010  0.3964301349042145   F   F   F
  0.6250000006889778  0.1249999997703384  0.3964301349042145   F   F   F
  0.6250000006889778  0.3750000002296616  0.3964301349042145   F   F   F
  0.6250000016076172  0.6250000006889778  0.3964301349042145   F   F   F
  0.6250000016076172  0.8750000011483010  0.3964301349042145   F   F   F
  0.8750000011483010  0.1249999997703384  0.3964301349042145   F   F   F
  0.8750000011483010  0.3750000002296616  0.3964301349042145   F   F   F
  0.8750000011483010  0.6250000006889778  0.3964301349042145   F   F   F
  0.8750000020669404  0.8750000011483010  0.3964301349042145   F   F   F
  0.6299927677260040  0.4643759479339060  0.6339571482878018   T   T   T
  0.5356304661395288  0.3700108821069549  0.6339575888564214   T   T   T
  0.4027943315739612  0.4027812905490292  0.6327117912013593   T   T   T
  0.3700072644263743  0.5356240667643171  0.6339571482878018   T   T   T
  0.4643695072199291  0.6299891050320939  0.6339575888564214   T   T   T
  0.5972056711819566  0.5972187103696103  0.6327117912013593   T   T   T
  0.7359557606087611  0.4398304565958819  0.6630515871827287   T   T   T
  0.5601891793051191  0.2640516831501494  0.6630563076100719   T   T   T
  0.3323644732334635  0.3323564288753821  0.6686046049467896   T   T   T
  0.2640442421471570  0.5601695443227577  0.6630515871827287   T   T   T
  0.4398107517969341  0.7359483003143414  0.6630563076100719   T   T   T
  0.6676355001259943  0.6676435582636666  0.6686046049467896   T   T   T
 
  0.00000000E+00  0.00000000E+00  0.00000000E+00
  0.00000000E+00  0.00000000E+00  0.00000000E+00
  0.00000000E+00  0.00000000E+00  0.00000000E+00
  0.00000000E+00  0.00000000E+00  0.00000000E+00
  0.00000000E+00  0.00000000E+00  0.00000000E+00
  0.00000000E+00  0.00000000E+00  0.00000000E+00
  0.00000000E+00  0.00000000E+00  0.00000000E+00
  0.00000000E+00  0.00000000E+00  0.00000000E+00
  0.00000000E+00  0.00000000E+00  0.00000000E+00
  0.00000000E+00  0.00000000E+00  0.00000000E+00
  0.00000000E+00  0.00000000E+00  0.00000000E+00
  0.00000000E+00  0.00000000E+00  0.00000000E+00
  0.00000000E+00  0.00000000E+00  0.00000000E+00
  0.00000000E+00  0.00000000E+00  0.00000000E+00
  0.00000000E+00  0.00000000E+00  0.00000000E+00
  0.00000000E+00  0.00000000E+00  0.00000000E+00
  0.00000000E+00  0.00000000E+00  0.00000000E+00
  0.00000000E+00  0.00000000E+00  0.00000000E+00
  0.00000000E+00  0.00000000E+00  0.00000000E+00
  0.00000000E+00  0.00000000E+00  0.00000000E+00
  0.00000000E+00  0.00000000E+00  0.00000000E+00
  0.00000000E+00  0.00000000E+00  0.00000000E+00
  0.00000000E+00  0.00000000E+00  0.00000000E+00
  0.00000000E+00  0.00000000E+00  0.00000000E+00
  0.00000000E+00  0.00000000E+00  0.00000000E+00
  0.00000000E+00  0.00000000E+00  0.00000000E+00
  0.00000000E+00  0.00000000E+00  0.00000000E+00
  0.00000000E+00  0.00000000E+00  0.00000000E+00
  0.00000000E+00  0.00000000E+00  0.00000000E+00
  0.00000000E+00  0.00000000E+00  0.00000000E+00
  0.00000000E+00  0.00000000E+00  0.00000000E+00
  0.00000000E+00  0.00000000E+00  0.00000000E+00
  0.00000000E+00  0.00000000E+00  0.00000000E+00
  0.00000000E+00  0.00000000E+00  0.00000000E+00
  0.00000000E+00  0.00000000E+00  0.00000000E+00
  0.00000000E+00  0.00000000E+00  0.00000000E+00
  0.00000000E+00  0.00000000E+00  0.00000000E+00
  0.00000000E+00  0.00000000E+00  0.00000000E+00
  0.00000000E+00  0.00000000E+00  0.00000000E+00
  0.00000000E+00  0.00000000E+00  0.00000000E+00
  0.00000000E+00  0.00000000E+00  0.00000000E+00
  0.00000000E+00  0.00000000E+00  0.00000000E+00
  0.00000000E+00  0.00000000E+00  0.00000000E+00
  0.00000000E+00  0.00000000E+00  0.00000000E+00
  0.00000000E+00  0.00000000E+00  0.00000000E+00
  0.00000000E+00  0.00000000E+00  0.00000000E+00
  0.00000000E+00  0.00000000E+00  0.00000000E+00
  0.00000000E+00  0.00000000E+00  0.00000000E+00
  0.00000000E+00  0.00000000E+00  0.00000000E+00
  0.00000000E+00  0.00000000E+00  0.00000000E+00
  0.00000000E+00  0.00000000E+00  0.00000000E+00
  0.00000000E+00  0.00000000E+00  0.00000000E+00
  0.00000000E+00  0.00000000E+00  0.00000000E+00
  0.00000000E+00  0.00000000E+00  0.00000000E+00
  0.00000000E+00  0.00000000E+00  0.00000000E+00
  0.00000000E+00  0.00000000E+00  0.00000000E+00
  0.00000000E+00  0.00000000E+00  0.00000000E+00
  0.00000000E+00  0.00000000E+00  0.00000000E+00
  0.00000000E+00  0.00000000E+00  0.00000000E+00
  0.00000000E+00  0.00000000E+00  0.00000000E+00
  0.00000000E+00  0.00000000E+00  0.00000000E+00
  0.00000000E+00  0.00000000E+00  0.00000000E+00
  0.00000000E+00  0.00000000E+00  0.00000000E+00
  0.00000000E+00  0.00000000E+00  0.00000000E+00
  0.00000000E+00  0.00000000E+00  0.00000000E+00
  0.00000000E+00  0.00000000E+00  0.00000000E+00
  0.00000000E+00  0.00000000E+00  0.00000000E+00
  0.00000000E+00  0.00000000E+00  0.00000000E+00
  0.00000000E+00  0.00000000E+00  0.00000000E+00
  0.00000000E+00  0.00000000E+00  0.00000000E+00
  0.00000000E+00  0.00000000E+00  0.00000000E+00
  0.00000000E+00  0.00000000E+00  0.00000000E+00
  0.00000000E+00  0.00000000E+00  0.00000000E+00
  0.00000000E+00  0.00000000E+00  0.00000000E+00
  0.00000000E+00  0.00000000E+00  0.00000000E+00
  0.00000000E+00  0.00000000E+00  0.00000000E+00
