Cu48 C6 F6                              
    1.000000000000000     
    10.2424774999999997    0.0000000000000000    0.0000000000000000
     0.0000000000000000   10.2424774999999997    0.0000000000000000
     0.0000000000000000    0.0000000000000000   16.5484553599999984
   Cu   C    F 
    48     6     6
Selective dynamics
Direct
  0.2493853480398585  0.0002495720097997  0.4091205609756940   T   T   T
  0.2499882340110844  0.2499827995248438  0.4094017503619938   T   T   T
  0.2501438351280072  0.4986337881573135  0.4089331472940643   T   T   T
  0.2497856635233191  0.7502225160814646  0.4087233484749504   T   T   T
  0.4999999990236716  0.0000000000000000  0.4089184046998113   T   T   T
  0.4986353644334400  0.2501398075632864  0.4089378091661331   T   T   T
  0.4999999990236716  0.4999999990236716  0.4089157467287237   T   T   T
  0.5013646336139033  0.7498601904840569  0.4089378091661331   T   T   T
  0.7506146500074848  0.9997504279902003  0.4091205609756940   T   T   T
  0.7502143345240242  0.2497774819658787  0.4087233484749504   T   T   T
  0.7498561629193361  0.5013662098900298  0.4089331472940643   T   T   T
  0.7500117640362589  0.7500171985224995  0.4094017503619938   T   T   T
  0.0000000000000000  0.0000000000000000  0.4094689428181297   T   T   T
  0.0002508295956929  0.2493796559758863  0.4091181827447841   T   T   T
  0.0000000000000000  0.4999999990236716  0.4089122343018303   T   T   T
  0.9997491704043071  0.7506203420714570  0.4091181827447841   T   T   T
  0.1246788621616588  0.1246746274521087  0.5168000268421977   T   T   T
  0.1239406996195456  0.3744498789090613  0.5160046817430342   T   T   T
  0.1243631878487506  0.6252745209093149  0.5150593189248411   T   T   T
  0.1249672739954946  0.8750367148597107  0.5164751735080699   T   T   T
  0.3744537043208922  0.1239380554555538  0.5160001334800484   T   T   T
  0.3727420534777366  0.3727378998646671  0.5195593230217952   T   T   T
  0.3745454550875991  0.6254586382855791  0.5132143776951992   T   T   T
  0.3747295263753756  0.8756408873008112  0.5150573280639250   T   T   T
  0.6252704716719748  0.1243591107465392  0.5150573280639250   T   T   T
  0.6254545429597513  0.3745413597617713  0.5132143776951992   T   T   T
  0.6272579455459422  0.6272620981826833  0.5195593230217952   T   T   T
  0.6255462947027866  0.8760619425917966  0.5160001334800484   T   T   T
  0.8750327250281771  0.1249632831876397  0.5164751735080699   T   T   T
  0.8756368101985998  0.3747254771380355  0.5150593189248411   T   T   T
  0.8760592994041261  0.6255501191382891  0.5160046817430342   T   T   T
  0.8753211368620128  0.8753253705952417  0.5168000268421977   T   T   T
  0.1250000002440785  0.1249999992677573  0.3021430031521675   F   F   F
  0.1250000002440785  0.3749999997559215  0.3021430031521675   F   F   F
  0.1250000002440785  0.6249999982914289  0.3021430031521675   F   F   F
  0.1250000002440785  0.8749999987795931  0.3021430031521675   F   F   F
  0.3749999997559215  0.1249999992677573  0.3021430031521675   F   F   F
  0.3749999997559215  0.3749999997559215  0.3021430031521675   F   F   F
  0.3749999997559215  0.6249999982914289  0.3021430031521675   F   F   F
  0.3749999997559215  0.8749999987795931  0.3021430031521675   F   F   F
  0.6249999982914289  0.1249999992677573  0.3021430031521675   F   F   F
  0.6249999982914289  0.3749999997559215  0.3021430031521675   F   F   F
  0.6249999992677573  0.6249999982914289  0.3021430031521675   F   F   F
  0.6249999992677573  0.8749999987795931  0.3021430031521675   F   F   F
  0.8749999987795931  0.1249999992677573  0.3021430031521675   F   F   F
  0.8749999978032648  0.3749999997559215  0.3021430031521675   F   F   F
  0.8749999987795931  0.6249999982914289  0.3021430031521675   F   F   F
  0.8749999987795931  0.8749999987795931  0.3021430031521675   F   F   F
  0.3686192952453453  0.5362414507819437  0.6560719532115868   T   T   T
  0.4637815942189931  0.6314424804314385  0.6560742998083668   T   T   T
  0.6011842145284234  0.6012273194384932  0.6452654926219523   T   T   T
  0.6313806735122185  0.4637585326205098  0.6560719532115868   T   T   T
  0.5362184360471218  0.3685575322608017  0.6560742998083668   T   T   T
  0.3988157844952482  0.3987726786088572  0.6452654926219523   T   T   T
  0.2417630773617319  0.5675677289820413  0.6700165613350890   T   T   T
  0.4324409265660449  0.7581447900987897  0.6700138788162349   T   T   T
  0.6841665034984246  0.6841641479903018  0.6878914085935151   T   T   T
  0.7582369216619398  0.4324322690653020  0.6700165613350890   T   T   T
  0.5675591486110818  0.2418552274750851  0.6700138788162349   T   T   T
  0.3158335267676904  0.3158358637256100  0.6878914085935151   T   T   T
 
  0.00000000E+00  0.00000000E+00  0.00000000E+00
  0.00000000E+00  0.00000000E+00  0.00000000E+00
  0.00000000E+00  0.00000000E+00  0.00000000E+00
  0.00000000E+00  0.00000000E+00  0.00000000E+00
  0.00000000E+00  0.00000000E+00  0.00000000E+00
  0.00000000E+00  0.00000000E+00  0.00000000E+00
  0.00000000E+00  0.00000000E+00  0.00000000E+00
  0.00000000E+00  0.00000000E+00  0.00000000E+00
  0.00000000E+00  0.00000000E+00  0.00000000E+00
  0.00000000E+00  0.00000000E+00  0.00000000E+00
  0.00000000E+00  0.00000000E+00  0.00000000E+00
  0.00000000E+00  0.00000000E+00  0.00000000E+00
  0.00000000E+00  0.00000000E+00  0.00000000E+00
  0.00000000E+00  0.00000000E+00  0.00000000E+00
  0.00000000E+00  0.00000000E+00  0.00000000E+00
  0.00000000E+00  0.00000000E+00  0.00000000E+00
  0.00000000E+00  0.00000000E+00  0.00000000E+00
  0.00000000E+00  0.00000000E+00  0.00000000E+00
  0.00000000E+00  0.00000000E+00  0.00000000E+00
  0.00000000E+00  0.00000000E+00  0.00000000E+00
  0.00000000E+00  0.00000000E+00  0.00000000E+00
  0.00000000E+00  0.00000000E+00  0.00000000E+00
  0.00000000E+00  0.00000000E+00  0.00000000E+00
  0.00000000E+00  0.00000000E+00  0.00000000E+00
  0.00000000E+00  0.00000000E+00  0.00000000E+00
  0.00000000E+00  0.00000000E+00  0.00000000E+00
  0.00000000E+00  0.00000000E+00  0.00000000E+00
  0.00000000E+00  0.00000000E+00  0.00000000E+00
  0.00000000E+00  0.00000000E+00  0.00000000E+00
  0.00000000E+00  0.00000000E+00  0.00000000E+00
  0.00000000E+00  0.00000000E+00  0.00000000E+00
  0.00000000E+00  0.00000000E+00  0.00000000E+00
  0.00000000E+00  0.00000000E+00  0.00000000E+00
  0.00000000E+00  0.00000000E+00  0.00000000E+00
  0.00000000E+00  0.00000000E+00  0.00000000E+00
  0.00000000E+00  0.00000000E+00  0.00000000E+00
  0.00000000E+00  0.00000000E+00  0.00000000E+00
  0.00000000E+00  0.00000000E+00  0.00000000E+00
  0.00000000E+00  0.00000000E+00  0.00000000E+00
  0.00000000E+00  0.00000000E+00  0.00000000E+00
  0.00000000E+00  0.00000000E+00  0.00000000E+00
  0.00000000E+00  0.00000000E+00  0.00000000E+00
  0.00000000E+00  0.00000000E+00  0.00000000E+00
  0.00000000E+00  0.00000000E+00  0.00000000E+00
  0.00000000E+00  0.00000000E+00  0.00000000E+00
  0.00000000E+00  0.00000000E+00  0.00000000E+00
  0.00000000E+00  0.00000000E+00  0.00000000E+00
  0.00000000E+00  0.00000000E+00  0.00000000E+00
  0.00000000E+00  0.00000000E+00  0.00000000E+00
  0.00000000E+00  0.00000000E+00  0.00000000E+00
  0.00000000E+00  0.00000000E+00  0.00000000E+00
  0.00000000E+00  0.00000000E+00  0.00000000E+00
  0.00000000E+00  0.00000000E+00  0.00000000E+00
  0.00000000E+00  0.00000000E+00  0.00000000E+00
  0.00000000E+00  0.00000000E+00  0.00000000E+00
  0.00000000E+00  0.00000000E+00  0.00000000E+00
  0.00000000E+00  0.00000000E+00  0.00000000E+00
  0.00000000E+00  0.00000000E+00  0.00000000E+00
  0.00000000E+00  0.00000000E+00  0.00000000E+00
  0.00000000E+00  0.00000000E+00  0.00000000E+00
