Au48 C4 N2 Cl4                          
    1.000000000000000     
    11.7981859999999994    0.0000000000000000    0.0000000000000000
    -5.8990929999999997   10.2175279999999997    0.0000000000000000
     0.0000000000000000    0.0000000000000000   17.8165890000000005
   Au   C    N    Cl
    48     4     2     4
Selective dynamics
Direct
  0.0833330000000032  0.1666669999999968  0.3367649999999998   F   F   F
  0.0833330000000032  0.4166669999999968  0.3367649999999998   F   F   F
  0.0833330000000032  0.6666669999999968  0.3367649999999998   F   F   F
  0.0833330000000032  0.9166669999999968  0.3367649999999998   F   F   F
  0.3333330000000032  0.1666669999999968  0.3367649999999998   F   F   F
  0.3333330000000032  0.4166669999999968  0.3367649999999998   F   F   F
  0.3333330000000032  0.6666669999999968  0.3367649999999998   F   F   F
  0.3333330000000032  0.9166669999999968  0.3367649999999998   F   F   F
  0.5833330000000032  0.1666669999999968  0.3367649999999998   F   F   F
  0.5833330000000032  0.4166669999999968  0.3367649999999998   F   F   F
  0.5833330000000032  0.6666669999999968  0.3367649999999998   F   F   F
  0.5833330000000032  0.9166669999999968  0.3367649999999998   F   F   F
  0.8333330000000032  0.1666669999999968  0.3367649999999998   F   F   F
  0.8333330000000032  0.4166669999999968  0.3367649999999998   F   F   F
  0.8333330000000032  0.6666669999999968  0.3367649999999998   F   F   F
  0.8333330000000032  0.9166669999999968  0.3367649999999998   F   F   F
  0.2502504172180622  0.2501303236866974  0.6129776479772886   T   T   T
  0.2500261764530691  0.5000034295561733  0.6124548341007383   T   T   T
  0.2503958998894120  0.7501466378385118  0.6129364277743932   T   T   T
  0.2500424589975268  0.0001706860782491  0.6129071509561115   T   T   T
  0.5002107370484055  0.2498266232287705  0.6124860267648700   T   T   T
  0.5003408283736803  0.5003038355878715  0.6111659531569913   T   T   T
  0.5001386962128151  0.7500575844874575  0.6134978930705941   T   T   T
  0.5000644716687503  0.9998140754540756  0.6129327749833990   T   T   T
  0.7501431546578416  0.2502962527654944  0.6129012343417628   T   T   T
  0.7499413830849377  0.5002527164748969  0.6134710896218252   T   T   T
  0.7499107232765212  0.7498735912881074  0.6111507172466588   T   T   T
  0.7502065491358820  0.0001854735699851  0.6124560580586191   T   T   T
  0.0001137225615651  0.2500955907656675  0.6129586554055493   T   T   T
  0.9999093556318286  0.5000673211981805  0.6128951533107099   T   T   T
  0.0003719514727223  0.7499909330590100  0.6124941001877886   T   T   T
  0.0000749643868687  0.9999585270542539  0.6129737502646080   T   T   T
  0.1667631675459731  0.0833857375250844  0.4749580918724519   T   T   T
  0.1667916226336956  0.3333279234768654  0.4747808278078551   T   T   T
  0.1665127329561216  0.5834656400940617  0.4746733366898681   T   T   T
  0.1669562025565838  0.8333694674723162  0.4746677883068458   T   T   T
  0.4167636557289924  0.0831848275566855  0.4746593625630595   T   T   T
  0.4164044836982157  0.3329722456068041  0.4744775853914547   T   T   T
  0.4167746329735635  0.5838494044093210  0.4746530211132765   T   T   T
  0.4168118090830859  0.8333235888445429  0.4750039665608980   T   T   T
  0.6666917683501126  0.0836455934755165  0.4746768902315139   T   T   T
  0.6668548941105783  0.3334679478783258  0.4750080293134431   T   T   T
  0.6671248070371760  0.5830006146867746  0.4742786450715215   T   T   T
  0.6662949115678884  0.8333642766510323  0.4746591313099557   T   T   T
  0.9168102665735276  0.0833510621509888  0.4747690797239486   T   T   T
  0.9168102805858354  0.3333288720669358  0.4746859846730302   T   T   T
  0.9166690529955090  0.5832962547405742  0.4749999217346499   T   T   T
  0.9171559893921497  0.8337249537521672  0.4744693169644307   T   T   T
  0.4927469180507842  0.5620830168844222  0.7985982721287499   T   T   T
  0.5619763530967887  0.4928258694149648  0.7985467989395474   T   T   T
  0.7560026935121726  0.6868792949232869  0.7985690084057282   T   T   T
  0.6868039317906778  0.7561262745853554  0.7986024928568511   T   T   T
  0.6920357044138399  0.5568688502944212  0.7985014411684972   T   T   T
  0.5567465649949668  0.6920580596122861  0.7985702005345061   T   T   T
  0.7660363703669120  0.9238631185730100  0.8002273048568398   T   T   T
  0.9237238544789221  0.7660863546982739  0.8001030812087251   T   T   T
  0.3249089522437174  0.4828282201664820  0.8002109039639294   T   T   T
  0.4827054457347373  0.3250667869211128  0.8000711896712431   T   T   T
 
  0.00000000E+00  0.00000000E+00  0.00000000E+00
  0.00000000E+00  0.00000000E+00  0.00000000E+00
  0.00000000E+00  0.00000000E+00  0.00000000E+00
  0.00000000E+00  0.00000000E+00  0.00000000E+00
  0.00000000E+00  0.00000000E+00  0.00000000E+00
  0.00000000E+00  0.00000000E+00  0.00000000E+00
  0.00000000E+00  0.00000000E+00  0.00000000E+00
  0.00000000E+00  0.00000000E+00  0.00000000E+00
  0.00000000E+00  0.00000000E+00  0.00000000E+00
  0.00000000E+00  0.00000000E+00  0.00000000E+00
  0.00000000E+00  0.00000000E+00  0.00000000E+00
  0.00000000E+00  0.00000000E+00  0.00000000E+00
  0.00000000E+00  0.00000000E+00  0.00000000E+00
  0.00000000E+00  0.00000000E+00  0.00000000E+00
  0.00000000E+00  0.00000000E+00  0.00000000E+00
  0.00000000E+00  0.00000000E+00  0.00000000E+00
  0.00000000E+00  0.00000000E+00  0.00000000E+00
  0.00000000E+00  0.00000000E+00  0.00000000E+00
  0.00000000E+00  0.00000000E+00  0.00000000E+00
  0.00000000E+00  0.00000000E+00  0.00000000E+00
  0.00000000E+00  0.00000000E+00  0.00000000E+00
  0.00000000E+00  0.00000000E+00  0.00000000E+00
  0.00000000E+00  0.00000000E+00  0.00000000E+00
  0.00000000E+00  0.00000000E+00  0.00000000E+00
  0.00000000E+00  0.00000000E+00  0.00000000E+00
  0.00000000E+00  0.00000000E+00  0.00000000E+00
  0.00000000E+00  0.00000000E+00  0.00000000E+00
  0.00000000E+00  0.00000000E+00  0.00000000E+00
  0.00000000E+00  0.00000000E+00  0.00000000E+00
  0.00000000E+00  0.00000000E+00  0.00000000E+00
  0.00000000E+00  0.00000000E+00  0.00000000E+00
  0.00000000E+00  0.00000000E+00  0.00000000E+00
  0.00000000E+00  0.00000000E+00  0.00000000E+00
  0.00000000E+00  0.00000000E+00  0.00000000E+00
  0.00000000E+00  0.00000000E+00  0.00000000E+00
  0.00000000E+00  0.00000000E+00  0.00000000E+00
  0.00000000E+00  0.00000000E+00  0.00000000E+00
  0.00000000E+00  0.00000000E+00  0.00000000E+00
  0.00000000E+00  0.00000000E+00  0.00000000E+00
  0.00000000E+00  0.00000000E+00  0.00000000E+00
  0.00000000E+00  0.00000000E+00  0.00000000E+00
  0.00000000E+00  0.00000000E+00  0.00000000E+00
  0.00000000E+00  0.00000000E+00  0.00000000E+00
  0.00000000E+00  0.00000000E+00  0.00000000E+00
  0.00000000E+00  0.00000000E+00  0.00000000E+00
  0.00000000E+00  0.00000000E+00  0.00000000E+00
  0.00000000E+00  0.00000000E+00  0.00000000E+00
  0.00000000E+00  0.00000000E+00  0.00000000E+00
  0.00000000E+00  0.00000000E+00  0.00000000E+00
  0.00000000E+00  0.00000000E+00  0.00000000E+00
  0.00000000E+00  0.00000000E+00  0.00000000E+00
  0.00000000E+00  0.00000000E+00  0.00000000E+00
  0.00000000E+00  0.00000000E+00  0.00000000E+00
  0.00000000E+00  0.00000000E+00  0.00000000E+00
  0.00000000E+00  0.00000000E+00  0.00000000E+00
  0.00000000E+00  0.00000000E+00  0.00000000E+00
  0.00000000E+00  0.00000000E+00  0.00000000E+00
  0.00000000E+00  0.00000000E+00  0.00000000E+00
