Ir  C  N  F                             
   1.00000000000000     
    10.9622130000000002    0.0000000000000000    0.0000000000000000
    -5.4811069999999997    9.4935550000000006    0.0000000000000000
     0.0000000000000000    0.0000000000000000   24.7129573799999989
   Ir   C    N    F 
    64     4     2     4
Selective dynamics
Direct
  0.7500000643925233  0.7500000284403470  0.3034845196661777   F   F   F
  0.0000000000000000  0.0000000000000000  0.3034845196661777   F   F   F
  0.0000000102134052  0.2500000094801180  0.3034845196661777   F   F   F
  0.0000000213390337  0.5000000189602289  0.3034845196661777   F   F   F
  0.0000000753392229  0.7500000284403470  0.3034845196661777   F   F   F
  0.2500000109466924  0.0000000000000000  0.3034845196661777   F   F   F
  0.2500000211600977  0.2500000094801180  0.3034845196661777   F   F   F
  0.2500000322857332  0.5000000189602289  0.3034845196661777   F   F   F
  0.5000000218933920  0.0000000000000000  0.3034845196661777   F   F   F
  0.5000000321067972  0.2500000094801180  0.3034845196661777   F   F   F
  0.5000000432324256  0.5000000189602289  0.3034845196661777   F   F   F
  0.5000000534458309  0.7500000284403470  0.3034845196661777   F   F   F
  0.7500000328400844  0.0000000000000000  0.3034845196661777   F   F   F
  0.7500000430534897  0.2500000094801180  0.3034845196661777   F   F   F
  0.7500000541791181  0.5000000189602289  0.3034845196661777   F   F   F
  0.2500000424991384  0.7500000284403470  0.3034845196661777   F   F   F
  0.0833330000000032  0.1666669999999968  0.3940302372665698   F   F   F
  0.0833330000000032  0.4166669999999968  0.3940302372665698   F   F   F
  0.0833330000000032  0.6666669999999968  0.3940302372665698   F   F   F
  0.0833330000000032  0.9166669999999968  0.3940302372665698   F   F   F
  0.3333330000000032  0.1666669999999968  0.3940302372665698   F   F   F
  0.3333330000000032  0.4166669999999968  0.3940302372665698   F   F   F
  0.3333330000000032  0.6666669999999968  0.3940302372665698   F   F   F
  0.3333330000000032  0.9166669999999968  0.3940302372665698   F   F   F
  0.5833330000000032  0.1666669999999968  0.3940302372665698   F   F   F
  0.5833330000000032  0.4166669999999968  0.3940302372665698   F   F   F
  0.5833330000000032  0.6666669999999968  0.3940302372665698   F   F   F
  0.5833330000000032  0.9166669999999968  0.3940302372665698   F   F   F
  0.8333330000000032  0.1666669999999968  0.3940302372665698   F   F   F
  0.8333330000000032  0.4166669999999968  0.3940302372665698   F   F   F
  0.8333330000000032  0.6666669999999968  0.3940302372665698   F   F   F
  0.8333330000000032  0.9166669999999968  0.3940302372665698   F   F   F
 -0.0006200607531223 -0.0005169005258030  0.5728313800308981   T   T   T
  0.9996432523989612  0.2496652288745457  0.5729148017490125   T   T   T
  0.9990463154683231  0.4992500119948819  0.5728133794660027   T   T   T
 -0.0002793774283514  0.7497309305581882  0.5729573674682539   T   T   T
  0.2496136325213686 -0.0002278729789783  0.5729459986378094   T   T   T
  0.2498120247816646  0.2497573529051403  0.5729408929382714   T   T   T
  0.2495860930461020  0.4999485197474728  0.5729701446128733   T   T   T
  0.2495469214274255  0.7495703859881252  0.5729499623473080   T   T   T
  0.4993353912973901  0.9990987687312317  0.5727919702571728   T   T   T
  0.4997865482978801  0.2494823035723291  0.5730443768255290   T   T   T
  0.4994072914113979  0.4992426874228104  0.5727214077112868   T   T   T
  0.4997188629576617  0.7496615394475435  0.5728973968731521   T   T   T
  0.7497477895995782 -0.0001774837509262  0.5729749755849362   T   T   T
  0.7495495808495573  0.2494347218361240  0.5729742344554550   T   T   T
  0.7497671336543932  0.4998903187891588  0.5729525256184631   T   T   T
  0.7495368266429124  0.7495261144272108  0.5729685227281384   T   T   T
  0.1663823556402021  0.0830349910117221  0.4834278536701094   T   T   T
  0.1663647164829572  0.3330646518126155  0.4835245364767547   T   T   T
  0.1664604334726692  0.5830207541696456  0.4834742453794113   T   T   T
  0.1663541624550504  0.8329950241377506  0.4836084484323626   T   T   T
  0.4164230304871928  0.0831639410269342  0.4834437906144634   T   T   T
  0.4163705374617566  0.3330412913421146  0.4833787959580793   T   T   T
  0.4164993810066891  0.5831591096907649  0.4833421959114982   T   T   T
  0.4164637632875655  0.8330495004415743  0.4834489163544451   T   T   T
  0.6663983849092220  0.0831415960078165  0.4834556592251025   T   T   T
  0.6662292856857183  0.3330872765738171  0.4836566754867028   T   T   T
  0.6665444091031474  0.5831530707169991  0.4833677716028335   T   T   T
  0.6665106833321448  0.8330316867027330  0.4836088052111870   T   T   T
  0.9164482579730531  0.0830970215132042  0.4834336896803305   T   T   T
  0.9164016221226194  0.3330876484982043  0.4834504726843061   T   T   T
  0.9164604336695291  0.5831340380821213  0.4834260059910285   T   T   T
  0.9164619903594192  0.8330492749691429  0.4834156821273770   T   T   T
  0.5192762332101528  0.4445171428932516  0.7044616875661583   T   T   T
  0.4453421482925686  0.5186017344844596  0.7040906452713932   T   T   T
  0.2396309723747583  0.3130006660339258  0.7036943140256744   T   T   T
  0.3135738459313881  0.2389731532019332  0.7040670830400614   T   T   T
  0.3065223867606108  0.4518313795616608  0.7043139973966569   T   T   T
  0.4523155347563306  0.3057199185096461  0.7051219178892023   T   T   T
  0.2444880517142183  0.0977521640495145  0.7059828341962360   T   T   T
  0.0984346150516949  0.2442100052890920  0.7052428508823855   T   T   T
  0.6604087633861129  0.5135273079902244  0.7068556606104167   T   T   T
  0.5144274503523226  0.6597937884586123  0.7060890701333392   T   T   T
 
  0.00000000E+00  0.00000000E+00  0.00000000E+00
  0.00000000E+00  0.00000000E+00  0.00000000E+00
  0.00000000E+00  0.00000000E+00  0.00000000E+00
  0.00000000E+00  0.00000000E+00  0.00000000E+00
  0.00000000E+00  0.00000000E+00  0.00000000E+00
  0.00000000E+00  0.00000000E+00  0.00000000E+00
  0.00000000E+00  0.00000000E+00  0.00000000E+00
  0.00000000E+00  0.00000000E+00  0.00000000E+00
  0.00000000E+00  0.00000000E+00  0.00000000E+00
  0.00000000E+00  0.00000000E+00  0.00000000E+00
  0.00000000E+00  0.00000000E+00  0.00000000E+00
  0.00000000E+00  0.00000000E+00  0.00000000E+00
  0.00000000E+00  0.00000000E+00  0.00000000E+00
  0.00000000E+00  0.00000000E+00  0.00000000E+00
  0.00000000E+00  0.00000000E+00  0.00000000E+00
  0.00000000E+00  0.00000000E+00  0.00000000E+00
  0.00000000E+00  0.00000000E+00  0.00000000E+00
  0.00000000E+00  0.00000000E+00  0.00000000E+00
  0.00000000E+00  0.00000000E+00  0.00000000E+00
  0.00000000E+00  0.00000000E+00  0.00000000E+00
  0.00000000E+00  0.00000000E+00  0.00000000E+00
  0.00000000E+00  0.00000000E+00  0.00000000E+00
  0.00000000E+00  0.00000000E+00  0.00000000E+00
  0.00000000E+00  0.00000000E+00  0.00000000E+00
  0.00000000E+00  0.00000000E+00  0.00000000E+00
  0.00000000E+00  0.00000000E+00  0.00000000E+00
  0.00000000E+00  0.00000000E+00  0.00000000E+00
  0.00000000E+00  0.00000000E+00  0.00000000E+00
  0.00000000E+00  0.00000000E+00  0.00000000E+00
  0.00000000E+00  0.00000000E+00  0.00000000E+00
  0.00000000E+00  0.00000000E+00  0.00000000E+00
  0.00000000E+00  0.00000000E+00  0.00000000E+00
  0.00000000E+00  0.00000000E+00  0.00000000E+00
  0.00000000E+00  0.00000000E+00  0.00000000E+00
  0.00000000E+00  0.00000000E+00  0.00000000E+00
  0.00000000E+00  0.00000000E+00  0.00000000E+00
  0.00000000E+00  0.00000000E+00  0.00000000E+00
  0.00000000E+00  0.00000000E+00  0.00000000E+00
  0.00000000E+00  0.00000000E+00  0.00000000E+00
  0.00000000E+00  0.00000000E+00  0.00000000E+00
  0.00000000E+00  0.00000000E+00  0.00000000E+00
  0.00000000E+00  0.00000000E+00  0.00000000E+00
  0.00000000E+00  0.00000000E+00  0.00000000E+00
  0.00000000E+00  0.00000000E+00  0.00000000E+00
  0.00000000E+00  0.00000000E+00  0.00000000E+00
  0.00000000E+00  0.00000000E+00  0.00000000E+00
  0.00000000E+00  0.00000000E+00  0.00000000E+00
  0.00000000E+00  0.00000000E+00  0.00000000E+00
  0.00000000E+00  0.00000000E+00  0.00000000E+00
  0.00000000E+00  0.00000000E+00  0.00000000E+00
  0.00000000E+00  0.00000000E+00  0.00000000E+00
  0.00000000E+00  0.00000000E+00  0.00000000E+00
  0.00000000E+00  0.00000000E+00  0.00000000E+00
  0.00000000E+00  0.00000000E+00  0.00000000E+00
  0.00000000E+00  0.00000000E+00  0.00000000E+00
  0.00000000E+00  0.00000000E+00  0.00000000E+00
  0.00000000E+00  0.00000000E+00  0.00000000E+00
  0.00000000E+00  0.00000000E+00  0.00000000E+00
  0.00000000E+00  0.00000000E+00  0.00000000E+00
  0.00000000E+00  0.00000000E+00  0.00000000E+00
  0.00000000E+00  0.00000000E+00  0.00000000E+00
  0.00000000E+00  0.00000000E+00  0.00000000E+00
  0.00000000E+00  0.00000000E+00  0.00000000E+00
  0.00000000E+00  0.00000000E+00  0.00000000E+00
  0.00000000E+00  0.00000000E+00  0.00000000E+00
  0.00000000E+00  0.00000000E+00  0.00000000E+00
  0.00000000E+00  0.00000000E+00  0.00000000E+00
  0.00000000E+00  0.00000000E+00  0.00000000E+00
  0.00000000E+00  0.00000000E+00  0.00000000E+00
  0.00000000E+00  0.00000000E+00  0.00000000E+00
  0.00000000E+00  0.00000000E+00  0.00000000E+00
  0.00000000E+00  0.00000000E+00  0.00000000E+00
  0.00000000E+00  0.00000000E+00  0.00000000E+00
  0.00000000E+00  0.00000000E+00  0.00000000E+00
