Au  C  H Cl                             
    1.000000000000000     
    11.7981856999999994    0.0000000000000000    0.0000000000000000
     0.0000000000000000   11.7981856999999994    0.0000000000000000
     0.0000000000000000    0.0000000000000000   24.2569328400000011
   Au   C    H    Cl
    64     6     4     2
Selective dynamics
Direct
  0.2500000004237961  0.0000000000000000  0.3091899561032889   F   F   F
  0.0000000000000000  0.5000000008475851  0.3091899561032889   F   F   F
  0.2500000004237961  0.2500000004237961  0.3091899561032889   F   F   F
  0.2500000004237961  0.5000000008475851  0.3091899561032889   F   F   F
  0.2500000004237961  0.7500000012713812  0.3091899561032889   F   F   F
  0.5000000008475851  0.0000000000000000  0.3091899561032889   F   F   F
  0.5000000008475851  0.2500000004237961  0.3091899561032889   F   F   F
  0.0000000000000000  0.7500000012713812  0.3091899561032889   F   F   F
  0.5000000008475851  0.5000000008475851  0.3091899561032889   F   F   F
  0.5000000008475851  0.7500000012713812  0.3091899561032889   F   F   F
  0.7500000012713812  0.0000000000000000  0.3091899561032889   F   F   F
  0.7500000012713812  0.2500000004237961  0.3091899561032889   F   F   F
  0.7500000012713812  0.5000000008475851  0.3091899561032889   F   F   F
  0.7500000012713812  0.7500000012713812  0.3091899561032889   F   F   F
  0.0000000000000000  0.0000000000000000  0.3091899561032889   F   F   F
  0.0000000000000000  0.2500000004237961  0.3091899561032889   F   F   F
  0.2489888267087396  0.9998123217288353  0.4806793676760964   T   T   T
  0.2491460933157104  0.2497364040821917  0.4805416497678290   T   T   T
  0.2489398489943713  0.5005744204372139  0.4805002666305511   T   T   T
  0.2492789599968796  0.7507480223121492  0.4807960805751846   T   T   T
  0.4999987966070204 -0.0000014128305513  0.4811481843251657   T   T   T
  0.5002285530198934  0.2490700041648395  0.4805399190435566   T   T   T
  0.4999985502808021  0.4999988652333198  0.4804239339008662   T   T   T
  0.4997688927445156  0.7509274717296430  0.4805401310511598   T   T   T
  0.7510087876126570  0.0001850565120265  0.4806794589900395   T   T   T
  0.7507192736301506  0.2492492617680612  0.4807958243702917   T   T   T
  0.7510584260955810  0.4994234906618135  0.4805000075534316   T   T   T
  0.7508513061553704  0.7502607276468393  0.4805418896079370   T   T   T
 -0.0000012777484923 -0.0000012932617996  0.4812090071824713   T   T   T
  0.9997737509971976  0.2489902093813362  0.4806826886686175   T   T   T
 -0.0000015632591954  0.4999986923244623  0.4809998866182357   T   T   T
  0.0002235992651816  0.7510072638074072  0.4806826889193674   T   T   T
  0.1247302822122611  0.1247280635982587  0.5667418522637981   T   T   T
  0.1246499198219173  0.3746937161164455  0.5666697971613335   T   T   T
  0.1246908724526607  0.6252853844502462  0.5667187595062810   T   T   T
  0.1251009125507179  0.8748987823908100  0.5680192419019433   T   T   T
  0.3746748981255749  0.1246662331475224  0.5666651247653747   T   T   T
  0.3742907821411193  0.3742985881978914  0.5649997844157271   T   T   T
  0.3746865558190585  0.6253195005637071  0.5666467673742261   T   T   T
  0.3747051927239830  0.8752957545198526  0.5667164536580550   T   T   T
  0.6252934294730792  0.1247016394568323  0.5667164037344938   T   T   T
  0.6253104574812323  0.3746780513679180  0.5666474644318453   T   T   T
  0.6257059177882588  0.6256981904866515  0.5650005636305762   T   T   T
  0.6253237204444828  0.8753318401195919  0.5666655521270821   T   T   T
  0.8748977060367135  0.1250991332031700  0.5680191439824172   T   T   T
  0.8753081962723303  0.3747124549049095  0.5667186812151036   T   T   T
  0.8753488824328840  0.6253043840219691  0.5666701531194376   T   T   T
  0.8752683942341138  0.8752699914296775  0.5667418229531072   T   T   T
  0.1249999997881019  0.1250000006356942  0.3951713245539921   F   F   F
  0.1250000006356942  0.3750000010594832  0.3951713245539921   F   F   F
  0.1250000006356942  0.6250000006356942  0.3951713245539921   F   F   F
  0.1250000006356942  0.8750000019070754  0.3951713245539921   F   F   F
  0.3750000010594832  0.1250000006356942  0.3951713245539921   F   F   F
  0.3750000010594832  0.3750000010594832  0.3951713245539921   F   F   F
  0.3750000010594832  0.6250000006356942  0.3951713245539921   F   F   F
  0.3750000010594832  0.8750000019070754  0.3951713245539921   F   F   F
  0.6250000006356942  0.1250000006356942  0.3951713245539921   F   F   F
  0.6250000014832793  0.3750000010594832  0.3951713245539921   F   F   F
  0.6250000014832793  0.6250000006356942  0.3951713245539921   F   F   F
  0.6250000014832793  0.8750000019070754  0.3951713245539921   F   F   F
  0.8750000019070754  0.1250000006356942  0.3951713245539921   F   F   F
  0.8750000019070754  0.3750000010594832  0.3951713245539921   F   F   F
  0.8750000019070754  0.6250000006356942  0.3951713245539921   F   F   F
  0.8750000019070754  0.8750000019070754  0.3951713245539921   F   F   F
  0.4168123978288863  0.4167841151885320  0.6976837995249194   T   T   T
  0.3852802645070693  0.5309473493206496  0.6971004846652120   T   T   T
  0.4689912366410559  0.6146896850828349  0.6970946803968129   T   T   T
  0.5831866389226453  0.5832230504543036  0.6976621703858720   T   T   T
  0.6147019585189812  0.4690582751271963  0.6970850244781445   T   T   T
  0.5310064244139497  0.3853061744966675  0.6970926405482041   T   T   T
  0.2959810236187034  0.5544225432841030  0.6963685962893509   T   T   T
  0.4455028904343066  0.7039884772960463  0.6963462414030658   T   T   T
  0.7040044528079558  0.4455927618536314  0.6963391444562648   T   T   T
  0.5544939984391580  0.2960182957831528  0.6963612110160506   T   T   T
  0.3129901928495759  0.3128183794688678  0.6978821502717250   T   T   T
  0.6871104823937796  0.6871893528490974  0.6979070434489972   T   T   T
 
  0.00000000E+00  0.00000000E+00  0.00000000E+00
  0.00000000E+00  0.00000000E+00  0.00000000E+00
  0.00000000E+00  0.00000000E+00  0.00000000E+00
  0.00000000E+00  0.00000000E+00  0.00000000E+00
  0.00000000E+00  0.00000000E+00  0.00000000E+00
  0.00000000E+00  0.00000000E+00  0.00000000E+00
  0.00000000E+00  0.00000000E+00  0.00000000E+00
  0.00000000E+00  0.00000000E+00  0.00000000E+00
  0.00000000E+00  0.00000000E+00  0.00000000E+00
  0.00000000E+00  0.00000000E+00  0.00000000E+00
  0.00000000E+00  0.00000000E+00  0.00000000E+00
  0.00000000E+00  0.00000000E+00  0.00000000E+00
  0.00000000E+00  0.00000000E+00  0.00000000E+00
  0.00000000E+00  0.00000000E+00  0.00000000E+00
  0.00000000E+00  0.00000000E+00  0.00000000E+00
  0.00000000E+00  0.00000000E+00  0.00000000E+00
  0.00000000E+00  0.00000000E+00  0.00000000E+00
  0.00000000E+00  0.00000000E+00  0.00000000E+00
  0.00000000E+00  0.00000000E+00  0.00000000E+00
  0.00000000E+00  0.00000000E+00  0.00000000E+00
  0.00000000E+00  0.00000000E+00  0.00000000E+00
  0.00000000E+00  0.00000000E+00  0.00000000E+00
  0.00000000E+00  0.00000000E+00  0.00000000E+00
  0.00000000E+00  0.00000000E+00  0.00000000E+00
  0.00000000E+00  0.00000000E+00  0.00000000E+00
  0.00000000E+00  0.00000000E+00  0.00000000E+00
  0.00000000E+00  0.00000000E+00  0.00000000E+00
  0.00000000E+00  0.00000000E+00  0.00000000E+00
  0.00000000E+00  0.00000000E+00  0.00000000E+00
  0.00000000E+00  0.00000000E+00  0.00000000E+00
  0.00000000E+00  0.00000000E+00  0.00000000E+00
  0.00000000E+00  0.00000000E+00  0.00000000E+00
  0.00000000E+00  0.00000000E+00  0.00000000E+00
  0.00000000E+00  0.00000000E+00  0.00000000E+00
  0.00000000E+00  0.00000000E+00  0.00000000E+00
  0.00000000E+00  0.00000000E+00  0.00000000E+00
  0.00000000E+00  0.00000000E+00  0.00000000E+00
  0.00000000E+00  0.00000000E+00  0.00000000E+00
  0.00000000E+00  0.00000000E+00  0.00000000E+00
  0.00000000E+00  0.00000000E+00  0.00000000E+00
  0.00000000E+00  0.00000000E+00  0.00000000E+00
  0.00000000E+00  0.00000000E+00  0.00000000E+00
  0.00000000E+00  0.00000000E+00  0.00000000E+00
  0.00000000E+00  0.00000000E+00  0.00000000E+00
  0.00000000E+00  0.00000000E+00  0.00000000E+00
  0.00000000E+00  0.00000000E+00  0.00000000E+00
  0.00000000E+00  0.00000000E+00  0.00000000E+00
  0.00000000E+00  0.00000000E+00  0.00000000E+00
  0.00000000E+00  0.00000000E+00  0.00000000E+00
  0.00000000E+00  0.00000000E+00  0.00000000E+00
  0.00000000E+00  0.00000000E+00  0.00000000E+00
  0.00000000E+00  0.00000000E+00  0.00000000E+00
  0.00000000E+00  0.00000000E+00  0.00000000E+00
  0.00000000E+00  0.00000000E+00  0.00000000E+00
  0.00000000E+00  0.00000000E+00  0.00000000E+00
  0.00000000E+00  0.00000000E+00  0.00000000E+00
  0.00000000E+00  0.00000000E+00  0.00000000E+00
  0.00000000E+00  0.00000000E+00  0.00000000E+00
  0.00000000E+00  0.00000000E+00  0.00000000E+00
  0.00000000E+00  0.00000000E+00  0.00000000E+00
  0.00000000E+00  0.00000000E+00  0.00000000E+00
  0.00000000E+00  0.00000000E+00  0.00000000E+00
  0.00000000E+00  0.00000000E+00  0.00000000E+00
  0.00000000E+00  0.00000000E+00  0.00000000E+00
  0.00000000E+00  0.00000000E+00  0.00000000E+00
  0.00000000E+00  0.00000000E+00  0.00000000E+00
  0.00000000E+00  0.00000000E+00  0.00000000E+00
  0.00000000E+00  0.00000000E+00  0.00000000E+00
  0.00000000E+00  0.00000000E+00  0.00000000E+00
  0.00000000E+00  0.00000000E+00  0.00000000E+00
  0.00000000E+00  0.00000000E+00  0.00000000E+00
  0.00000000E+00  0.00000000E+00  0.00000000E+00
  0.00000000E+00  0.00000000E+00  0.00000000E+00
  0.00000000E+00  0.00000000E+00  0.00000000E+00
  0.00000000E+00  0.00000000E+00  0.00000000E+00
  0.00000000E+00  0.00000000E+00  0.00000000E+00
