Ag48 H4 C6 F2                           
    1.000000000000000     
    11.7678089999999997    0.0000000000000000    0.0000000000000000
    -5.8839040000000002   10.1912210000000005    0.0000000000000000
     0.0000000000000000    0.0000000000000000   17.8115419999999993
   Ag   H    C    F 
    48     4     6     2
Selective dynamics
Direct
  0.0833330000000032  0.1666669999999968  0.3368600000000015   F   F   F
  0.0833330000000032  0.4166669999999968  0.3368600000000015   F   F   F
  0.0833330000000032  0.6666669999999968  0.3368600000000015   F   F   F
  0.0833330000000032  0.9166669999999968  0.3368600000000015   F   F   F
  0.3333330000000032  0.1666669999999968  0.3368600000000015   F   F   F
  0.3333330000000032  0.4166669999999968  0.3368600000000015   F   F   F
  0.3333330000000032  0.6666669999999968  0.3368600000000015   F   F   F
  0.3333330000000032  0.9166669999999968  0.3368600000000015   F   F   F
  0.5833330000000032  0.1666669999999968  0.3368600000000015   F   F   F
  0.5833330000000032  0.4166669999999968  0.3368600000000015   F   F   F
  0.5833330000000032  0.6666669999999968  0.3368600000000015   F   F   F
  0.5833330000000032  0.9166669999999968  0.3368600000000015   F   F   F
  0.8333330000000032  0.1666669999999968  0.3368600000000015   F   F   F
  0.8333330000000032  0.4166669999999968  0.3368600000000015   F   F   F
  0.8333330000000032  0.6666669999999968  0.3368600000000015   F   F   F
  0.8333330000000032  0.9166669999999968  0.3368600000000015   F   F   F
  0.2484461065575587  0.2486838084138085  0.5901241324038935   T   T   T
  0.2495963054816031  0.5003401417732150  0.5882081495952463   T   T   T
  0.2497595905118928  0.7500929945892878  0.5892606530417837   T   T   T
  0.2497679129044883  0.9994495476058205  0.5892785507049894   T   T   T
  0.5005258164886115  0.2495119040457112  0.5882743426194637   T   T   T
  0.5015845014341025  0.5018179105924361  0.5900862145517962   T   T   T
  0.5004381904173982  0.7507082015466366  0.5892994245444712   T   T   T
  0.4999425775242159  0.9996215001810498  0.5892914822921540   T   T   T
  0.7502733658728857  0.2500096181705302  0.5893160324872753   T   T   T
  0.7505060694357297  0.5002006470739531  0.5892715894480176   T   T   T
  0.7505265704233466  0.7505793323285275  0.5894547512290984   T   T   T
  0.7499087273903626  0.0000175912687226  0.5896859183289322   T   T   T
  0.9992142368032262  0.2495045498137642  0.5893169716928028   T   T   T
  0.9998144160404934  0.5001632213617668  0.5892457953057786   T   T   T
  0.9999507914836840  0.7500338025928457  0.5895896559653266   T   T   T
  0.9993379743021151  0.9993929172636697  0.5894707320972827   T   T   T
  0.1667367317783359  0.0834947630166525  0.4633837166502062   T   T   T
  0.1664836423783740  0.3327566863685476  0.4633145785720671   T   T   T
  0.1664691825764635  0.5835707210686252  0.4629218154074124   T   T   T
  0.1662621077795592  0.8331553080856438  0.4630623648430756   T   T   T
  0.4163540437319284  0.0828599243105188  0.4630164661469678   T   T   T
  0.4161788128561881  0.3337331092008498  0.4638569147964660   T   T   T
  0.4172034843247516  0.5835218359233991  0.4633006892956715   T   T   T
  0.4164143838197845  0.8330178344461387  0.4630890626758557   T   T   T
  0.6667589823812321  0.0833013727064653  0.4631986734650226   T   T   T
  0.6670882306977504  0.3335629540602625  0.4630166557016580   T   T   T
  0.6666169669021755  0.5833101663914917  0.4633367849983046   T   T   T
  0.6669900648671501  0.8336080607600138  0.4631761979564217   T   T   T
  0.9163335614780692  0.0829909897939203  0.4631862309414032   T   T   T
  0.9168946331758576  0.3334769376493085  0.4630918489473217   T   T   T
  0.9168199987966048  0.5837309431103037  0.4630631496356017   T   T   T
  0.9167293064590538  0.8332277031103530  0.4630628825448682   T   T   T
  0.4973584222120166  0.6224375290723216  0.7566837868303153   T   T   T
  0.6194323068698040  0.4961313412174064  0.7559694244698676   T   T   T
  0.2513967612593788  0.1321576060706064  0.7560281179254744   T   T   T
  0.1291490491880012  0.2582863404179960  0.7567340032690453   T   T   T
  0.3081607450709143  0.4455547076472470  0.7614772203048688   T   T   T
  0.4447250987542049  0.5153952832238389  0.7590651103088035   T   T   T
  0.5123941674133619  0.4455070941045420  0.7586017980625641   T   T   T
  0.4402572998323464  0.3090009806824767  0.7608504951876185   T   T   T
  0.3037370714049032  0.2392193718545101  0.7586250697393027   T   T   T
  0.2361325706904722  0.3090891296027962  0.7591104549324399   T   T   T
  0.2422849972857719  0.5136505799361402  0.7637999061958922   T   T   T
  0.5059053978057406  0.2406750370038324  0.7623055084773895   T   T   T
 
  0.00000000E+00  0.00000000E+00  0.00000000E+00
  0.00000000E+00  0.00000000E+00  0.00000000E+00
  0.00000000E+00  0.00000000E+00  0.00000000E+00
  0.00000000E+00  0.00000000E+00  0.00000000E+00
  0.00000000E+00  0.00000000E+00  0.00000000E+00
  0.00000000E+00  0.00000000E+00  0.00000000E+00
  0.00000000E+00  0.00000000E+00  0.00000000E+00
  0.00000000E+00  0.00000000E+00  0.00000000E+00
  0.00000000E+00  0.00000000E+00  0.00000000E+00
  0.00000000E+00  0.00000000E+00  0.00000000E+00
  0.00000000E+00  0.00000000E+00  0.00000000E+00
  0.00000000E+00  0.00000000E+00  0.00000000E+00
  0.00000000E+00  0.00000000E+00  0.00000000E+00
  0.00000000E+00  0.00000000E+00  0.00000000E+00
  0.00000000E+00  0.00000000E+00  0.00000000E+00
  0.00000000E+00  0.00000000E+00  0.00000000E+00
  0.00000000E+00  0.00000000E+00  0.00000000E+00
  0.00000000E+00  0.00000000E+00  0.00000000E+00
  0.00000000E+00  0.00000000E+00  0.00000000E+00
  0.00000000E+00  0.00000000E+00  0.00000000E+00
  0.00000000E+00  0.00000000E+00  0.00000000E+00
  0.00000000E+00  0.00000000E+00  0.00000000E+00
  0.00000000E+00  0.00000000E+00  0.00000000E+00
  0.00000000E+00  0.00000000E+00  0.00000000E+00
  0.00000000E+00  0.00000000E+00  0.00000000E+00
  0.00000000E+00  0.00000000E+00  0.00000000E+00
  0.00000000E+00  0.00000000E+00  0.00000000E+00
  0.00000000E+00  0.00000000E+00  0.00000000E+00
  0.00000000E+00  0.00000000E+00  0.00000000E+00
  0.00000000E+00  0.00000000E+00  0.00000000E+00
  0.00000000E+00  0.00000000E+00  0.00000000E+00
  0.00000000E+00  0.00000000E+00  0.00000000E+00
  0.00000000E+00  0.00000000E+00  0.00000000E+00
  0.00000000E+00  0.00000000E+00  0.00000000E+00
  0.00000000E+00  0.00000000E+00  0.00000000E+00
  0.00000000E+00  0.00000000E+00  0.00000000E+00
  0.00000000E+00  0.00000000E+00  0.00000000E+00
  0.00000000E+00  0.00000000E+00  0.00000000E+00
  0.00000000E+00  0.00000000E+00  0.00000000E+00
  0.00000000E+00  0.00000000E+00  0.00000000E+00
  0.00000000E+00  0.00000000E+00  0.00000000E+00
  0.00000000E+00  0.00000000E+00  0.00000000E+00
  0.00000000E+00  0.00000000E+00  0.00000000E+00
  0.00000000E+00  0.00000000E+00  0.00000000E+00
  0.00000000E+00  0.00000000E+00  0.00000000E+00
  0.00000000E+00  0.00000000E+00  0.00000000E+00
  0.00000000E+00  0.00000000E+00  0.00000000E+00
  0.00000000E+00  0.00000000E+00  0.00000000E+00
  0.00000000E+00  0.00000000E+00  0.00000000E+00
  0.00000000E+00  0.00000000E+00  0.00000000E+00
  0.00000000E+00  0.00000000E+00  0.00000000E+00
  0.00000000E+00  0.00000000E+00  0.00000000E+00
  0.00000000E+00  0.00000000E+00  0.00000000E+00
  0.00000000E+00  0.00000000E+00  0.00000000E+00
  0.00000000E+00  0.00000000E+00  0.00000000E+00
  0.00000000E+00  0.00000000E+00  0.00000000E+00
  0.00000000E+00  0.00000000E+00  0.00000000E+00
  0.00000000E+00  0.00000000E+00  0.00000000E+00
  0.00000000E+00  0.00000000E+00  0.00000000E+00
  0.00000000E+00  0.00000000E+00  0.00000000E+00
