Au  C  H Br                             
   1.00000000000000     
    11.7981859999999994    0.0000000000000000    0.0000000000000000
    -5.8990929999999997   10.2175279999999997    0.0000000000000000
     0.0000000000000000    0.0000000000000000   25.2248836799999978
   Au   C    H    Br
    64     6     4     2
Selective dynamics
Direct
  0.9999999981222629  0.7500000352335690  0.2973254543071064   F   F   F
  0.2499999923717056  0.0000000000000000  0.2973254543071064   F   F   F
  0.2500000016343193  0.2500000117445254  0.2973254543071064   F   F   F
  0.2500000117445254  0.5000000234890507  0.2973254543071064   F   F   F
  0.2500000210071391  0.7500000352335690  0.2973254543071064   F   F   F
  0.4999999847434182  0.0000000000000000  0.2973254543071064   F   F   F
  0.4999999940060320  0.2500000117445254  0.2973254543071064   F   F   F
  0.5000000041162309  0.5000000234890507  0.2973254543071064   F   F   F
  0.7499999771151238  0.0000000000000000  0.2973254543071064   F   F   F
  0.7499999863777376  0.2500000117445254  0.2973254543071064   F   F   F
  0.7499999964879436  0.5000000234890507  0.2973254543071064   F   F   F
  0.7500000057505574  0.7500000352335690  0.2973254543071064   F   F   F
  0.9999999694868364  0.0000000000000000  0.2973254543071064   F   F   F
  0.0000000092626138  0.2500000117445254  0.2973254543071064   F   F   F
  0.9999999888596491  0.5000000234890507  0.2973254543071064   F   F   F
  0.5000000133788447  0.7500000352335690  0.2973254543071064   F   F   F
  0.0833330000000032  0.1666669999999968  0.3927984241947584   F   F   F
  0.0833330000000032  0.4166669999999968  0.3927984241947584   F   F   F
  0.0833330000000032  0.6666669999999968  0.3927984241947584   F   F   F
  0.0833330000000032  0.9166669999999968  0.3927984241947584   F   F   F
  0.3333330000000032  0.1666669999999968  0.3927984241947584   F   F   F
  0.3333330000000032  0.4166669999999968  0.3927984241947584   F   F   F
  0.3333330000000032  0.6666669999999968  0.3927984241947584   F   F   F
  0.3333330000000032  0.9166669999999968  0.3927984241947584   F   F   F
  0.5833330000000032  0.1666669999999968  0.3927984241947584   F   F   F
  0.5833330000000032  0.4166669999999968  0.3927984241947584   F   F   F
  0.5833330000000032  0.6666669999999968  0.3927984241947584   F   F   F
  0.5833330000000032  0.9166669999999968  0.3927984241947584   F   F   F
  0.8333330000000032  0.1666669999999968  0.3927984241947584   F   F   F
  0.8333330000000032  0.4166669999999968  0.3927984241947584   F   F   F
  0.8333330000000032  0.6666669999999968  0.3927984241947584   F   F   F
  0.8333330000000032  0.9166669999999968  0.3927984241947584   F   F   F
  0.2484512754314699  0.2494195923132811  0.5832326062843390   T   T   T
  0.2495622181519059  0.4997835452328277  0.5814967119763939   T   T   T
  0.2490772376549940  0.7506462836025923  0.5832615967345451   T   T   T
  0.2505833903928278  0.0015807820477711  0.5833141658896210   T   T   T
  0.4999434303327608  0.2500199701772906  0.5815689536044236   T   T   T
  0.4991800155155715  0.4993929975689850  0.5812313849763806   T   T   T
  0.4998631972541722  0.7500975703805828  0.5809548219705262   T   T   T
  0.5000312963263965  0.0013876980563074  0.5831593717292252   T   T   T
  0.7497099778523729  0.2485285894769310  0.5832130394100619   T   T   T
  0.7500542134575998  0.4998660722922637  0.5809883202332214   T   T   T
  0.7515727864300208  0.7515486081262840  0.5831223828646869   T   T   T
  0.7499325040426424  0.0000799444567776  0.5844326216584498   T   T   T
 -0.0011963652805949  0.2487942433268735  0.5833287104831524   T   T   T
  0.0001042086634852  0.4999807177346204  0.5844330068074937   T   T   T
  0.0001273003354698  0.7501322533713575  0.5850012947661168   T   T   T
  0.0001286434204297  0.0000921184608178  0.5844481790118635   T   T   T
  0.1665599512960950  0.0834078492812684  0.4864190509122571   T   T   T
  0.1662351244687518  0.3330619026228558  0.4862844171620934   T   T   T
  0.1659679935862696  0.5842532165477546  0.4873148540582332   T   T   T
  0.1666488881463553  0.8347047356471503  0.4878974362015016   T   T   T
  0.4166189016028725  0.0832284638862202  0.4863466409017878   T   T   T
  0.4165159556084411  0.3332270708128673  0.4863249522662962   T   T   T
  0.4163886044881700  0.5833674473904711  0.4861723964026869   T   T   T
  0.4165540174565825  0.8334402610836257  0.4863775985795264   T   T   T
  0.6666867957749327  0.0833144296767866  0.4864058855716401   T   T   T
  0.6667723582851112  0.3333390418382344  0.4863119732241072   T   T   T
  0.6671329978796636  0.5849932455878968  0.4875438317057422   T   T   T
  0.6680978792393466  0.8347727302896988  0.4878516065246222   T   T   T
  0.9157152088044770  0.0836684049162291  0.4878349722721407   T   T   T
  0.9166700592530388  0.3347312998866054  0.4879071291816551   T   T   T
  0.9179829346037333  0.5849290669443308  0.4878320737010295   T   T   T
  0.9181278705134650  0.8347729820460832  0.4879187430244855   T   T   T
  0.6913023234944194  0.5553686799777989  0.7026682628601263   T   T   T
  0.5548111462354114  0.4857945940447132  0.7002357624347427   T   T   T
  0.4864192362052625  0.5545036924707317  0.7001536724296754   T   T   T
  0.5561386275392255  0.6909043016749006  0.7024834308086628   T   T   T
  0.6926797650468922  0.7605261071118110  0.7005037059806460   T   T   T
  0.7611017362796653  0.6917798427219973  0.7006060048620065   T   T   T
  0.5014452347133872  0.3792709952759815  0.6981115849585988   T   T   T
  0.3798599025503327  0.5012237058946626  0.6979926891033346   T   T   T
  0.7461759232336365  0.8670932689576414  0.6986809061641286   T   T   T
  0.8676833736404527  0.7450391808764454  0.6987975451202807   T   T   T
  0.7842066956483985  0.4622722980326081  0.7059702041830034   T   T   T
  0.4632729931570869  0.7842419959860719  0.7051426392011386   T   T   T
 
  0.00000000E+00  0.00000000E+00  0.00000000E+00
  0.00000000E+00  0.00000000E+00  0.00000000E+00
  0.00000000E+00  0.00000000E+00  0.00000000E+00
  0.00000000E+00  0.00000000E+00  0.00000000E+00
  0.00000000E+00  0.00000000E+00  0.00000000E+00
  0.00000000E+00  0.00000000E+00  0.00000000E+00
  0.00000000E+00  0.00000000E+00  0.00000000E+00
  0.00000000E+00  0.00000000E+00  0.00000000E+00
  0.00000000E+00  0.00000000E+00  0.00000000E+00
  0.00000000E+00  0.00000000E+00  0.00000000E+00
  0.00000000E+00  0.00000000E+00  0.00000000E+00
  0.00000000E+00  0.00000000E+00  0.00000000E+00
  0.00000000E+00  0.00000000E+00  0.00000000E+00
  0.00000000E+00  0.00000000E+00  0.00000000E+00
  0.00000000E+00  0.00000000E+00  0.00000000E+00
  0.00000000E+00  0.00000000E+00  0.00000000E+00
  0.00000000E+00  0.00000000E+00  0.00000000E+00
  0.00000000E+00  0.00000000E+00  0.00000000E+00
  0.00000000E+00  0.00000000E+00  0.00000000E+00
  0.00000000E+00  0.00000000E+00  0.00000000E+00
  0.00000000E+00  0.00000000E+00  0.00000000E+00
  0.00000000E+00  0.00000000E+00  0.00000000E+00
  0.00000000E+00  0.00000000E+00  0.00000000E+00
  0.00000000E+00  0.00000000E+00  0.00000000E+00
  0.00000000E+00  0.00000000E+00  0.00000000E+00
  0.00000000E+00  0.00000000E+00  0.00000000E+00
  0.00000000E+00  0.00000000E+00  0.00000000E+00
  0.00000000E+00  0.00000000E+00  0.00000000E+00
  0.00000000E+00  0.00000000E+00  0.00000000E+00
  0.00000000E+00  0.00000000E+00  0.00000000E+00
  0.00000000E+00  0.00000000E+00  0.00000000E+00
  0.00000000E+00  0.00000000E+00  0.00000000E+00
  0.00000000E+00  0.00000000E+00  0.00000000E+00
  0.00000000E+00  0.00000000E+00  0.00000000E+00
  0.00000000E+00  0.00000000E+00  0.00000000E+00
  0.00000000E+00  0.00000000E+00  0.00000000E+00
  0.00000000E+00  0.00000000E+00  0.00000000E+00
  0.00000000E+00  0.00000000E+00  0.00000000E+00
  0.00000000E+00  0.00000000E+00  0.00000000E+00
  0.00000000E+00  0.00000000E+00  0.00000000E+00
  0.00000000E+00  0.00000000E+00  0.00000000E+00
  0.00000000E+00  0.00000000E+00  0.00000000E+00
  0.00000000E+00  0.00000000E+00  0.00000000E+00
  0.00000000E+00  0.00000000E+00  0.00000000E+00
  0.00000000E+00  0.00000000E+00  0.00000000E+00
  0.00000000E+00  0.00000000E+00  0.00000000E+00
  0.00000000E+00  0.00000000E+00  0.00000000E+00
  0.00000000E+00  0.00000000E+00  0.00000000E+00
  0.00000000E+00  0.00000000E+00  0.00000000E+00
  0.00000000E+00  0.00000000E+00  0.00000000E+00
  0.00000000E+00  0.00000000E+00  0.00000000E+00
  0.00000000E+00  0.00000000E+00  0.00000000E+00
  0.00000000E+00  0.00000000E+00  0.00000000E+00
  0.00000000E+00  0.00000000E+00  0.00000000E+00
  0.00000000E+00  0.00000000E+00  0.00000000E+00
  0.00000000E+00  0.00000000E+00  0.00000000E+00
  0.00000000E+00  0.00000000E+00  0.00000000E+00
  0.00000000E+00  0.00000000E+00  0.00000000E+00
  0.00000000E+00  0.00000000E+00  0.00000000E+00
  0.00000000E+00  0.00000000E+00  0.00000000E+00
  0.00000000E+00  0.00000000E+00  0.00000000E+00
  0.00000000E+00  0.00000000E+00  0.00000000E+00
  0.00000000E+00  0.00000000E+00  0.00000000E+00
  0.00000000E+00  0.00000000E+00  0.00000000E+00
  0.00000000E+00  0.00000000E+00  0.00000000E+00
  0.00000000E+00  0.00000000E+00  0.00000000E+00
  0.00000000E+00  0.00000000E+00  0.00000000E+00
  0.00000000E+00  0.00000000E+00  0.00000000E+00
  0.00000000E+00  0.00000000E+00  0.00000000E+00
  0.00000000E+00  0.00000000E+00  0.00000000E+00
  0.00000000E+00  0.00000000E+00  0.00000000E+00
  0.00000000E+00  0.00000000E+00  0.00000000E+00
  0.00000000E+00  0.00000000E+00  0.00000000E+00
  0.00000000E+00  0.00000000E+00  0.00000000E+00
  0.00000000E+00  0.00000000E+00  0.00000000E+00
  0.00000000E+00  0.00000000E+00  0.00000000E+00
