Pd  C  N  F                             
    1.000000000000000     
    11.1817229999999999    0.0000000000000000    0.0000000000000000
     0.0000000000000000   11.1817229999999999    0.0000000000000000
     0.0000000000000000    0.0000000000000000   23.9300040900000006
   Pd   C    N    F 
    64     4     2     4
Selective dynamics
Direct
  0.0000000000000000  0.2499999991056825  0.3134140709626578   F   F   F
  0.7499999973170475  0.7499999973170475  0.3134140709626578   F   F   F
  0.0000000000000000  0.4999999982113650  0.3134140709626578   F   F   F
  0.0000000000000000  0.7499999973170475  0.3134140709626578   F   F   F
  0.0000000000000000  0.0000000000000000  0.3134140709626578   F   F   F
  0.2499999991056825  0.2499999991056825  0.3134140709626578   F   F   F
  0.2499999991056825  0.4999999982113650  0.3134140709626578   F   F   F
  0.7499999973170475  0.0000000000000000  0.3134140709626578   F   F   F
  0.2499999991056825  0.7499999973170475  0.3134140709626578   F   F   F
  0.2499999991056825  0.0000000000000000  0.3134140709626578   F   F   F
  0.4999999982113650  0.2499999991056825  0.3134140709626578   F   F   F
  0.4999999982113650  0.4999999982113650  0.3134140709626578   F   F   F
  0.4999999982113650  0.7499999973170475  0.3134140709626578   F   F   F
  0.4999999982113650  0.0000000000000000  0.3134140709626578   F   F   F
  0.7499999973170475  0.2499999991056825  0.3134140709626578   F   F   F
  0.7499999973170475  0.4999999982113650  0.3134140709626578   F   F   F
  0.9982913404715392  0.2496581005956931  0.4760907283233612   T   T   T
 -0.0001368130594775  0.4999990645492951  0.4757303762010140   T   T   T
  0.0016675578518927  0.7503542303214620  0.4760871795224110   T   T   T
  0.0000338996823635  0.0000053545699318  0.4760784100673633   T   T   T
  0.2506177516488261  0.2505830073110768  0.4765605187877979   T   T   T
  0.2535309116867930  0.4996762954319516  0.4783438529453108   T   T   T
  0.2535490906548591  0.7464538106187016  0.4782430723389375   T   T   T
  0.2496476435773897  0.9983277571135475  0.4760702514356231   T   T   T
  0.4997183297443992  0.2535486580611018  0.4783368842592944   T   T   T
  0.4999385706446171  0.4999510251657263  0.4795368513925201   T   T   T
  0.5003102290920314  0.7463881759088291  0.4783526306680012   T   T   T
  0.5000792458666572 -0.0000771616951163  0.4757394127077349   T   T   T
  0.7464683682087010  0.2535151889185865  0.4782459873443367   T   T   T
  0.7463419613337122  0.5002638718314371  0.4783529729835139   T   T   T
  0.7493916192095115  0.7493906061249411  0.4765800654785786   T   T   T
  0.7503760179373362  0.0016585208207003  0.4761096323186333   T   T   T
  0.1247401437004422  0.1247306553995516  0.5575946019514768   T   T   T
  0.1190831161807391  0.3745184387315706  0.5570831106631755   T   T   T
  0.1254159839702240  0.6246318849247320  0.5580619232061973   T   T   T
  0.1246559317273286  0.8753755513990392  0.5577998617061347   T   T   T
  0.3745116882347658  0.1191315038466904  0.5570720939854139   T   T   T
  0.3608733263678425  0.3608918378931887  0.5638220746520776   T   T   T
  0.3792915248746156  0.6207930694532973  0.5664968425152827   T   T   T
  0.3753516324341060  0.8745923151261270  0.5580895071004903   T   T   T
  0.6246852959577778  0.1254166924155740  0.5580945592655299   T   T   T
  0.6206688096987555  0.3792950114124058  0.5665408293417306   T   T   T
  0.6391456122787356  0.6391037203458845  0.5638248220398423   T   T   T
  0.6255353607776742  0.8808353855948984  0.5571262826770325   T   T   T
  0.8753649358769986  0.1246302929981058  0.5578111731412981   T   T   T
  0.8744728258166355  0.3753283719327423  0.5580919944533349   T   T   T
  0.8808650912857592  0.6255054166054828  0.5571076844955876   T   T   T
  0.8752899538908935  0.8752851444677940  0.5576312562588670   T   T   T
  0.1249999995528412  0.1249999995528412  0.3960161475258630   F   F   F
  0.1249999995528412  0.3749999986585237  0.3960161475258630   F   F   F
  0.1249999995528412  0.6249999977642062  0.3960161475258630   F   F   F
  0.1249999995528412  0.8749999968698887  0.3960161475258630   F   F   F
  0.3749999986585237  0.1249999995528412  0.3960161475258630   F   F   F
  0.3749999986585237  0.3749999986585237  0.3960161475258630   F   F   F
  0.3749999986585237  0.6249999977642062  0.3960161475258630   F   F   F
  0.3749999986585237  0.8749999968698887  0.3960161475258630   F   F   F
  0.6249999977642062  0.1249999995528412  0.3960161475258630   F   F   F
  0.6249999977642062  0.3749999986585237  0.3960161475258630   F   F   F
  0.6249999977642062  0.6249999977642062  0.3960161475258630   F   F   F
  0.6249999977642062  0.8749999968698887  0.3960161475258630   F   F   F
  0.8749999968698887  0.1249999995528412  0.3960161475258630   F   F   F
  0.8749999968698887  0.3749999986585237  0.3960161475258630   F   F   F
  0.8749999968698887  0.6249999977642062  0.3960161475258630   F   F   F
  0.8749999968698887  0.8749999968698887  0.3960161475258630   F   F   F
  0.5283743220823858  0.3803557639388346  0.6471572226862088   T   T   T
  0.6196376502210822  0.4716168664374280  0.6471494848720418   T   T   T
  0.4716475534143533  0.6196912844082051  0.6471344872913960   T   T   T
  0.3802886170434771  0.5284009798505892  0.6471480631719952   T   T   T
  0.5900802275888705  0.5900771516067207  0.6455886058007758   T   T   T
  0.4099440081196897  0.4098941971328300  0.6455845699276810   T   T   T
  0.2733613242866846  0.5517224351033758  0.6725453519587156   T   T   T
  0.4483083475311989  0.7266571779414851  0.6725499763183562   T   T   T
  0.5516743986115661  0.2733521867529178  0.6725692055893485   T   T   T
  0.7266562297501789  0.4483166524393900  0.6725555937565750   T   T   T
 
  0.00000000E+00  0.00000000E+00  0.00000000E+00
  0.00000000E+00  0.00000000E+00  0.00000000E+00
  0.00000000E+00  0.00000000E+00  0.00000000E+00
  0.00000000E+00  0.00000000E+00  0.00000000E+00
  0.00000000E+00  0.00000000E+00  0.00000000E+00
  0.00000000E+00  0.00000000E+00  0.00000000E+00
  0.00000000E+00  0.00000000E+00  0.00000000E+00
  0.00000000E+00  0.00000000E+00  0.00000000E+00
  0.00000000E+00  0.00000000E+00  0.00000000E+00
  0.00000000E+00  0.00000000E+00  0.00000000E+00
  0.00000000E+00  0.00000000E+00  0.00000000E+00
  0.00000000E+00  0.00000000E+00  0.00000000E+00
  0.00000000E+00  0.00000000E+00  0.00000000E+00
  0.00000000E+00  0.00000000E+00  0.00000000E+00
  0.00000000E+00  0.00000000E+00  0.00000000E+00
  0.00000000E+00  0.00000000E+00  0.00000000E+00
  0.00000000E+00  0.00000000E+00  0.00000000E+00
  0.00000000E+00  0.00000000E+00  0.00000000E+00
  0.00000000E+00  0.00000000E+00  0.00000000E+00
  0.00000000E+00  0.00000000E+00  0.00000000E+00
  0.00000000E+00  0.00000000E+00  0.00000000E+00
  0.00000000E+00  0.00000000E+00  0.00000000E+00
  0.00000000E+00  0.00000000E+00  0.00000000E+00
  0.00000000E+00  0.00000000E+00  0.00000000E+00
  0.00000000E+00  0.00000000E+00  0.00000000E+00
  0.00000000E+00  0.00000000E+00  0.00000000E+00
  0.00000000E+00  0.00000000E+00  0.00000000E+00
  0.00000000E+00  0.00000000E+00  0.00000000E+00
  0.00000000E+00  0.00000000E+00  0.00000000E+00
  0.00000000E+00  0.00000000E+00  0.00000000E+00
  0.00000000E+00  0.00000000E+00  0.00000000E+00
  0.00000000E+00  0.00000000E+00  0.00000000E+00
  0.00000000E+00  0.00000000E+00  0.00000000E+00
  0.00000000E+00  0.00000000E+00  0.00000000E+00
  0.00000000E+00  0.00000000E+00  0.00000000E+00
  0.00000000E+00  0.00000000E+00  0.00000000E+00
  0.00000000E+00  0.00000000E+00  0.00000000E+00
  0.00000000E+00  0.00000000E+00  0.00000000E+00
  0.00000000E+00  0.00000000E+00  0.00000000E+00
  0.00000000E+00  0.00000000E+00  0.00000000E+00
  0.00000000E+00  0.00000000E+00  0.00000000E+00
  0.00000000E+00  0.00000000E+00  0.00000000E+00
  0.00000000E+00  0.00000000E+00  0.00000000E+00
  0.00000000E+00  0.00000000E+00  0.00000000E+00
  0.00000000E+00  0.00000000E+00  0.00000000E+00
  0.00000000E+00  0.00000000E+00  0.00000000E+00
  0.00000000E+00  0.00000000E+00  0.00000000E+00
  0.00000000E+00  0.00000000E+00  0.00000000E+00
  0.00000000E+00  0.00000000E+00  0.00000000E+00
  0.00000000E+00  0.00000000E+00  0.00000000E+00
  0.00000000E+00  0.00000000E+00  0.00000000E+00
  0.00000000E+00  0.00000000E+00  0.00000000E+00
  0.00000000E+00  0.00000000E+00  0.00000000E+00
  0.00000000E+00  0.00000000E+00  0.00000000E+00
  0.00000000E+00  0.00000000E+00  0.00000000E+00
  0.00000000E+00  0.00000000E+00  0.00000000E+00
  0.00000000E+00  0.00000000E+00  0.00000000E+00
  0.00000000E+00  0.00000000E+00  0.00000000E+00
  0.00000000E+00  0.00000000E+00  0.00000000E+00
  0.00000000E+00  0.00000000E+00  0.00000000E+00
  0.00000000E+00  0.00000000E+00  0.00000000E+00
  0.00000000E+00  0.00000000E+00  0.00000000E+00
  0.00000000E+00  0.00000000E+00  0.00000000E+00
  0.00000000E+00  0.00000000E+00  0.00000000E+00
  0.00000000E+00  0.00000000E+00  0.00000000E+00
  0.00000000E+00  0.00000000E+00  0.00000000E+00
  0.00000000E+00  0.00000000E+00  0.00000000E+00
  0.00000000E+00  0.00000000E+00  0.00000000E+00
  0.00000000E+00  0.00000000E+00  0.00000000E+00
  0.00000000E+00  0.00000000E+00  0.00000000E+00
  0.00000000E+00  0.00000000E+00  0.00000000E+00
  0.00000000E+00  0.00000000E+00  0.00000000E+00
  0.00000000E+00  0.00000000E+00  0.00000000E+00
  0.00000000E+00  0.00000000E+00  0.00000000E+00
