Cu48 C6 F2 H4                           
    1.000000000000000     
    10.2424774999999997    0.0000000000000000    0.0000000000000000
     0.0000000000000000   14.4850505999999992    0.0000000000000000
     0.0000000000000000    0.0000000000000000   15.4656703699999998
   Cu   C    F    H 
    48     6     2     4
Selective dynamics
Direct
  0.2500887336337954  0.2501383119315506  0.4027019172451887   T   T   T
  0.2502689152287587  0.5000733493442482  0.4028796183927099   T   T   T
  0.2503535323359998  0.7495285505640794  0.4032121354337264   T   T   T
  0.2500467389657146  0.0000431799178315  0.4027950846154909   T   T   T
  0.5001972169806521  0.2504048450431355  0.4029890403059539   T   T   T
  0.4999992563123641  0.4999976399587283  0.4022282061926674   T   T   T
  0.4997971636463774  0.7495782839455742  0.4030506471499962   T   T   T
  0.4999966316953035  0.0000183382963002  0.4028395186718328   T   T   T
  0.7496353877208222  0.2504686258144346  0.4031782396615213   T   T   T
  0.7497327846783648  0.4999232812808927  0.4028762098336074   T   T   T
  0.7499249981928457  0.7498566788440684  0.4027185172066510   T   T   T
  0.7499536395728654  0.9999668100889352  0.4027838890796147   T   T   T
  0.9999601158201230  0.2500403781956493  0.4027409411521532   T   T   T
  0.9999995216007562  0.4999992112944724  0.4028869195903937   T   T   T
  0.0000425314859669  0.7499682627475437  0.4027317732381874   T   T   T
  0.0000027834662433  0.9999913465720454  0.4026610089574589   T   T   T
  0.1250163469369099  0.1250906216989733  0.4819905230365293   T   T   T
  0.1248801892208036  0.3751102871899761  0.4820371931117364   T   T   T
  0.1251219918859618  0.6248406886469553  0.4819827687043983   T   T   T
  0.1250981009383239  0.8749137655978387  0.4820318048727472   T   T   T
  0.3750652022311485  0.1252400987537570  0.4820201892911129   T   T   T
  0.3749782548128948  0.3752681911649702  0.4821511710619717   T   T   T
  0.3753536756141642  0.6240429711504660  0.4836823975037063   T   T   T
  0.3750132145563470  0.8748358204815645  0.4820018231926824   T   T   T
  0.6250044573114337  0.1251960292770917  0.4819902101096289   T   T   T
  0.6246390070438608  0.3759239779154342  0.4836591447976701   T   T   T
  0.6250402422845553  0.6247005759885624  0.4821652470940450   T   T   T
  0.6249257137967064  0.8747913828576230  0.4820205349020625   T   T   T
  0.8749108697736716  0.1250961101007562  0.4820467524839671   T   T   T
  0.8748608466710266  0.3751409244957031  0.4819721659294345   T   T   T
  0.8751283189194581  0.6248791740528929  0.4820395478100963   T   T   T
  0.8749656092305003  0.8749261535506818  0.4819785843673188   T   T   T
  0.1250000002440785  0.1249999996548183  0.3232966874619834   F   F   F
  0.1250000002440785  0.3749999989644479  0.3232966874619834   F   F   F
  0.1250000002440785  0.6249999982740846  0.3232966874619834   F   F   F
  0.1250000002440785  0.8749999975837142  0.3232966874619834   F   F   F
  0.3749999997559215  0.1249999996548183  0.3232966874619834   F   F   F
  0.3749999997559215  0.3749999989644479  0.3232966874619834   F   F   F
  0.3749999997559215  0.6249999982740846  0.3232966874619834   F   F   F
  0.3749999997559215  0.8749999975837142  0.3232966874619834   F   F   F
  0.6249999982914289  0.1249999996548183  0.3232966874619834   F   F   F
  0.6249999992677573  0.3749999989644479  0.3232966874619834   F   F   F
  0.6249999992677573  0.6249999982740846  0.3232966874619834   F   F   F
  0.6249999992677573  0.8749999975837142  0.3232966874619834   F   F   F
  0.8749999987795931  0.1249999996548183  0.3232966874619834   F   F   F
  0.8749999978032648  0.3749999989644479  0.3232966874619834   F   F   F
  0.8749999987795931  0.6249999982740846  0.3232966874619834   F   F   F
  0.8749999987795931  0.8749999975837142  0.3232966874619834   F   F   F
  0.5771703515591824  0.5769279802260385  0.6754077757846630   T   T   T
  0.6367811209238212  0.4907374715928654  0.6752098960102586   T   T   T
  0.5579111414571187  0.4118539807548629  0.6747135406727196   T   T   T
  0.4227918543479774  0.4230323844637027  0.6754488031913013   T   T   T
  0.3631809145455023  0.5092245907168831  0.6752396322523424   T   T   T
  0.4420586864158622  0.5880955029947117  0.6746769635236731   T   T   T
  0.6541160919876674  0.6539826465541410  0.6774536715331934   T   T   T
  0.3458021226908983  0.3459982237023809  0.6775464693913591   T   T   T
  0.7428406375350249  0.4855927040287114  0.6758861150380113   T   T   T
  0.6000159956504660  0.3427168041418582  0.6766176578877108   T   T   T
  0.2571165038811287  0.5144092025687428  0.6759309679314001   T   T   T
  0.4000059393825381  0.6572423007358310  0.6765537213206869   T   T   T
 
  0.00000000E+00  0.00000000E+00  0.00000000E+00
  0.00000000E+00  0.00000000E+00  0.00000000E+00
  0.00000000E+00  0.00000000E+00  0.00000000E+00
  0.00000000E+00  0.00000000E+00  0.00000000E+00
  0.00000000E+00  0.00000000E+00  0.00000000E+00
  0.00000000E+00  0.00000000E+00  0.00000000E+00
  0.00000000E+00  0.00000000E+00  0.00000000E+00
  0.00000000E+00  0.00000000E+00  0.00000000E+00
  0.00000000E+00  0.00000000E+00  0.00000000E+00
  0.00000000E+00  0.00000000E+00  0.00000000E+00
  0.00000000E+00  0.00000000E+00  0.00000000E+00
  0.00000000E+00  0.00000000E+00  0.00000000E+00
  0.00000000E+00  0.00000000E+00  0.00000000E+00
  0.00000000E+00  0.00000000E+00  0.00000000E+00
  0.00000000E+00  0.00000000E+00  0.00000000E+00
  0.00000000E+00  0.00000000E+00  0.00000000E+00
  0.00000000E+00  0.00000000E+00  0.00000000E+00
  0.00000000E+00  0.00000000E+00  0.00000000E+00
  0.00000000E+00  0.00000000E+00  0.00000000E+00
  0.00000000E+00  0.00000000E+00  0.00000000E+00
  0.00000000E+00  0.00000000E+00  0.00000000E+00
  0.00000000E+00  0.00000000E+00  0.00000000E+00
  0.00000000E+00  0.00000000E+00  0.00000000E+00
  0.00000000E+00  0.00000000E+00  0.00000000E+00
  0.00000000E+00  0.00000000E+00  0.00000000E+00
  0.00000000E+00  0.00000000E+00  0.00000000E+00
  0.00000000E+00  0.00000000E+00  0.00000000E+00
  0.00000000E+00  0.00000000E+00  0.00000000E+00
  0.00000000E+00  0.00000000E+00  0.00000000E+00
  0.00000000E+00  0.00000000E+00  0.00000000E+00
  0.00000000E+00  0.00000000E+00  0.00000000E+00
  0.00000000E+00  0.00000000E+00  0.00000000E+00
  0.00000000E+00  0.00000000E+00  0.00000000E+00
  0.00000000E+00  0.00000000E+00  0.00000000E+00
  0.00000000E+00  0.00000000E+00  0.00000000E+00
  0.00000000E+00  0.00000000E+00  0.00000000E+00
  0.00000000E+00  0.00000000E+00  0.00000000E+00
  0.00000000E+00  0.00000000E+00  0.00000000E+00
  0.00000000E+00  0.00000000E+00  0.00000000E+00
  0.00000000E+00  0.00000000E+00  0.00000000E+00
  0.00000000E+00  0.00000000E+00  0.00000000E+00
  0.00000000E+00  0.00000000E+00  0.00000000E+00
  0.00000000E+00  0.00000000E+00  0.00000000E+00
  0.00000000E+00  0.00000000E+00  0.00000000E+00
  0.00000000E+00  0.00000000E+00  0.00000000E+00
  0.00000000E+00  0.00000000E+00  0.00000000E+00
  0.00000000E+00  0.00000000E+00  0.00000000E+00
  0.00000000E+00  0.00000000E+00  0.00000000E+00
  0.00000000E+00  0.00000000E+00  0.00000000E+00
  0.00000000E+00  0.00000000E+00  0.00000000E+00
  0.00000000E+00  0.00000000E+00  0.00000000E+00
  0.00000000E+00  0.00000000E+00  0.00000000E+00
  0.00000000E+00  0.00000000E+00  0.00000000E+00
  0.00000000E+00  0.00000000E+00  0.00000000E+00
  0.00000000E+00  0.00000000E+00  0.00000000E+00
  0.00000000E+00  0.00000000E+00  0.00000000E+00
  0.00000000E+00  0.00000000E+00  0.00000000E+00
  0.00000000E+00  0.00000000E+00  0.00000000E+00
  0.00000000E+00  0.00000000E+00  0.00000000E+00
  0.00000000E+00  0.00000000E+00  0.00000000E+00
