Pt  C  H Br                             
    1.000000000000000     
    11.2480068000000006    0.0000000000000000    0.0000000000000000
     0.0000000000000000   15.9070838000000006    0.0000000000000000
     0.0000000000000000    0.0000000000000000   22.2180025631249976
   Pt   C    H    Br
    64     6     2     4
Selective dynamics
Direct
  0.2500000008890453  0.2500000006286527  0.3375640982438100   F   F   F
  0.2500000008890453  0.5000000006286527  0.3375640982438100   F   F   F
  0.2500000008890453  0.7500000012572983  0.3375640982438100   F   F   F
  0.2500000008890453  0.0000000000000000  0.3375640982438100   F   F   F
  0.5000000017780906  0.5000000006286527  0.3375640982438100   F   F   F
  0.0000000035561882  0.0000000000000000  0.3375640982438100   F   F   F
  0.5000000017780906  0.7500000012572983  0.3375640982438100   F   F   F
  0.5000000017780906  0.0000000000000000  0.3375640982438100   F   F   F
  0.7500000026671358  0.0000000000000000  0.3375640982438100   F   F   F
  0.0000000035561882  0.7500000012572983  0.3375640982438100   F   F   F
  0.5000000017780906  0.2500000006286527  0.3375640982438100   F   F   F
  0.7500000026671358  0.2500000006286527  0.3375640982438100   F   F   F
  0.7500000026671358  0.5000000006286527  0.3375640982438100   F   F   F
  0.7500000026671358  0.7500000012572983  0.3375640982438100   F   F   F
  0.0000000035561882  0.2500000006286527  0.3375640982438100   F   F   F
  0.0000000035561882  0.5000000006286527  0.3375640982438100   F   F   F
  0.2505495135791813  0.2532613687469002  0.4688284242552549   T   T   T
  0.2483287770249991  0.4985901795919042  0.4648288638172134   T   T   T
  0.2500812788397321  0.7504038626775557  0.4671059768282791   T   T   T
  0.2500009788029582  0.9995634633671416  0.4681461397439430   T   T   T
  0.4993328738464587  0.2531630834132427  0.4679039496717284   T   T   T
  0.4999945779610243  0.4991279800354157  0.4626195796780107   T   T   T
  0.5017469336411233  0.7496015374589768  0.4677667167929536   T   T   T
  0.4997409975587772  0.9993507183741462  0.4675480442338068   T   T   T
  0.7499507185798000  0.2562624692966168  0.4698986066977713   T   T   T
  0.7498735404249500  0.4996604248145033  0.4641749688515426   T   T   T
  0.7532027252207913  0.7472582403378444  0.4691770566355274   T   T   T
  0.7514448948563648 -0.0003760102594580  0.4675181890801660   T   T   T
  0.9986645000638640  0.2535320650367211  0.4687685463032027   T   T   T
  0.0022149791847153  0.4989665431113083  0.4643938432391110   T   T   T
  0.0001399220540989  0.7462782200902822  0.4696686767975317   T   T   T
  0.0008573660562581  0.9999317814936358  0.4681887266712891   T   T   T
  0.1252322753016056  0.1271514769294476  0.5243706062911148   T   T   T
  0.1251390901110813  0.3753743319936233  0.5272124515988577   T   T   T
  0.1260975686047597  0.6238201832308083  0.5286867441952202   T   T   T
  0.1254554541470284  0.8733906822620769  0.5255408901875804   T   T   T
  0.3734485183280673  0.1263682170460528  0.5251554786316410   T   T   T
  0.3718591790658522  0.3818204020857704  0.5301491865994176   T   T   T
  0.3752888218356393  0.6210125042555281  0.5243925904160434   T   T   T
  0.3766854434728544  0.8735424131560807  0.5259735002757572   T   T   T
  0.6254191502190506  0.1269703443885801  0.5235358405241306   T   T   T
  0.6192843735904643  0.3820346875685289  0.5314257607155205   T   T   T
  0.6316205926550770  0.6253578381783969  0.5288514646446557   T   T   T
  0.6271242489398605  0.8737248179970150  0.5253329829571509   T   T   T
  0.8765914741557634  0.1270323355762725  0.5247874102908830   T   T   T
  0.8733628080794456  0.3811722549757561  0.5306188876798159   T   T   T
  0.8784197605324833  0.6171062673978065  0.5307018008589991   T   T   T
  0.8762956812928177  0.8738097729160572  0.5250698189370652   T   T   T
  0.1250000000000000  0.1250000003143228  0.4008461529820977   F   F   F
  0.1250000000000000  0.3750000003143228  0.4008461529820977   F   F   F
  0.1250000008890453  0.6250000009429755  0.4008461529820977   F   F   F
  0.1250000008890453  0.8750000009429755  0.4008461529820977   F   F   F
  0.3750000008890453  0.1250000003143228  0.4008461529820977   F   F   F
  0.3750000008890453  0.3750000003143228  0.4008461529820977   F   F   F
  0.3750000008890453  0.6250000009429755  0.4008461529820977   F   F   F
  0.3750000008890453  0.8750000009429755  0.4008461529820977   F   F   F
  0.6250000017780906  0.1250000003143228  0.4008461529820977   F   F   F
  0.6250000017780906  0.3750000003143228  0.4008461529820977   F   F   F
  0.6250000017780906  0.6250000009429755  0.4008461529820977   F   F   F
  0.6250000026671358  0.8750000009429755  0.4008461529820977   F   F   F
  0.8750000026671358  0.1250000003143228  0.4008461529820977   F   F   F
  0.8750000026671358  0.3750000003143228  0.4008461529820977   F   F   F
  0.8750000035561882  0.6250000009429755  0.4008461529820977   F   F   F
  0.8750000026671358  0.8750000009429755  0.4008461529820977   F   F   F
  0.4193329402810886  0.4606831098425903  0.6023049514396417   T   T   T
  0.3604078509742452  0.5469428687700877  0.6016690585907362   T   T   T
  0.4233344472622756  0.6260683027716596  0.6152924989366219   T   T   T
  0.5540762224992996  0.6204499271434649  0.6184146283700394   T   T   T
  0.6008175711606235  0.5434706640145405  0.5956779363682911   T   T   T
  0.5496178613392162  0.4670874065936376  0.5877005400336105   T   T   T
  0.3955849787091082  0.4236897387868912  0.6425904756349607   T   T   T
  0.6020476524914719  0.6610433012357164  0.6497168895467925   T   T   T
  0.1878602267030550  0.5431215833216643  0.6221781509695061   T   T   T
  0.3544196119678224  0.7190902043403142  0.6587584005897219   T   T   T
  0.8817856598063851  0.4982559773222097  0.6069009315179674   T   T   T
  0.6251162601456036  0.1417404722209776  0.6304267444288185   T   T   T
 
  0.00000000E+00  0.00000000E+00  0.00000000E+00
  0.00000000E+00  0.00000000E+00  0.00000000E+00
  0.00000000E+00  0.00000000E+00  0.00000000E+00
  0.00000000E+00  0.00000000E+00  0.00000000E+00
  0.00000000E+00  0.00000000E+00  0.00000000E+00
  0.00000000E+00  0.00000000E+00  0.00000000E+00
  0.00000000E+00  0.00000000E+00  0.00000000E+00
  0.00000000E+00  0.00000000E+00  0.00000000E+00
  0.00000000E+00  0.00000000E+00  0.00000000E+00
  0.00000000E+00  0.00000000E+00  0.00000000E+00
  0.00000000E+00  0.00000000E+00  0.00000000E+00
  0.00000000E+00  0.00000000E+00  0.00000000E+00
  0.00000000E+00  0.00000000E+00  0.00000000E+00
  0.00000000E+00  0.00000000E+00  0.00000000E+00
  0.00000000E+00  0.00000000E+00  0.00000000E+00
  0.00000000E+00  0.00000000E+00  0.00000000E+00
  0.00000000E+00  0.00000000E+00  0.00000000E+00
  0.00000000E+00  0.00000000E+00  0.00000000E+00
  0.00000000E+00  0.00000000E+00  0.00000000E+00
  0.00000000E+00  0.00000000E+00  0.00000000E+00
  0.00000000E+00  0.00000000E+00  0.00000000E+00
  0.00000000E+00  0.00000000E+00  0.00000000E+00
  0.00000000E+00  0.00000000E+00  0.00000000E+00
  0.00000000E+00  0.00000000E+00  0.00000000E+00
  0.00000000E+00  0.00000000E+00  0.00000000E+00
  0.00000000E+00  0.00000000E+00  0.00000000E+00
  0.00000000E+00  0.00000000E+00  0.00000000E+00
  0.00000000E+00  0.00000000E+00  0.00000000E+00
  0.00000000E+00  0.00000000E+00  0.00000000E+00
  0.00000000E+00  0.00000000E+00  0.00000000E+00
  0.00000000E+00  0.00000000E+00  0.00000000E+00
  0.00000000E+00  0.00000000E+00  0.00000000E+00
  0.00000000E+00  0.00000000E+00  0.00000000E+00
  0.00000000E+00  0.00000000E+00  0.00000000E+00
  0.00000000E+00  0.00000000E+00  0.00000000E+00
  0.00000000E+00  0.00000000E+00  0.00000000E+00
  0.00000000E+00  0.00000000E+00  0.00000000E+00
  0.00000000E+00  0.00000000E+00  0.00000000E+00
  0.00000000E+00  0.00000000E+00  0.00000000E+00
  0.00000000E+00  0.00000000E+00  0.00000000E+00
  0.00000000E+00  0.00000000E+00  0.00000000E+00
  0.00000000E+00  0.00000000E+00  0.00000000E+00
  0.00000000E+00  0.00000000E+00  0.00000000E+00
  0.00000000E+00  0.00000000E+00  0.00000000E+00
  0.00000000E+00  0.00000000E+00  0.00000000E+00
  0.00000000E+00  0.00000000E+00  0.00000000E+00
  0.00000000E+00  0.00000000E+00  0.00000000E+00
  0.00000000E+00  0.00000000E+00  0.00000000E+00
  0.00000000E+00  0.00000000E+00  0.00000000E+00
  0.00000000E+00  0.00000000E+00  0.00000000E+00
  0.00000000E+00  0.00000000E+00  0.00000000E+00
  0.00000000E+00  0.00000000E+00  0.00000000E+00
  0.00000000E+00  0.00000000E+00  0.00000000E+00
  0.00000000E+00  0.00000000E+00  0.00000000E+00
  0.00000000E+00  0.00000000E+00  0.00000000E+00
  0.00000000E+00  0.00000000E+00  0.00000000E+00
  0.00000000E+00  0.00000000E+00  0.00000000E+00
  0.00000000E+00  0.00000000E+00  0.00000000E+00
  0.00000000E+00  0.00000000E+00  0.00000000E+00
  0.00000000E+00  0.00000000E+00  0.00000000E+00
  0.00000000E+00  0.00000000E+00  0.00000000E+00
  0.00000000E+00  0.00000000E+00  0.00000000E+00
  0.00000000E+00  0.00000000E+00  0.00000000E+00
  0.00000000E+00  0.00000000E+00  0.00000000E+00
  0.00000000E+00  0.00000000E+00  0.00000000E+00
  0.00000000E+00  0.00000000E+00  0.00000000E+00
  0.00000000E+00  0.00000000E+00  0.00000000E+00
  0.00000000E+00  0.00000000E+00  0.00000000E+00
  0.00000000E+00  0.00000000E+00  0.00000000E+00
  0.00000000E+00  0.00000000E+00  0.00000000E+00
  0.00000000E+00  0.00000000E+00  0.00000000E+00
  0.00000000E+00  0.00000000E+00  0.00000000E+00
  0.00000000E+00  0.00000000E+00  0.00000000E+00
  0.00000000E+00  0.00000000E+00  0.00000000E+00
  0.00000000E+00  0.00000000E+00  0.00000000E+00
  0.00000000E+00  0.00000000E+00  0.00000000E+00
