Rh  C  H Br                             
   1.00000000000000     
    10.8721879999999995    0.0000000000000000    0.0000000000000000
    -5.4360939999999998    9.4155909999999992    0.0000000000000000
     0.0000000000000000    0.0000000000000000   24.6578279400000042
   Rh   C    H    Br
    64     6     4     2
Selective dynamics
Direct
  0.9999999559446024  0.7499999670758868  0.3041630438110658   F   F   F
  0.2499999889626636  0.0000000000000000  0.3041630438110658   F   F   F
  0.2499999891709876  0.2499999893793188  0.3041630438110658   F   F   F
  0.2499999888482805  0.4999999776965680  0.3041630438110658   F   F   F
  0.2499999890566116  0.7499999670758868  0.3041630438110658   F   F   F
  0.4999999779253272  0.0000000000000000  0.3041630438110658   F   F   F
  0.4999999781336513  0.2499999893793188  0.3041630438110658   F   F   F
  0.4999999778109441  0.4999999776965680  0.3041630438110658   F   F   F
  0.7499999668879909  0.0000000000000000  0.3041630438110658   F   F   F
  0.7499999670963149  0.2499999893793188  0.3041630438110658   F   F   F
  0.7499999667736077  0.4999999776965680  0.3041630438110658   F   F   F
  0.7499999669819388  0.7499999670758868  0.3041630438110658   F   F   F
  0.0000000000000000  0.0000000000000000  0.3041630438110658   F   F   F
  0.9999999560589785  0.2499999893793188  0.3041630438110658   F   F   F
  0.9999999998856168  0.4999999776965680  0.3041630438110658   F   F   F
  0.4999999780192752  0.7499999670758868  0.3041630438110658   F   F   F
  0.0833330000000032  0.1666669999999968  0.3941659420955475   F   F   F
  0.0833330000000032  0.4166669999999968  0.3941659420955475   F   F   F
  0.0833330000000032  0.6666669999999968  0.3941659420955475   F   F   F
  0.0833330000000032  0.9166669999999968  0.3941659420955475   F   F   F
  0.3333330000000032  0.1666669999999968  0.3941659420955475   F   F   F
  0.3333330000000032  0.4166669999999968  0.3941659420955475   F   F   F
  0.3333330000000032  0.6666669999999968  0.3941659420955475   F   F   F
  0.3333330000000032  0.9166669999999968  0.3941659420955475   F   F   F
  0.5833330000000032  0.1666669999999968  0.3941659420955475   F   F   F
  0.5833330000000032  0.4166669999999968  0.3941659420955475   F   F   F
  0.5833330000000032  0.6666669999999968  0.3941659420955475   F   F   F
  0.5833330000000032  0.9166669999999968  0.3941659420955475   F   F   F
  0.8333330000000032  0.1666669999999968  0.3941659420955475   F   F   F
  0.8333330000000032  0.4166669999999968  0.3941659420955475   F   F   F
  0.8333330000000032  0.6666669999999968  0.3941659420955475   F   F   F
  0.8333330000000032  0.9166669999999968  0.3941659420955475   F   F   F
  0.9971856587958399  0.9968854324310764  0.5654225653459788   T   T   T
  0.9953723296706992  0.2480908668996571  0.5656667659347562   T   T   T
  0.0000928253671599  0.4997257071583087  0.5660802868895582   T   T   T
  0.0009537168953793  0.7495973499319400  0.5656145223389963   T   T   T
  0.2474078437384482  0.9951063135296930  0.5654858156863910   T   T   T
  0.2427711667385775  0.2423792008895752  0.5688606555361854   T   T   T
  0.2515876438248734  0.4986092914548648  0.5686119798911007   T   T   T
  0.2506815458543645  0.7496101582331083  0.5660849428097876   T   T   T
  0.5001093217091159  0.0004260769606456  0.5661555864536986   T   T   T
  0.4985513978501944  0.2512101280658838  0.5687182398283454   T   T   T
  0.5074552705045160  0.5070163688622511  0.5688146027070604   T   T   T
  0.5020297420855471  0.7544208160031555  0.5656683969360200   T   T   T
  0.7500333021754220  0.0000905662794534  0.5655859853861761   T   T   T
  0.7490273462843798  0.2497547132028460  0.5661633344857118   T   T   T
  0.7548061844717693  0.5026846016350831  0.5655412289187455   T   T   T
  0.7534977608655254  0.7531824794915121  0.5655739824332691   T   T   T
  0.1671761725626432  0.0842054243756613  0.4799069013134131   T   T   T
  0.1677987404937465  0.3338385937565070  0.4802289348237116   T   T   T
  0.1678820773600259  0.5819898970162605  0.4803462158801556   T   T   T
  0.1678047776736595  0.8333154041817632  0.4795784562499150   T   T   T
  0.4170929617961313  0.0848377281495620  0.4801939344873379   T   T   T
  0.4162199991141280  0.3337834956257167  0.4804547758587330   T   T   T
  0.4163524882206461  0.5823528155922569  0.4801803689793557   T   T   T
  0.4168533776804730  0.8334487946743430  0.4798650810487431   T   T   T
  0.6663239347372144  0.0835889416808341  0.4798907923066698   T   T   T
  0.6648871359697269  0.3329845244594611  0.4802357438070451   T   T   T
  0.6658908065634406  0.5829622358615925  0.4799819531015769   T   T   T
  0.6662257211259766  0.8328048341827631  0.4794290791512172   T   T   T
  0.9169594646422224  0.0836251075044626  0.4795419220700630   T   T   T
  0.9165082179713498  0.3332779280547192  0.4799088060837118   T   T   T
  0.9167872919791069  0.5825056861911706  0.4797204558622568   T   T   T
  0.9169170703510906  0.8330112337829036  0.4793829064917263   T   T   T
  0.2968563766529571  0.4531950468705759  0.6475028102344251   T   T   T
  0.4526255977908277  0.5261980155877567  0.6511245571504488   T   T   T
  0.5287477354225938  0.4499483924753246  0.6509824862379219   T   T   T
  0.4556426388048352  0.2938850447815626  0.6477671089787477   T   T   T
  0.2996212082031842  0.2212351508571577  0.6509301259032180   T   T   T
  0.2234627558322289  0.2973748798999121  0.6511155186102079   T   T   T
  0.5071564186853260  0.6362369335999092  0.6652216256054717   T   T   T
  0.6389011306048723  0.5050415538091190  0.6649365733142937   T   T   T
  0.2445892043949356  0.1110732881344772  0.6648973787045388   T   T   T
  0.1135001710214223  0.2428635646354256  0.6652585312576741   T   T   T
  0.2101889264249815  0.5411351859292478  0.6923421382082138   T   T   T
  0.5399941109354151  0.2068077277088969  0.6941377124555648   T   T   T
 
  0.00000000E+00  0.00000000E+00  0.00000000E+00
  0.00000000E+00  0.00000000E+00  0.00000000E+00
  0.00000000E+00  0.00000000E+00  0.00000000E+00
  0.00000000E+00  0.00000000E+00  0.00000000E+00
  0.00000000E+00  0.00000000E+00  0.00000000E+00
  0.00000000E+00  0.00000000E+00  0.00000000E+00
  0.00000000E+00  0.00000000E+00  0.00000000E+00
  0.00000000E+00  0.00000000E+00  0.00000000E+00
  0.00000000E+00  0.00000000E+00  0.00000000E+00
  0.00000000E+00  0.00000000E+00  0.00000000E+00
  0.00000000E+00  0.00000000E+00  0.00000000E+00
  0.00000000E+00  0.00000000E+00  0.00000000E+00
  0.00000000E+00  0.00000000E+00  0.00000000E+00
  0.00000000E+00  0.00000000E+00  0.00000000E+00
  0.00000000E+00  0.00000000E+00  0.00000000E+00
  0.00000000E+00  0.00000000E+00  0.00000000E+00
  0.00000000E+00  0.00000000E+00  0.00000000E+00
  0.00000000E+00  0.00000000E+00  0.00000000E+00
  0.00000000E+00  0.00000000E+00  0.00000000E+00
  0.00000000E+00  0.00000000E+00  0.00000000E+00
  0.00000000E+00  0.00000000E+00  0.00000000E+00
  0.00000000E+00  0.00000000E+00  0.00000000E+00
  0.00000000E+00  0.00000000E+00  0.00000000E+00
  0.00000000E+00  0.00000000E+00  0.00000000E+00
  0.00000000E+00  0.00000000E+00  0.00000000E+00
  0.00000000E+00  0.00000000E+00  0.00000000E+00
  0.00000000E+00  0.00000000E+00  0.00000000E+00
  0.00000000E+00  0.00000000E+00  0.00000000E+00
  0.00000000E+00  0.00000000E+00  0.00000000E+00
  0.00000000E+00  0.00000000E+00  0.00000000E+00
  0.00000000E+00  0.00000000E+00  0.00000000E+00
  0.00000000E+00  0.00000000E+00  0.00000000E+00
  0.00000000E+00  0.00000000E+00  0.00000000E+00
  0.00000000E+00  0.00000000E+00  0.00000000E+00
  0.00000000E+00  0.00000000E+00  0.00000000E+00
  0.00000000E+00  0.00000000E+00  0.00000000E+00
  0.00000000E+00  0.00000000E+00  0.00000000E+00
  0.00000000E+00  0.00000000E+00  0.00000000E+00
  0.00000000E+00  0.00000000E+00  0.00000000E+00
  0.00000000E+00  0.00000000E+00  0.00000000E+00
  0.00000000E+00  0.00000000E+00  0.00000000E+00
  0.00000000E+00  0.00000000E+00  0.00000000E+00
  0.00000000E+00  0.00000000E+00  0.00000000E+00
  0.00000000E+00  0.00000000E+00  0.00000000E+00
  0.00000000E+00  0.00000000E+00  0.00000000E+00
  0.00000000E+00  0.00000000E+00  0.00000000E+00
  0.00000000E+00  0.00000000E+00  0.00000000E+00
  0.00000000E+00  0.00000000E+00  0.00000000E+00
  0.00000000E+00  0.00000000E+00  0.00000000E+00
  0.00000000E+00  0.00000000E+00  0.00000000E+00
  0.00000000E+00  0.00000000E+00  0.00000000E+00
  0.00000000E+00  0.00000000E+00  0.00000000E+00
  0.00000000E+00  0.00000000E+00  0.00000000E+00
  0.00000000E+00  0.00000000E+00  0.00000000E+00
  0.00000000E+00  0.00000000E+00  0.00000000E+00
  0.00000000E+00  0.00000000E+00  0.00000000E+00
  0.00000000E+00  0.00000000E+00  0.00000000E+00
  0.00000000E+00  0.00000000E+00  0.00000000E+00
  0.00000000E+00  0.00000000E+00  0.00000000E+00
  0.00000000E+00  0.00000000E+00  0.00000000E+00
  0.00000000E+00  0.00000000E+00  0.00000000E+00
  0.00000000E+00  0.00000000E+00  0.00000000E+00
  0.00000000E+00  0.00000000E+00  0.00000000E+00
  0.00000000E+00  0.00000000E+00  0.00000000E+00
  0.00000000E+00  0.00000000E+00  0.00000000E+00
  0.00000000E+00  0.00000000E+00  0.00000000E+00
  0.00000000E+00  0.00000000E+00  0.00000000E+00
  0.00000000E+00  0.00000000E+00  0.00000000E+00
  0.00000000E+00  0.00000000E+00  0.00000000E+00
  0.00000000E+00  0.00000000E+00  0.00000000E+00
  0.00000000E+00  0.00000000E+00  0.00000000E+00
  0.00000000E+00  0.00000000E+00  0.00000000E+00
  0.00000000E+00  0.00000000E+00  0.00000000E+00
  0.00000000E+00  0.00000000E+00  0.00000000E+00
  0.00000000E+00  0.00000000E+00  0.00000000E+00
  0.00000000E+00  0.00000000E+00  0.00000000E+00
