Pt  C  H  F                             
    1.000000000000000     
    11.2480068000000006    0.0000000000000000    0.0000000000000000
     0.0000000000000000   11.2480068000000006    0.0000000000000000
     0.0000000000000000    0.0000000000000000   23.9651564400000012
   Pt   C    H    F 
    64     6     2     4
Selective dynamics
Direct
  0.2500000008890453  0.0000000000000000  0.3129543518222917   F   F   F
  0.0000000000000000  0.5000000017780906  0.3129543518222917   F   F   F
  0.2500000008890453  0.2500000008890453  0.3129543518222917   F   F   F
  0.2500000008890453  0.5000000017780906  0.3129543518222917   F   F   F
  0.2500000008890453  0.7500000026671358  0.3129543518222917   F   F   F
  0.5000000017780906  0.0000000000000000  0.3129543518222917   F   F   F
  0.5000000017780906  0.2500000008890453  0.3129543518222917   F   F   F
  0.0000000000000000  0.7500000026671358  0.3129543518222917   F   F   F
  0.5000000017780906  0.5000000017780906  0.3129543518222917   F   F   F
  0.5000000017780906  0.7500000026671358  0.3129543518222917   F   F   F
  0.7500000026671358  0.0000000000000000  0.3129543518222917   F   F   F
  0.7500000026671358  0.2500000008890453  0.3129543518222917   F   F   F
  0.7500000026671358  0.5000000017780906  0.3129543518222917   F   F   F
  0.7500000026671358  0.7500000026671358  0.3129543518222917   F   F   F
  0.0000000000000000  0.0000000000000000  0.3129543518222917   F   F   F
  0.0000000000000000  0.2500000008890453  0.3129543518222917   F   F   F
  0.2499720465464977  0.0003432054049873  0.4781958545321537   T   T   T
  0.2505293671689452  0.2505328004591766  0.4785931324156907   T   T   T
  0.2502173817155288  0.4991584216069425  0.4782845468906237   T   T   T
  0.2499824982977328  0.7500158199519709  0.4779743013515534   T   T   T
  0.5000027916331632 -0.0000101356777384  0.4781904728289399   T   T   T
  0.4991565405927421  0.2502202546064656  0.4782813855000003   T   T   T
  0.4999978187985650  0.5000127962292228  0.4786928592416515   T   T   T
  0.5008470112646289  0.7497855865628282  0.4782833820869177   T   T   T
  0.7500215916452003  0.9996571378328604  0.4781962813835636   T   T   T
  0.7500217750478611  0.2499814144311988  0.4779736635595435   T   T   T
  0.7497864050453495  0.5008483534021109  0.4782828071697652   T   T   T
  0.7494708231365781  0.7494695188261964  0.4785914690147121   T   T   T
 -0.0000129039259222 -0.0000156192739756  0.4782020288613566   T   T   T
  0.0003418418830994  0.2499705723108709  0.4781950248457030   T   T   T
  0.0000022556808142  0.4999979849617724  0.4781927043536786   T   T   T
  0.9996589239149629  0.7500187009082969  0.4781960870654046   T   T   T
  0.1250458650425146  0.1250456868432740  0.5600495326926178   T   T   T
  0.1249574312972374  0.3750591181995473  0.5600894641904841   T   T   T
  0.1247727358801342  0.6249279888010576  0.5598825010489616   T   T   T
  0.1250646957455379  0.8749359191430344  0.5598556498589828   T   T   T
  0.3750630074710877  0.1249578567824067  0.5600878926940682   T   T   T
  0.3746644817304191  0.3746721098952276  0.5622793209656447   T   T   T
  0.3743388142417875  0.6256689488396746  0.5590471807413226   T   T   T
  0.3750731822922537  0.8752240731688087  0.5598791176090864   T   T   T
  0.6249302496997469  0.1247695039789637  0.5598775231396129   T   T   T
  0.6256620204324423  0.3743465265466897  0.5590335538209864   T   T   T
  0.6253370125882596  0.6253451971027860  0.5622828805394481   T   T   T
  0.6249441048275260  0.8750396265478588  0.5600888358654798   T   T   T
  0.8749385451635742  0.1250635186454477  0.5598474207357623   T   T   T
  0.8752302743117309  0.3750720751618338  0.5598786388320943   T   T   T
  0.8750395513399050  0.6249385286871427  0.5600891521565481   T   T   T
  0.8749489421871870  0.8749466442858629  0.5600513021720491   T   T   T
  0.1250000008890453  0.1250000000000000  0.3959242036977884   F   F   F
  0.1250000008890453  0.3750000008890453  0.3959242036977884   F   F   F
  0.1250000008890453  0.6250000026671358  0.3959242036977884   F   F   F
  0.1250000008890453  0.8750000026671358  0.3959242036977884   F   F   F
  0.3750000017780906  0.1250000000000000  0.3959242036977884   F   F   F
  0.3750000017780906  0.3750000008890453  0.3959242036977884   F   F   F
  0.3750000017780906  0.6250000026671358  0.3959242036977884   F   F   F
  0.3750000017780906  0.8750000026671358  0.3959242036977884   F   F   F
  0.6250000026671358  0.1250000000000000  0.3959242036977884   F   F   F
  0.6250000026671358  0.3750000008890453  0.3959242036977884   F   F   F
  0.6250000026671358  0.6250000026671358  0.3959242036977884   F   F   F
  0.6250000026671358  0.8750000026671358  0.3959242036977884   F   F   F
  0.8750000035561882  0.1250000000000000  0.3959242036977884   F   F   F
  0.8750000026671358  0.3750000008890453  0.3959242036977884   F   F   F
  0.8750000035561882  0.6250000026671358  0.3959242036977884   F   F   F
  0.8750000035561882  0.8750000026671358  0.3959242036977884   F   F   F
  0.4110584255700417  0.4110545724085616  0.6810284836531827   T   T   T
  0.3804783551595328  0.5316140335526752  0.6829852836583188   T   T   T
  0.4683628005410137  0.6195006735281662  0.6829864141149430   T   T   T
  0.5889183442623404  0.5888998206458601  0.6810336657756549   T   T   T
  0.6194931537481957  0.4683813076643588  0.6829617041011472   T   T   T
  0.5316440545284009  0.3804718477179502  0.6829641947052445   T   T   T
  0.3427229899262150  0.3427122665562354  0.6846258177974509   T   T   T
  0.6572099925029578  0.6572291395195248  0.6846344413657658   T   T   T
  0.2652132108101856  0.5629536675368622  0.6880234246333842   T   T   T
  0.4370016590875495  0.7347237744712430  0.6880275769189788   T   T   T
  0.7347103432192422  0.4370339293136519  0.6879934172038094   T   T   T
  0.5629658016887893  0.2652408115247560  0.6879881730767126   T   T   T
 
  0.00000000E+00  0.00000000E+00  0.00000000E+00
  0.00000000E+00  0.00000000E+00  0.00000000E+00
  0.00000000E+00  0.00000000E+00  0.00000000E+00
  0.00000000E+00  0.00000000E+00  0.00000000E+00
  0.00000000E+00  0.00000000E+00  0.00000000E+00
  0.00000000E+00  0.00000000E+00  0.00000000E+00
  0.00000000E+00  0.00000000E+00  0.00000000E+00
  0.00000000E+00  0.00000000E+00  0.00000000E+00
  0.00000000E+00  0.00000000E+00  0.00000000E+00
  0.00000000E+00  0.00000000E+00  0.00000000E+00
  0.00000000E+00  0.00000000E+00  0.00000000E+00
  0.00000000E+00  0.00000000E+00  0.00000000E+00
  0.00000000E+00  0.00000000E+00  0.00000000E+00
  0.00000000E+00  0.00000000E+00  0.00000000E+00
  0.00000000E+00  0.00000000E+00  0.00000000E+00
  0.00000000E+00  0.00000000E+00  0.00000000E+00
  0.00000000E+00  0.00000000E+00  0.00000000E+00
  0.00000000E+00  0.00000000E+00  0.00000000E+00
  0.00000000E+00  0.00000000E+00  0.00000000E+00
  0.00000000E+00  0.00000000E+00  0.00000000E+00
  0.00000000E+00  0.00000000E+00  0.00000000E+00
  0.00000000E+00  0.00000000E+00  0.00000000E+00
  0.00000000E+00  0.00000000E+00  0.00000000E+00
  0.00000000E+00  0.00000000E+00  0.00000000E+00
  0.00000000E+00  0.00000000E+00  0.00000000E+00
  0.00000000E+00  0.00000000E+00  0.00000000E+00
  0.00000000E+00  0.00000000E+00  0.00000000E+00
  0.00000000E+00  0.00000000E+00  0.00000000E+00
  0.00000000E+00  0.00000000E+00  0.00000000E+00
  0.00000000E+00  0.00000000E+00  0.00000000E+00
  0.00000000E+00  0.00000000E+00  0.00000000E+00
  0.00000000E+00  0.00000000E+00  0.00000000E+00
  0.00000000E+00  0.00000000E+00  0.00000000E+00
  0.00000000E+00  0.00000000E+00  0.00000000E+00
  0.00000000E+00  0.00000000E+00  0.00000000E+00
  0.00000000E+00  0.00000000E+00  0.00000000E+00
  0.00000000E+00  0.00000000E+00  0.00000000E+00
  0.00000000E+00  0.00000000E+00  0.00000000E+00
  0.00000000E+00  0.00000000E+00  0.00000000E+00
  0.00000000E+00  0.00000000E+00  0.00000000E+00
  0.00000000E+00  0.00000000E+00  0.00000000E+00
  0.00000000E+00  0.00000000E+00  0.00000000E+00
  0.00000000E+00  0.00000000E+00  0.00000000E+00
  0.00000000E+00  0.00000000E+00  0.00000000E+00
  0.00000000E+00  0.00000000E+00  0.00000000E+00
  0.00000000E+00  0.00000000E+00  0.00000000E+00
  0.00000000E+00  0.00000000E+00  0.00000000E+00
  0.00000000E+00  0.00000000E+00  0.00000000E+00
  0.00000000E+00  0.00000000E+00  0.00000000E+00
  0.00000000E+00  0.00000000E+00  0.00000000E+00
  0.00000000E+00  0.00000000E+00  0.00000000E+00
  0.00000000E+00  0.00000000E+00  0.00000000E+00
  0.00000000E+00  0.00000000E+00  0.00000000E+00
  0.00000000E+00  0.00000000E+00  0.00000000E+00
  0.00000000E+00  0.00000000E+00  0.00000000E+00
  0.00000000E+00  0.00000000E+00  0.00000000E+00
  0.00000000E+00  0.00000000E+00  0.00000000E+00
  0.00000000E+00  0.00000000E+00  0.00000000E+00
  0.00000000E+00  0.00000000E+00  0.00000000E+00
  0.00000000E+00  0.00000000E+00  0.00000000E+00
  0.00000000E+00  0.00000000E+00  0.00000000E+00
  0.00000000E+00  0.00000000E+00  0.00000000E+00
  0.00000000E+00  0.00000000E+00  0.00000000E+00
  0.00000000E+00  0.00000000E+00  0.00000000E+00
  0.00000000E+00  0.00000000E+00  0.00000000E+00
  0.00000000E+00  0.00000000E+00  0.00000000E+00
  0.00000000E+00  0.00000000E+00  0.00000000E+00
  0.00000000E+00  0.00000000E+00  0.00000000E+00
  0.00000000E+00  0.00000000E+00  0.00000000E+00
  0.00000000E+00  0.00000000E+00  0.00000000E+00
  0.00000000E+00  0.00000000E+00  0.00000000E+00
  0.00000000E+00  0.00000000E+00  0.00000000E+00
  0.00000000E+00  0.00000000E+00  0.00000000E+00
  0.00000000E+00  0.00000000E+00  0.00000000E+00
  0.00000000E+00  0.00000000E+00  0.00000000E+00
  0.00000000E+00  0.00000000E+00  0.00000000E+00
