Pt  C  H Br                             
    1.000000000000000     
    11.2480068000000006    0.0000000000000000    0.0000000000000000
     0.0000000000000000   11.2480068000000006    0.0000000000000000
     0.0000000000000000    0.0000000000000000   23.9651564400000012
   Pt   C    H    Br
    64     6     4     2
Selective dynamics
Direct
  0.2500000008890453  0.0000000000000000  0.3129543518222917   F   F   F
  0.0000000000000000  0.5000000017780906  0.3129543518222917   F   F   F
  0.2500000008890453  0.2500000008890453  0.3129543518222917   F   F   F
  0.2500000008890453  0.5000000017780906  0.3129543518222917   F   F   F
  0.2500000008890453  0.7500000026671358  0.3129543518222917   F   F   F
  0.5000000017780906  0.0000000000000000  0.3129543518222917   F   F   F
  0.5000000017780906  0.2500000008890453  0.3129543518222917   F   F   F
  0.0000000000000000  0.7500000026671358  0.3129543518222917   F   F   F
  0.5000000017780906  0.5000000017780906  0.3129543518222917   F   F   F
  0.5000000017780906  0.7500000026671358  0.3129543518222917   F   F   F
  0.7500000026671358  0.0000000000000000  0.3129543518222917   F   F   F
  0.7500000026671358  0.2500000008890453  0.3129543518222917   F   F   F
  0.7500000026671358  0.5000000017780906  0.3129543518222917   F   F   F
  0.7500000026671358  0.7500000026671358  0.3129543518222917   F   F   F
  0.0000000000000000  0.0000000000000000  0.3129543518222917   F   F   F
  0.0000000000000000  0.2500000008890453  0.3129543518222917   F   F   F
  0.2499077977093951  0.9988121185311112  0.4775949763679567   T   T   T
  0.2510257804650180  0.2510355958260455  0.4777903375143185   T   T   T
  0.2533535720064591  0.5007961727072462  0.4793622473814344   T   T   T
  0.2532632934762921  0.7467371306006515  0.4794860223005007   T   T   T
  0.5000052995111743  0.0000071757079566  0.4774933317427635   T   T   T
  0.5008029210807303  0.2533572452853760  0.4793569319913969   T   T   T
  0.5000044542533919  0.5000046068559671  0.4804216398668497   T   T   T
  0.4992096834153956  0.7466406695497261  0.4793581050621687   T   T   T
  0.7500955378326658  0.0011968319620216  0.4775965052779045   T   T   T
  0.7467371823947950  0.2532638065275720  0.4794965437768525   T   T   T
  0.7466530210717124  0.4991933507474621  0.4793645747032390   T   T   T
  0.7489739997205901  0.7489608256346394  0.4777881447545154   T   T   T
  0.0000062490422243  0.0000118250741583  0.4775511152744187   T   T   T
  0.9988032835969017  0.2499174557750770  0.4776032063331189   T   T   T
  0.9999966714479448  0.4999974473436877  0.4775031951696733   T   T   T
  0.0011966343414786  0.7500913999897598  0.4775998794531962   T   T   T
  0.1242010624327720  0.1241913316908799  0.5591347280545180   T   T   T
  0.1231984983791014  0.3742913629220913  0.5596345690792810   T   T   T
  0.1232668561081874  0.6241504285059822  0.5599857702060589   T   T   T
  0.1253615805748197  0.8746548741822173  0.5596658692981904   T   T   T
  0.3742944862933366  0.1231770407378246  0.5596231100054191   T   T   T
  0.3684694026754198  0.3684484313367752  0.5632284765373931   T   T   T
  0.3725036961469576  0.6275033824234584  0.5683866184874687   T   T   T
  0.3758744246865743  0.8767422786075613  0.5599837002918249   T   T   T
  0.6241281420040283  0.1232456035884300  0.5599865495026430   T   T   T
  0.6274948000659767  0.3724782748358159  0.5683873254080761   T   T   T
  0.6315272367528715  0.6315380354607265  0.5632268147958307   T   T   T
  0.6257220736505891  0.8768175791764676  0.5596184719159061   T   T   T
  0.8746398766266469  0.1253428865975913  0.5596722065151964   T   T   T
  0.8767432860045470  0.3758635420812515  0.5599935723227655   T   T   T
  0.8768141584755129  0.6257289098228063  0.5596315571318464   T   T   T
  0.8757971563415328  0.8758023130363458  0.5591182927461814   T   T   T
  0.1250000008890453  0.1250000000000000  0.3959242036977884   F   F   F
  0.1250000008890453  0.3750000008890453  0.3959242036977884   F   F   F
  0.1250000008890453  0.6250000026671358  0.3959242036977884   F   F   F
  0.1250000008890453  0.8750000026671358  0.3959242036977884   F   F   F
  0.3750000017780906  0.1250000000000000  0.3959242036977884   F   F   F
  0.3750000017780906  0.3750000008890453  0.3959242036977884   F   F   F
  0.3750000017780906  0.6250000026671358  0.3959242036977884   F   F   F
  0.3750000017780906  0.8750000026671358  0.3959242036977884   F   F   F
  0.6250000026671358  0.1250000000000000  0.3959242036977884   F   F   F
  0.6250000026671358  0.3750000008890453  0.3959242036977884   F   F   F
  0.6250000026671358  0.6250000026671358  0.3959242036977884   F   F   F
  0.6250000026671358  0.8750000026671358  0.3959242036977884   F   F   F
  0.8750000035561882  0.1250000000000000  0.3959242036977884   F   F   F
  0.8750000026671358  0.3750000008890453  0.3959242036977884   F   F   F
  0.8750000035561882  0.6250000026671358  0.3959242036977884   F   F   F
  0.8750000035561882  0.8750000026671358  0.3959242036977884   F   F   F
  0.4072664969715078  0.4073026674820894  0.6447105892808735   T   T   T
  0.3750046354677425  0.5348171896363623  0.6487246514665630   T   T   T
  0.4652003030450358  0.6249785023596569  0.6487404546628300   T   T   T
  0.5927130703906216  0.5926927168374820  0.6447137379220681   T   T   T
  0.6249475810701495  0.4651445687672054  0.6487258288470794   T   T   T
  0.5347604886649823  0.3749768154112070  0.6487347840222980   T   T   T
  0.2883980139663879  0.5543870612467861  0.6670380718356755   T   T   T
  0.4456361872795632  0.7116080562650925  0.6670448524549728   T   T   T
  0.7115968070212443  0.4455874029457795  0.6670463146228447   T   T   T
  0.5543367672247705  0.2884053230088025  0.6670373018500474   T   T   T
  0.3065188677662534  0.3066729063152687  0.6926557304843572   T   T   T
  0.6934871612015885  0.6933126601586023  0.6926756984315542   T   T   T
 
  0.00000000E+00  0.00000000E+00  0.00000000E+00
  0.00000000E+00  0.00000000E+00  0.00000000E+00
  0.00000000E+00  0.00000000E+00  0.00000000E+00
  0.00000000E+00  0.00000000E+00  0.00000000E+00
  0.00000000E+00  0.00000000E+00  0.00000000E+00
  0.00000000E+00  0.00000000E+00  0.00000000E+00
  0.00000000E+00  0.00000000E+00  0.00000000E+00
  0.00000000E+00  0.00000000E+00  0.00000000E+00
  0.00000000E+00  0.00000000E+00  0.00000000E+00
  0.00000000E+00  0.00000000E+00  0.00000000E+00
  0.00000000E+00  0.00000000E+00  0.00000000E+00
  0.00000000E+00  0.00000000E+00  0.00000000E+00
  0.00000000E+00  0.00000000E+00  0.00000000E+00
  0.00000000E+00  0.00000000E+00  0.00000000E+00
  0.00000000E+00  0.00000000E+00  0.00000000E+00
  0.00000000E+00  0.00000000E+00  0.00000000E+00
  0.00000000E+00  0.00000000E+00  0.00000000E+00
  0.00000000E+00  0.00000000E+00  0.00000000E+00
  0.00000000E+00  0.00000000E+00  0.00000000E+00
  0.00000000E+00  0.00000000E+00  0.00000000E+00
  0.00000000E+00  0.00000000E+00  0.00000000E+00
  0.00000000E+00  0.00000000E+00  0.00000000E+00
  0.00000000E+00  0.00000000E+00  0.00000000E+00
  0.00000000E+00  0.00000000E+00  0.00000000E+00
  0.00000000E+00  0.00000000E+00  0.00000000E+00
  0.00000000E+00  0.00000000E+00  0.00000000E+00
  0.00000000E+00  0.00000000E+00  0.00000000E+00
  0.00000000E+00  0.00000000E+00  0.00000000E+00
  0.00000000E+00  0.00000000E+00  0.00000000E+00
  0.00000000E+00  0.00000000E+00  0.00000000E+00
  0.00000000E+00  0.00000000E+00  0.00000000E+00
  0.00000000E+00  0.00000000E+00  0.00000000E+00
  0.00000000E+00  0.00000000E+00  0.00000000E+00
  0.00000000E+00  0.00000000E+00  0.00000000E+00
  0.00000000E+00  0.00000000E+00  0.00000000E+00
  0.00000000E+00  0.00000000E+00  0.00000000E+00
  0.00000000E+00  0.00000000E+00  0.00000000E+00
  0.00000000E+00  0.00000000E+00  0.00000000E+00
  0.00000000E+00  0.00000000E+00  0.00000000E+00
  0.00000000E+00  0.00000000E+00  0.00000000E+00
  0.00000000E+00  0.00000000E+00  0.00000000E+00
  0.00000000E+00  0.00000000E+00  0.00000000E+00
  0.00000000E+00  0.00000000E+00  0.00000000E+00
  0.00000000E+00  0.00000000E+00  0.00000000E+00
  0.00000000E+00  0.00000000E+00  0.00000000E+00
  0.00000000E+00  0.00000000E+00  0.00000000E+00
  0.00000000E+00  0.00000000E+00  0.00000000E+00
  0.00000000E+00  0.00000000E+00  0.00000000E+00
  0.00000000E+00  0.00000000E+00  0.00000000E+00
  0.00000000E+00  0.00000000E+00  0.00000000E+00
  0.00000000E+00  0.00000000E+00  0.00000000E+00
  0.00000000E+00  0.00000000E+00  0.00000000E+00
  0.00000000E+00  0.00000000E+00  0.00000000E+00
  0.00000000E+00  0.00000000E+00  0.00000000E+00
  0.00000000E+00  0.00000000E+00  0.00000000E+00
  0.00000000E+00  0.00000000E+00  0.00000000E+00
  0.00000000E+00  0.00000000E+00  0.00000000E+00
  0.00000000E+00  0.00000000E+00  0.00000000E+00
  0.00000000E+00  0.00000000E+00  0.00000000E+00
  0.00000000E+00  0.00000000E+00  0.00000000E+00
  0.00000000E+00  0.00000000E+00  0.00000000E+00
  0.00000000E+00  0.00000000E+00  0.00000000E+00
  0.00000000E+00  0.00000000E+00  0.00000000E+00
  0.00000000E+00  0.00000000E+00  0.00000000E+00
  0.00000000E+00  0.00000000E+00  0.00000000E+00
  0.00000000E+00  0.00000000E+00  0.00000000E+00
  0.00000000E+00  0.00000000E+00  0.00000000E+00
  0.00000000E+00  0.00000000E+00  0.00000000E+00
  0.00000000E+00  0.00000000E+00  0.00000000E+00
  0.00000000E+00  0.00000000E+00  0.00000000E+00
  0.00000000E+00  0.00000000E+00  0.00000000E+00
  0.00000000E+00  0.00000000E+00  0.00000000E+00
  0.00000000E+00  0.00000000E+00  0.00000000E+00
  0.00000000E+00  0.00000000E+00  0.00000000E+00
  0.00000000E+00  0.00000000E+00  0.00000000E+00
  0.00000000E+00  0.00000000E+00  0.00000000E+00
