Pd  C  H Cl                             
    1.000000000000000     
    11.1817229999999999    0.0000000000000000    0.0000000000000000
     0.0000000000000000   11.1817229999999999    0.0000000000000000
     0.0000000000000000    0.0000000000000000   23.9300040900000006
   Pd   C    H    Cl
    64     6     4     2
Selective dynamics
Direct
  0.0000000000000000  0.2499999991056825  0.3134140709626578   F   F   F
  0.7499999973170475  0.7499999973170475  0.3134140709626578   F   F   F
  0.0000000000000000  0.4999999982113650  0.3134140709626578   F   F   F
  0.0000000000000000  0.7499999973170475  0.3134140709626578   F   F   F
  0.0000000000000000  0.0000000000000000  0.3134140709626578   F   F   F
  0.2499999991056825  0.2499999991056825  0.3134140709626578   F   F   F
  0.2499999991056825  0.4999999982113650  0.3134140709626578   F   F   F
  0.7499999973170475  0.0000000000000000  0.3134140709626578   F   F   F
  0.2499999991056825  0.7499999973170475  0.3134140709626578   F   F   F
  0.2499999991056825  0.0000000000000000  0.3134140709626578   F   F   F
  0.4999999982113650  0.2499999991056825  0.3134140709626578   F   F   F
  0.4999999982113650  0.4999999982113650  0.3134140709626578   F   F   F
  0.4999999982113650  0.7499999973170475  0.3134140709626578   F   F   F
  0.4999999982113650  0.0000000000000000  0.3134140709626578   F   F   F
  0.7499999973170475  0.2499999991056825  0.3134140709626578   F   F   F
  0.7499999973170475  0.4999999982113650  0.3134140709626578   F   F   F
  0.9993789065278920  0.2501188772396522  0.4769174333861969   T   T   T
  0.0000091062624339  0.4999963614391690  0.4762948103652813   T   T   T
  0.0006129433377476  0.7498757884106658  0.4769157592196025   T   T   T
  0.9999980491061600  0.0000013358197009  0.4766132743799239   T   T   T
  0.2507050790304415  0.2506780986789759  0.4772981892219182   T   T   T
  0.2523721269821673  0.5005257896787102  0.4779362159757488   T   T   T
  0.2522279379321223  0.7477611381520173  0.4778536901064434   T   T   T
  0.2501023055365508  0.9993359955708286  0.4769235428258476   T   T   T
  0.5005144975865948  0.2523754703154990  0.4779500390055996   T   T   T
  0.4999817896218607  0.5000122985038089  0.4782186923482070   T   T   T
  0.4994735656755970  0.7476418078925267  0.4779547867050250   T   T   T
  0.4999973905862926 -0.0000136218502851  0.4762927926530063   T   T   T
  0.7477582872401121  0.2522508435097095  0.4778582232256988   T   T   T
  0.7476283324737708  0.4994781095662204  0.4779501791270830   T   T   T
  0.7493008364130396  0.7493015053716463  0.4772960227333166   T   T   T
  0.7498825566430553  0.0006281300639784  0.4769030195173230   T   T   T
  0.1245617611401399  0.1245775288775657  0.5581194947005498   T   T   T
  0.1236343176011164  0.3750039946694929  0.5584155309386424   T   T   T
  0.1240057684312801  0.6245928971941512  0.5581707743894958   T   T   T
  0.1249058091274242  0.8750740978842294  0.5581854253142776   T   T   T
  0.3749694688529461  0.1235813379133643  0.5584155347173054   T   T   T
  0.3709675659719565  0.3709990362910112  0.5617024428155589   T   T   T
  0.3731854885609794  0.6268156029228638  0.5648479574086868   T   T   T
  0.3754080069926880  0.8759884565859246  0.5581724614972643   T   T   T
  0.6245964033027804  0.1239951481720727  0.5581629348369160   T   T   T
  0.6267736844368696  0.3732401698512763  0.5648465776706952   T   T   T
  0.6290225913250638  0.6290139482866544  0.5617046674942454   T   T   T
  0.6250252716838740  0.8763847091908433  0.5584052487233597   T   T   T
  0.8750808694802484  0.1249251343829976  0.5581840846214163   T   T   T
  0.8760029202302564  0.3754291045209781  0.5581862119640502   T   T   T
  0.8763990408016982  0.6250031878445561  0.5584154260503693   T   T   T
  0.8754352074646319  0.8754380343848559  0.5581243753302917   T   T   T
  0.1249999995528412  0.1249999995528412  0.3960161475258630   F   F   F
  0.1249999995528412  0.3749999986585237  0.3960161475258630   F   F   F
  0.1249999995528412  0.6249999977642062  0.3960161475258630   F   F   F
  0.1249999995528412  0.8749999968698887  0.3960161475258630   F   F   F
  0.3749999986585237  0.1249999995528412  0.3960161475258630   F   F   F
  0.3749999986585237  0.3749999986585237  0.3960161475258630   F   F   F
  0.3749999986585237  0.6249999977642062  0.3960161475258630   F   F   F
  0.3749999986585237  0.8749999968698887  0.3960161475258630   F   F   F
  0.6249999977642062  0.1249999995528412  0.3960161475258630   F   F   F
  0.6249999977642062  0.3749999986585237  0.3960161475258630   F   F   F
  0.6249999977642062  0.6249999977642062  0.3960161475258630   F   F   F
  0.6249999977642062  0.8749999968698887  0.3960161475258630   F   F   F
  0.8749999968698887  0.1249999995528412  0.3960161475258630   F   F   F
  0.8749999968698887  0.3749999986585237  0.3960161475258630   F   F   F
  0.8749999968698887  0.6249999977642062  0.3960161475258630   F   F   F
  0.8749999968698887  0.8749999968698887  0.3960161475258630   F   F   F
  0.5918634687342610  0.5918699266518725  0.6447597300611565   T   T   T
  0.6248014886649538  0.4655179766562521  0.6467881032438447   T   T   T
  0.5344834557169296  0.3752174370829936  0.6467885061375169   T   T   T
  0.4081491444857351  0.4081386454622120  0.6447633620755550   T   T   T
  0.3752311729651348  0.5345028426404501  0.6467880837627936   T   T   T
  0.4655455183663850  0.6247887251212554  0.6467894462529031   T   T   T
  0.7136157386240854  0.4444682909076879  0.6629407746724770   T   T   T
  0.5555449407887428  0.2863975435827536  0.6629371766644671   T   T   T
  0.2863929203003794  0.5555309742878687  0.6629458567977577   T   T   T
  0.4444721262957635  0.7136051016018080  0.6629385917394875   T   T   T
  0.6889776406123249  0.6889683800408566  0.6817589847555338   T   T   T
  0.3110849821440622  0.3110471572590867  0.6817795605168835   T   T   T
 
  0.00000000E+00  0.00000000E+00  0.00000000E+00
  0.00000000E+00  0.00000000E+00  0.00000000E+00
  0.00000000E+00  0.00000000E+00  0.00000000E+00
  0.00000000E+00  0.00000000E+00  0.00000000E+00
  0.00000000E+00  0.00000000E+00  0.00000000E+00
  0.00000000E+00  0.00000000E+00  0.00000000E+00
  0.00000000E+00  0.00000000E+00  0.00000000E+00
  0.00000000E+00  0.00000000E+00  0.00000000E+00
  0.00000000E+00  0.00000000E+00  0.00000000E+00
  0.00000000E+00  0.00000000E+00  0.00000000E+00
  0.00000000E+00  0.00000000E+00  0.00000000E+00
  0.00000000E+00  0.00000000E+00  0.00000000E+00
  0.00000000E+00  0.00000000E+00  0.00000000E+00
  0.00000000E+00  0.00000000E+00  0.00000000E+00
  0.00000000E+00  0.00000000E+00  0.00000000E+00
  0.00000000E+00  0.00000000E+00  0.00000000E+00
  0.00000000E+00  0.00000000E+00  0.00000000E+00
  0.00000000E+00  0.00000000E+00  0.00000000E+00
  0.00000000E+00  0.00000000E+00  0.00000000E+00
  0.00000000E+00  0.00000000E+00  0.00000000E+00
  0.00000000E+00  0.00000000E+00  0.00000000E+00
  0.00000000E+00  0.00000000E+00  0.00000000E+00
  0.00000000E+00  0.00000000E+00  0.00000000E+00
  0.00000000E+00  0.00000000E+00  0.00000000E+00
  0.00000000E+00  0.00000000E+00  0.00000000E+00
  0.00000000E+00  0.00000000E+00  0.00000000E+00
  0.00000000E+00  0.00000000E+00  0.00000000E+00
  0.00000000E+00  0.00000000E+00  0.00000000E+00
  0.00000000E+00  0.00000000E+00  0.00000000E+00
  0.00000000E+00  0.00000000E+00  0.00000000E+00
  0.00000000E+00  0.00000000E+00  0.00000000E+00
  0.00000000E+00  0.00000000E+00  0.00000000E+00
  0.00000000E+00  0.00000000E+00  0.00000000E+00
  0.00000000E+00  0.00000000E+00  0.00000000E+00
  0.00000000E+00  0.00000000E+00  0.00000000E+00
  0.00000000E+00  0.00000000E+00  0.00000000E+00
  0.00000000E+00  0.00000000E+00  0.00000000E+00
  0.00000000E+00  0.00000000E+00  0.00000000E+00
  0.00000000E+00  0.00000000E+00  0.00000000E+00
  0.00000000E+00  0.00000000E+00  0.00000000E+00
  0.00000000E+00  0.00000000E+00  0.00000000E+00
  0.00000000E+00  0.00000000E+00  0.00000000E+00
  0.00000000E+00  0.00000000E+00  0.00000000E+00
  0.00000000E+00  0.00000000E+00  0.00000000E+00
  0.00000000E+00  0.00000000E+00  0.00000000E+00
  0.00000000E+00  0.00000000E+00  0.00000000E+00
  0.00000000E+00  0.00000000E+00  0.00000000E+00
  0.00000000E+00  0.00000000E+00  0.00000000E+00
  0.00000000E+00  0.00000000E+00  0.00000000E+00
  0.00000000E+00  0.00000000E+00  0.00000000E+00
  0.00000000E+00  0.00000000E+00  0.00000000E+00
  0.00000000E+00  0.00000000E+00  0.00000000E+00
  0.00000000E+00  0.00000000E+00  0.00000000E+00
  0.00000000E+00  0.00000000E+00  0.00000000E+00
  0.00000000E+00  0.00000000E+00  0.00000000E+00
  0.00000000E+00  0.00000000E+00  0.00000000E+00
  0.00000000E+00  0.00000000E+00  0.00000000E+00
  0.00000000E+00  0.00000000E+00  0.00000000E+00
  0.00000000E+00  0.00000000E+00  0.00000000E+00
  0.00000000E+00  0.00000000E+00  0.00000000E+00
  0.00000000E+00  0.00000000E+00  0.00000000E+00
  0.00000000E+00  0.00000000E+00  0.00000000E+00
  0.00000000E+00  0.00000000E+00  0.00000000E+00
  0.00000000E+00  0.00000000E+00  0.00000000E+00
  0.00000000E+00  0.00000000E+00  0.00000000E+00
  0.00000000E+00  0.00000000E+00  0.00000000E+00
  0.00000000E+00  0.00000000E+00  0.00000000E+00
  0.00000000E+00  0.00000000E+00  0.00000000E+00
  0.00000000E+00  0.00000000E+00  0.00000000E+00
  0.00000000E+00  0.00000000E+00  0.00000000E+00
  0.00000000E+00  0.00000000E+00  0.00000000E+00
  0.00000000E+00  0.00000000E+00  0.00000000E+00
  0.00000000E+00  0.00000000E+00  0.00000000E+00
  0.00000000E+00  0.00000000E+00  0.00000000E+00
  0.00000000E+00  0.00000000E+00  0.00000000E+00
  0.00000000E+00  0.00000000E+00  0.00000000E+00
