Au  C  H  F                             
    1.000000000000000     
    11.7981856999999994    0.0000000000000000    0.0000000000000000
     0.0000000000000000   11.7981856999999994    0.0000000000000000
     0.0000000000000000    0.0000000000000000   24.2569328400000011
   Au   C    H    F 
    64     6     2     4
Selective dynamics
Direct
  0.2500000004237961  0.0000000000000000  0.3091899561032889   F   F   F
  0.0000000000000000  0.5000000008475851  0.3091899561032889   F   F   F
  0.2500000004237961  0.2500000004237961  0.3091899561032889   F   F   F
  0.2500000004237961  0.5000000008475851  0.3091899561032889   F   F   F
  0.2500000004237961  0.7500000012713812  0.3091899561032889   F   F   F
  0.5000000008475851  0.0000000000000000  0.3091899561032889   F   F   F
  0.5000000008475851  0.2500000004237961  0.3091899561032889   F   F   F
  0.0000000000000000  0.7500000012713812  0.3091899561032889   F   F   F
  0.5000000008475851  0.5000000008475851  0.3091899561032889   F   F   F
  0.5000000008475851  0.7500000012713812  0.3091899561032889   F   F   F
  0.7500000012713812  0.0000000000000000  0.3091899561032889   F   F   F
  0.7500000012713812  0.2500000004237961  0.3091899561032889   F   F   F
  0.7500000012713812  0.5000000008475851  0.3091899561032889   F   F   F
  0.7500000012713812  0.7500000012713812  0.3091899561032889   F   F   F
  0.0000000000000000  0.0000000000000000  0.3091899561032889   F   F   F
  0.0000000000000000  0.2500000004237961  0.3091899561032889   F   F   F
  0.2489918444075709  0.0002444402659424  0.4806716127501705   T   T   T
  0.2493264582760282  0.2494353773997307  0.4806130971505790   T   T   T
  0.2489680570476110  0.4995887225043215  0.4804830073003076   T   T   T
  0.2493197389587098  0.7506475803274058  0.4806185656384886   T   T   T
  0.4999895388015249 -0.0000022147984649  0.4811678461028785   T   T   T
  0.4995874744318903  0.2489687429090573  0.4804821841119516   T   T   T
  0.4999983535506822  0.4999965646902919  0.4804015856000978   T   T   T
  0.5003910549299231  0.7509458800345792  0.4805198343092703   T   T   T
  0.7508549516529526  0.9999359752405014  0.4805884825388886   T   T   T
  0.7506571045043611  0.2493394265524243  0.4806114606217174   T   T   T
  0.7509357653272307  0.5002688177700727  0.4805474289487762   T   T   T
  0.7505581087049034  0.7505570141063903  0.4805716071527051   T   T   T
  0.0001041822175934  0.0001019687006002  0.4812118653334869   T   T   T
  0.0001779453508575  0.2490025034337828  0.4806459115757502   T   T   T
  0.0000003361361490  0.4999891880857996  0.4811688134215207   T   T   T
  0.9999367010683974  0.7508539574136041  0.4805892549303016   T   T   T
  0.1261136968311961  0.1261145646784760  0.5680405849050044   T   T   T
  0.1253137158701695  0.3747055173896065  0.5666974266967513   T   T   T
  0.1247056135703609  0.6253191171207012  0.5666735261848688   T   T   T
  0.1247115842687327  0.8753331830626269  0.5667105987507414   T   T   T
  0.3747006827571137  0.1253155375191436  0.5666975100194886   T   T   T
  0.3746854969743819  0.3746845998638065  0.5666228294847607   T   T   T
  0.3749119647140221  0.6250844013547808  0.5652164474727496   T   T   T
  0.3746739375563802  0.8752919110683087  0.5666728842833424   T   T   T
  0.6253210813541701  0.1247080433114407  0.5666737906187514   T   T   T
  0.6250825699607309  0.3749090300211048  0.5652176539915790   T   T   T
  0.6253134172012899  0.6253154624791150  0.5666225133519727   T   T   T
  0.6253135058002606  0.8746792216523378  0.5666926690910445   T   T   T
  0.8753351304969257  0.1247112880842404  0.5667110679025118   T   T   T
  0.8752956430339094  0.3746708057417285  0.5666745331772011   T   T   T
  0.8746839011533014  0.6253133357014219  0.5666927050295071   T   T   T
  0.8745700943109519  0.8745696605888177  0.5667780726423280   T   T   T
  0.1249999997881019  0.1250000006356942  0.3951713245539921   F   F   F
  0.1250000006356942  0.3750000010594832  0.3951713245539921   F   F   F
  0.1250000006356942  0.6250000006356942  0.3951713245539921   F   F   F
  0.1250000006356942  0.8750000019070754  0.3951713245539921   F   F   F
  0.3750000010594832  0.1250000006356942  0.3951713245539921   F   F   F
  0.3750000010594832  0.3750000010594832  0.3951713245539921   F   F   F
  0.3750000010594832  0.6250000006356942  0.3951713245539921   F   F   F
  0.3750000010594832  0.8750000019070754  0.3951713245539921   F   F   F
  0.6250000006356942  0.1250000006356942  0.3951713245539921   F   F   F
  0.6250000014832793  0.3750000010594832  0.3951713245539921   F   F   F
  0.6250000014832793  0.6250000006356942  0.3951713245539921   F   F   F
  0.6250000014832793  0.8750000019070754  0.3951713245539921   F   F   F
  0.8750000019070754  0.1250000006356942  0.3951713245539921   F   F   F
  0.8750000019070754  0.3750000010594832  0.3951713245539921   F   F   F
  0.8750000019070754  0.6250000006356942  0.3951713245539921   F   F   F
  0.8750000019070754  0.8750000019070754  0.3951713245539921   F   F   F
  0.4156401769046884  0.4156396419239908  0.6953097738722953   T   T   T
  0.3863015129423893  0.5299626892047695  0.6958041282086371   T   T   T
  0.4699527678407759  0.6136417705410857  0.6958118610428684   T   T   T
  0.5842914340106954  0.5842687696532243  0.6953218236327745   T   T   T
  0.6136329020325214  0.4699070470162220  0.6958247927680979   T   T   T
  0.5299752047856944  0.3862818433616438  0.6958175189621492   T   T   T
  0.3503510552581177  0.3503442947229116  0.6958673042132714   T   T   T
  0.6495945429171782  0.6495373263172293  0.6958887027011926   T   T   T
  0.2758924206855508  0.5604870446529453  0.6971358209628352   T   T   T
  0.4394654191234494  0.7240342039743796  0.6971525454414127   T   T   T
  0.7240362788523668  0.4393858307876219  0.6971821078513269   T   T   T
  0.5604678709585145  0.2758496455883098  0.6971755552073471   T   T   T
 
  0.00000000E+00  0.00000000E+00  0.00000000E+00
  0.00000000E+00  0.00000000E+00  0.00000000E+00
  0.00000000E+00  0.00000000E+00  0.00000000E+00
  0.00000000E+00  0.00000000E+00  0.00000000E+00
  0.00000000E+00  0.00000000E+00  0.00000000E+00
  0.00000000E+00  0.00000000E+00  0.00000000E+00
  0.00000000E+00  0.00000000E+00  0.00000000E+00
  0.00000000E+00  0.00000000E+00  0.00000000E+00
  0.00000000E+00  0.00000000E+00  0.00000000E+00
  0.00000000E+00  0.00000000E+00  0.00000000E+00
  0.00000000E+00  0.00000000E+00  0.00000000E+00
  0.00000000E+00  0.00000000E+00  0.00000000E+00
  0.00000000E+00  0.00000000E+00  0.00000000E+00
  0.00000000E+00  0.00000000E+00  0.00000000E+00
  0.00000000E+00  0.00000000E+00  0.00000000E+00
  0.00000000E+00  0.00000000E+00  0.00000000E+00
  0.00000000E+00  0.00000000E+00  0.00000000E+00
  0.00000000E+00  0.00000000E+00  0.00000000E+00
  0.00000000E+00  0.00000000E+00  0.00000000E+00
  0.00000000E+00  0.00000000E+00  0.00000000E+00
  0.00000000E+00  0.00000000E+00  0.00000000E+00
  0.00000000E+00  0.00000000E+00  0.00000000E+00
  0.00000000E+00  0.00000000E+00  0.00000000E+00
  0.00000000E+00  0.00000000E+00  0.00000000E+00
  0.00000000E+00  0.00000000E+00  0.00000000E+00
  0.00000000E+00  0.00000000E+00  0.00000000E+00
  0.00000000E+00  0.00000000E+00  0.00000000E+00
  0.00000000E+00  0.00000000E+00  0.00000000E+00
  0.00000000E+00  0.00000000E+00  0.00000000E+00
  0.00000000E+00  0.00000000E+00  0.00000000E+00
  0.00000000E+00  0.00000000E+00  0.00000000E+00
  0.00000000E+00  0.00000000E+00  0.00000000E+00
  0.00000000E+00  0.00000000E+00  0.00000000E+00
  0.00000000E+00  0.00000000E+00  0.00000000E+00
  0.00000000E+00  0.00000000E+00  0.00000000E+00
  0.00000000E+00  0.00000000E+00  0.00000000E+00
  0.00000000E+00  0.00000000E+00  0.00000000E+00
  0.00000000E+00  0.00000000E+00  0.00000000E+00
  0.00000000E+00  0.00000000E+00  0.00000000E+00
  0.00000000E+00  0.00000000E+00  0.00000000E+00
  0.00000000E+00  0.00000000E+00  0.00000000E+00
  0.00000000E+00  0.00000000E+00  0.00000000E+00
  0.00000000E+00  0.00000000E+00  0.00000000E+00
  0.00000000E+00  0.00000000E+00  0.00000000E+00
  0.00000000E+00  0.00000000E+00  0.00000000E+00
  0.00000000E+00  0.00000000E+00  0.00000000E+00
  0.00000000E+00  0.00000000E+00  0.00000000E+00
  0.00000000E+00  0.00000000E+00  0.00000000E+00
  0.00000000E+00  0.00000000E+00  0.00000000E+00
  0.00000000E+00  0.00000000E+00  0.00000000E+00
  0.00000000E+00  0.00000000E+00  0.00000000E+00
  0.00000000E+00  0.00000000E+00  0.00000000E+00
  0.00000000E+00  0.00000000E+00  0.00000000E+00
  0.00000000E+00  0.00000000E+00  0.00000000E+00
  0.00000000E+00  0.00000000E+00  0.00000000E+00
  0.00000000E+00  0.00000000E+00  0.00000000E+00
  0.00000000E+00  0.00000000E+00  0.00000000E+00
  0.00000000E+00  0.00000000E+00  0.00000000E+00
  0.00000000E+00  0.00000000E+00  0.00000000E+00
  0.00000000E+00  0.00000000E+00  0.00000000E+00
  0.00000000E+00  0.00000000E+00  0.00000000E+00
  0.00000000E+00  0.00000000E+00  0.00000000E+00
  0.00000000E+00  0.00000000E+00  0.00000000E+00
  0.00000000E+00  0.00000000E+00  0.00000000E+00
  0.00000000E+00  0.00000000E+00  0.00000000E+00
  0.00000000E+00  0.00000000E+00  0.00000000E+00
  0.00000000E+00  0.00000000E+00  0.00000000E+00
  0.00000000E+00  0.00000000E+00  0.00000000E+00
  0.00000000E+00  0.00000000E+00  0.00000000E+00
  0.00000000E+00  0.00000000E+00  0.00000000E+00
  0.00000000E+00  0.00000000E+00  0.00000000E+00
  0.00000000E+00  0.00000000E+00  0.00000000E+00
  0.00000000E+00  0.00000000E+00  0.00000000E+00
  0.00000000E+00  0.00000000E+00  0.00000000E+00
  0.00000000E+00  0.00000000E+00  0.00000000E+00
  0.00000000E+00  0.00000000E+00  0.00000000E+00
