Ir48 C6 H2 F4                           
    1.000000000000000     
    10.9622135000000007    0.0000000000000000    0.0000000000000000
     0.0000000000000000   10.9622135000000007    0.0000000000000000
     0.0000000000000000    0.0000000000000000   16.7330912000000005
   Ir   C    H    F 
    48     6     2     4
Selective dynamics
Direct
  0.9988403138933819  0.2495466180342589  0.4094721592432364   T   T   T
  0.9999991061332381  0.4999993454780167  0.4096664405254273   T   T   T
  0.0011635985259275  0.7504504085167412  0.4094671328204669   T   T   T
  0.9999992842725334  0.9999978159449938  0.4094821838556868   T   T   T
  0.2501231381554234  0.2501203709670534  0.4098892025255836   T   T   T
  0.2510670509572819  0.5000586652746364  0.4104379471085551   T   T   T
  0.2528313397497186  0.7471683913358120  0.4121374390970303   T   T   T
  0.2495498114312653  0.9988365435025557  0.4094692929777111   T   T   T
  0.5000548049962035  0.2510615116328907  0.4104316680660745   T   T   T
  0.4999995195243088  0.4999972276863005  0.4110775637451951   T   T   T
  0.4999353844797483  0.7489360257059872  0.4104415228779246   T   T   T
  0.4999990353220198  0.0000029542302116  0.4096665348679949   T   T   T
  0.7471675823745514  0.2528295325332124  0.4121364107320531   T   T   T
  0.7489410349080856  0.4999407819443533  0.4104356916895071   T   T   T
  0.7498886337323896  0.7498812460373969  0.4098884836862808   T   T   T
  0.7504520554440788  0.0011631928551665  0.4094699312182044   T   T   T
  0.1248966795910889  0.1248916581800898  0.5211064258270852   T   T   T
  0.1230432827095811  0.3742752783309413  0.5209993277727420   T   T   T
  0.1232639670270004  0.6245111222500412  0.5220176830249983   T   T   T
  0.1248584079444441  0.8751411272985550  0.5212781305938492   T   T   T
  0.3742742364857463  0.1230383207062431  0.5210019275652442   T   T   T
  0.3726607402930426  0.3726585436029808  0.5217548250516160   T   T   T
  0.3744744462270404  0.6255324810783165  0.5317645562768476   T   T   T
  0.3754851234176755  0.8767371255431797  0.5220146952759350   T   T   T
  0.6245142373697163  0.1232613687197386  0.5220189167927316   T   T   T
  0.6255284366261620  0.3744767289031685  0.5317397513739408   T   T   T
  0.6273448090985170  0.6273451863564645  0.5217621737170646   T   T   T
  0.6257212073987972  0.8769582226838679  0.5210007456480383   T   T   T
  0.8751493062934728  0.1248519926528857  0.5212721663165212   T   T   T
  0.8767379007186875  0.3754823639257623  0.5220185095331473   T   T   T
  0.8769647208058302  0.6257189463195800  0.5210029863242909   T   T   T
  0.8751057201156698  0.8751015712353620  0.5211110992149912   T   T   T
  0.1250000002280558  0.1250000002280558  0.2988091046799539   F   F   F
  0.1250000002280558  0.3749999997719442  0.2988091046799539   F   F   F
  0.1250000002280558  0.6249999993158326  0.2988091046799539   F   F   F
  0.1250000002280558  0.8749999988597210  0.2988091046799539   F   F   F
  0.3749999997719442  0.1250000002280558  0.2988091046799539   F   F   F
  0.3749999997719442  0.3749999997719442  0.2988091046799539   F   F   F
  0.3749999997719442  0.6249999993158326  0.2988091046799539   F   F   F
  0.3749999997719442  0.8749999988597210  0.2988091046799539   F   F   F
  0.6249999993158326  0.1250000002280558  0.2988091046799539   F   F   F
  0.6249999993158326  0.3749999997719442  0.2988091046799539   F   F   F
  0.6249999993158326  0.6249999993158326  0.2988091046799539   F   F   F
  0.6249999993158326  0.8749999988597210  0.2988091046799539   F   F   F
  0.8749999988597210  0.1250000002280558  0.2988091046799539   F   F   F
  0.8749999988597210  0.3749999997719442  0.2988091046799539   F   F   F
  0.8749999988597210  0.6249999993158326  0.2988091046799539   F   F   F
  0.8749999988597210  0.8749999988597210  0.2988091046799539   F   F   F
  0.5968139204809830  0.5968683671221342  0.6443663526421020   T   T   T
  0.6280976017294577  0.4653351643523251  0.6486079830908977   T   T   T
  0.5347347024190938  0.3719433031231745  0.6486089521813767   T   T   T
  0.4031805744485553  0.4032284907791421  0.6443649087579999   T   T   T
  0.3719118793841574  0.5347357861147728  0.6486289617194032   T   T   T
  0.4653087645411773  0.6281052795754434  0.6486264053771649   T   T   T
  0.6545327201290618  0.6545558517206729  0.6821686862748635   T   T   T
  0.3455058746548403  0.3455084380453570  0.6821585918107189   T   T   T
  0.7315698233375727  0.4414174769206269  0.6920029913158032   T   T   T
  0.5586534150529161  0.2684927519988705  0.6920172943628415   T   T   T
  0.2684621303644334  0.5586462030308752  0.6920360163446873   T   T   T
  0.4413783958213386  0.7315876814993700  0.6920379225631095   T   T   T
 
  0.00000000E+00  0.00000000E+00  0.00000000E+00
  0.00000000E+00  0.00000000E+00  0.00000000E+00
  0.00000000E+00  0.00000000E+00  0.00000000E+00
  0.00000000E+00  0.00000000E+00  0.00000000E+00
  0.00000000E+00  0.00000000E+00  0.00000000E+00
  0.00000000E+00  0.00000000E+00  0.00000000E+00
  0.00000000E+00  0.00000000E+00  0.00000000E+00
  0.00000000E+00  0.00000000E+00  0.00000000E+00
  0.00000000E+00  0.00000000E+00  0.00000000E+00
  0.00000000E+00  0.00000000E+00  0.00000000E+00
  0.00000000E+00  0.00000000E+00  0.00000000E+00
  0.00000000E+00  0.00000000E+00  0.00000000E+00
  0.00000000E+00  0.00000000E+00  0.00000000E+00
  0.00000000E+00  0.00000000E+00  0.00000000E+00
  0.00000000E+00  0.00000000E+00  0.00000000E+00
  0.00000000E+00  0.00000000E+00  0.00000000E+00
  0.00000000E+00  0.00000000E+00  0.00000000E+00
  0.00000000E+00  0.00000000E+00  0.00000000E+00
  0.00000000E+00  0.00000000E+00  0.00000000E+00
  0.00000000E+00  0.00000000E+00  0.00000000E+00
  0.00000000E+00  0.00000000E+00  0.00000000E+00
  0.00000000E+00  0.00000000E+00  0.00000000E+00
  0.00000000E+00  0.00000000E+00  0.00000000E+00
  0.00000000E+00  0.00000000E+00  0.00000000E+00
  0.00000000E+00  0.00000000E+00  0.00000000E+00
  0.00000000E+00  0.00000000E+00  0.00000000E+00
  0.00000000E+00  0.00000000E+00  0.00000000E+00
  0.00000000E+00  0.00000000E+00  0.00000000E+00
  0.00000000E+00  0.00000000E+00  0.00000000E+00
  0.00000000E+00  0.00000000E+00  0.00000000E+00
  0.00000000E+00  0.00000000E+00  0.00000000E+00
  0.00000000E+00  0.00000000E+00  0.00000000E+00
  0.00000000E+00  0.00000000E+00  0.00000000E+00
  0.00000000E+00  0.00000000E+00  0.00000000E+00
  0.00000000E+00  0.00000000E+00  0.00000000E+00
  0.00000000E+00  0.00000000E+00  0.00000000E+00
  0.00000000E+00  0.00000000E+00  0.00000000E+00
  0.00000000E+00  0.00000000E+00  0.00000000E+00
  0.00000000E+00  0.00000000E+00  0.00000000E+00
  0.00000000E+00  0.00000000E+00  0.00000000E+00
  0.00000000E+00  0.00000000E+00  0.00000000E+00
  0.00000000E+00  0.00000000E+00  0.00000000E+00
  0.00000000E+00  0.00000000E+00  0.00000000E+00
  0.00000000E+00  0.00000000E+00  0.00000000E+00
  0.00000000E+00  0.00000000E+00  0.00000000E+00
  0.00000000E+00  0.00000000E+00  0.00000000E+00
  0.00000000E+00  0.00000000E+00  0.00000000E+00
  0.00000000E+00  0.00000000E+00  0.00000000E+00
  0.00000000E+00  0.00000000E+00  0.00000000E+00
  0.00000000E+00  0.00000000E+00  0.00000000E+00
  0.00000000E+00  0.00000000E+00  0.00000000E+00
  0.00000000E+00  0.00000000E+00  0.00000000E+00
  0.00000000E+00  0.00000000E+00  0.00000000E+00
  0.00000000E+00  0.00000000E+00  0.00000000E+00
  0.00000000E+00  0.00000000E+00  0.00000000E+00
  0.00000000E+00  0.00000000E+00  0.00000000E+00
  0.00000000E+00  0.00000000E+00  0.00000000E+00
  0.00000000E+00  0.00000000E+00  0.00000000E+00
  0.00000000E+00  0.00000000E+00  0.00000000E+00
  0.00000000E+00  0.00000000E+00  0.00000000E+00
