Ir48 C6 Cl2 H4                          
    1.000000000000000     
    10.9622135000000007    0.0000000000000000    0.0000000000000000
     0.0000000000000000   10.9622135000000007    0.0000000000000000
     0.0000000000000000    0.0000000000000000   16.7342864899999988
   Ir   C    Cl   H 
    48     6     2     4
Selective dynamics
Direct
  0.9994836516074628  0.2494161479583283  0.4094875115258105   T   T   T
  0.9999972549751988  0.5000007737230447  0.4092748236902608   T   T   T
  0.0005103912381870  0.7505860153829786  0.4094837783357477   T   T   T
  0.9999978764898074  0.9999978218564110  0.4094419608805921   T   T   T
  0.2502926706252282  0.2502926542323181  0.4102119271309661   T   T   T
  0.2511121738111015  0.4999638602587382  0.4109045401816829   T   T   T
  0.2520704209129434  0.7479295437530880  0.4114721073489633   T   T   T
  0.2494121448139737  0.9994849669057473  0.4094859804170525   T   T   T
  0.4999625357918589  0.2511220366045350  0.4109104352403037   T   T   T
  0.5000023468016650  0.4999925728403625  0.4107966999349273   T   T   T
  0.5000350927165869  0.7488839491119776  0.4109120800279982   T   T   T
  0.5000013713175093  0.0000013799659939  0.4092794645822835   T   T   T
  0.7479222497614728  0.2520768759534633  0.4114813365560508   T   T   T
  0.7488826319363966  0.5000367279923026  0.4109136351231513   T   T   T
  0.7497129063361641  0.7497085420052727  0.4102165155722162   T   T   T
  0.7505848867775242  0.0005110905610408  0.4094918995892272   T   T   T
  0.1249172749746421  0.1249145018261473  0.5211408296177069   T   T   T
  0.1229686771534162  0.3747809109673099  0.5214520818993122   T   T   T
  0.1226395423514433  0.6247833466439303  0.5215558171793546   T   T   T
  0.1249298544683981  0.8750690965295931  0.5213063288783246   T   T   T
  0.3747821380017626  0.1229701411061299  0.5214480297864199   T   T   T
  0.3734590154426414  0.3734545789948243  0.5226877458248751   T   T   T
  0.3727664220089792  0.6272357503045640  0.5282249472138716   T   T   T
  0.3752224348464779  0.8773597342868484  0.5215579178736078   T   T   T
  0.6247802165249183  0.1226388032052981  0.5215555547609085   T   T   T
  0.6272379042776848  0.3727620976299875  0.5282207804280858   T   T   T
  0.6265485010236631  0.6265488426073986  0.5226911164488186   T   T   T
  0.6252202225111176  0.8770312418034507  0.5214494572065789   T   T   T
  0.8750662781652920  0.1249296014125960  0.5213037610324633   T   T   T
  0.8773534974594099  0.3752176476928710  0.5215549216937347   T   T   T
  0.8770270296334246  0.6252193396519417  0.5214504256845132   T   T   T
  0.8750772399046269  0.8750834324556394  0.5211378171232326   T   T   T
  0.1250000002280558  0.1250000002280558  0.2987877614613481   F   F   F
  0.1250000002280558  0.3749999997719442  0.2987877614613481   F   F   F
  0.1250000002280558  0.6249999993158326  0.2987877614613481   F   F   F
  0.1250000002280558  0.8749999988597210  0.2987877614613481   F   F   F
  0.3749999997719442  0.1250000002280558  0.2987877614613481   F   F   F
  0.3749999997719442  0.3749999997719442  0.2987877614613481   F   F   F
  0.3749999997719442  0.6249999993158326  0.2987877614613481   F   F   F
  0.3749999997719442  0.8749999988597210  0.2987877614613481   F   F   F
  0.6249999993158326  0.1250000002280558  0.2987877614613481   F   F   F
  0.6249999993158326  0.3749999997719442  0.2987877614613481   F   F   F
  0.6249999993158326  0.6249999993158326  0.2987877614613481   F   F   F
  0.6249999993158326  0.8749999988597210  0.2987877614613481   F   F   F
  0.8749999988597210  0.1250000002280558  0.2987877614613481   F   F   F
  0.8749999988597210  0.3749999997719442  0.2987877614613481   F   F   F
  0.8749999988597210  0.6249999993158326  0.2987877614613481   F   F   F
  0.8749999988597210  0.8749999988597210  0.2987877614613481   F   F   F
  0.5960020191830182  0.5959756550352964  0.6445547073867175   T   T   T
  0.6277798348262067  0.4644912021342904  0.6488414533284725   T   T   T
  0.5355193220477048  0.3722348799711099  0.6488365338057207   T   T   T
  0.4040067337690942  0.4040341454351832  0.6445441974358701   T   T   T
  0.3722322017151782  0.5355336359063472  0.6488363136855497   T   T   T
  0.4644982053417408  0.6277756156951497  0.6488372054832467   T   T   T
  0.6890760105768194  0.6890490227808925  0.7070385021165606   T   T   T
  0.3109332329960282  0.3109658740142009  0.7070156395351859   T   T   T
  0.7166726834181461  0.4433090384256673  0.6743786616550338   T   T   T
  0.5566744308367646  0.2833164566976052  0.6743755163936953   T   T   T
  0.2833402162239196  0.5567004815261924  0.6743727763001957   T   T   T
  0.4433293012039243  0.7166887556724504  0.6743711216970780   T   T   T
 
  0.00000000E+00  0.00000000E+00  0.00000000E+00
  0.00000000E+00  0.00000000E+00  0.00000000E+00
  0.00000000E+00  0.00000000E+00  0.00000000E+00
  0.00000000E+00  0.00000000E+00  0.00000000E+00
  0.00000000E+00  0.00000000E+00  0.00000000E+00
  0.00000000E+00  0.00000000E+00  0.00000000E+00
  0.00000000E+00  0.00000000E+00  0.00000000E+00
  0.00000000E+00  0.00000000E+00  0.00000000E+00
  0.00000000E+00  0.00000000E+00  0.00000000E+00
  0.00000000E+00  0.00000000E+00  0.00000000E+00
  0.00000000E+00  0.00000000E+00  0.00000000E+00
  0.00000000E+00  0.00000000E+00  0.00000000E+00
  0.00000000E+00  0.00000000E+00  0.00000000E+00
  0.00000000E+00  0.00000000E+00  0.00000000E+00
  0.00000000E+00  0.00000000E+00  0.00000000E+00
  0.00000000E+00  0.00000000E+00  0.00000000E+00
  0.00000000E+00  0.00000000E+00  0.00000000E+00
  0.00000000E+00  0.00000000E+00  0.00000000E+00
  0.00000000E+00  0.00000000E+00  0.00000000E+00
  0.00000000E+00  0.00000000E+00  0.00000000E+00
  0.00000000E+00  0.00000000E+00  0.00000000E+00
  0.00000000E+00  0.00000000E+00  0.00000000E+00
  0.00000000E+00  0.00000000E+00  0.00000000E+00
  0.00000000E+00  0.00000000E+00  0.00000000E+00
  0.00000000E+00  0.00000000E+00  0.00000000E+00
  0.00000000E+00  0.00000000E+00  0.00000000E+00
  0.00000000E+00  0.00000000E+00  0.00000000E+00
  0.00000000E+00  0.00000000E+00  0.00000000E+00
  0.00000000E+00  0.00000000E+00  0.00000000E+00
  0.00000000E+00  0.00000000E+00  0.00000000E+00
  0.00000000E+00  0.00000000E+00  0.00000000E+00
  0.00000000E+00  0.00000000E+00  0.00000000E+00
  0.00000000E+00  0.00000000E+00  0.00000000E+00
  0.00000000E+00  0.00000000E+00  0.00000000E+00
  0.00000000E+00  0.00000000E+00  0.00000000E+00
  0.00000000E+00  0.00000000E+00  0.00000000E+00
  0.00000000E+00  0.00000000E+00  0.00000000E+00
  0.00000000E+00  0.00000000E+00  0.00000000E+00
  0.00000000E+00  0.00000000E+00  0.00000000E+00
  0.00000000E+00  0.00000000E+00  0.00000000E+00
  0.00000000E+00  0.00000000E+00  0.00000000E+00
  0.00000000E+00  0.00000000E+00  0.00000000E+00
  0.00000000E+00  0.00000000E+00  0.00000000E+00
  0.00000000E+00  0.00000000E+00  0.00000000E+00
  0.00000000E+00  0.00000000E+00  0.00000000E+00
  0.00000000E+00  0.00000000E+00  0.00000000E+00
  0.00000000E+00  0.00000000E+00  0.00000000E+00
  0.00000000E+00  0.00000000E+00  0.00000000E+00
  0.00000000E+00  0.00000000E+00  0.00000000E+00
  0.00000000E+00  0.00000000E+00  0.00000000E+00
  0.00000000E+00  0.00000000E+00  0.00000000E+00
  0.00000000E+00  0.00000000E+00  0.00000000E+00
  0.00000000E+00  0.00000000E+00  0.00000000E+00
  0.00000000E+00  0.00000000E+00  0.00000000E+00
  0.00000000E+00  0.00000000E+00  0.00000000E+00
  0.00000000E+00  0.00000000E+00  0.00000000E+00
  0.00000000E+00  0.00000000E+00  0.00000000E+00
  0.00000000E+00  0.00000000E+00  0.00000000E+00
  0.00000000E+00  0.00000000E+00  0.00000000E+00
  0.00000000E+00  0.00000000E+00  0.00000000E+00
