Cu  C  H Br                             
    1.000000000000000     
    10.2424774999999997    0.0000000000000000    0.0000000000000000
     0.0000000000000000   10.2424774999999997    0.0000000000000000
     0.0000000000000000    0.0000000000000000   23.4318939600000000
   Cu   C    H    Br
    64     6     2     4
Selective dynamics
Direct
  0.2499999995118358  0.0000000000000000  0.3200765594451340   F   F   F
  0.0000000000000000  0.4999999990236716  0.3200765594451340   F   F   F
  0.2499999995118358  0.2499999995118358  0.3200765594451340   F   F   F
  0.2499999995118358  0.4999999990236716  0.3200765594451340   F   F   F
  0.2499999995118358  0.7499999985355075  0.3200765594451340   F   F   F
  0.4999999990236716  0.0000000000000000  0.3200765594451340   F   F   F
  0.4999999990236716  0.2499999995118358  0.3200765594451340   F   F   F
  0.0000000000000000  0.7499999985355075  0.3200765594451340   F   F   F
  0.4999999990236716  0.4999999990236716  0.3200765594451340   F   F   F
  0.4999999990236716  0.7499999985355075  0.3200765594451340   F   F   F
  0.7499999985355075  0.0000000000000000  0.3200765594451340   F   F   F
  0.7499999985355075  0.2499999995118358  0.3200765594451340   F   F   F
  0.7499999985355075  0.4999999990236716  0.3200765594451340   F   F   F
  0.7499999985355075  0.7499999985355075  0.3200765594451340   F   F   F
  0.0000000000000000  0.0000000000000000  0.3200765594451340   F   F   F
  0.0000000000000000  0.2499999995118358  0.3200765594451340   F   F   F
  0.2500066383886670  0.9998342287196992  0.4740884197030719   T   T   T
  0.2503836829785908  0.2503558640804756  0.4742953024601192   T   T   T
  0.2501400134383872  0.4992756736651647  0.4742675763990542   T   T   T
  0.2501449324194015  0.7498478149070473  0.4743080368294857   T   T   T
  0.4999856566126484 -0.0000118473555100  0.4741660842613508   T   T   T
  0.4992898942615004  0.2501622723667384  0.4742789741395651   T   T   T
  0.5000094687978633  0.4999631184126179  0.4744632832779502   T   T   T
  0.5007012202039739  0.7498487498210034  0.4742620061383783   T   T   T
  0.7500303590893582  0.0001565378631164  0.4740676100634243   T   T   T
  0.7498409975887597  0.2501601203071457  0.4743132868394693   T   T   T
  0.7498075904166286  0.5006546326325882  0.4742887752090957   T   T   T
  0.7496320688151401  0.7496142882602166  0.4742852468544225   T   T   T
  0.0000132103613468  0.0000025323651103  0.4740414735891900   T   T   T
  0.9998301621670777  0.2499897264230733  0.4740809632583832   T   T   T
 -0.0000117809298170  0.4999987170275309  0.4741753142315364   T   T   T
  0.0001705402182850  0.7500004099436265  0.4740868125397704   T   T   T
  0.1250836379373558  0.1250629577322722  0.5496504904260047   T   T   T
  0.1243623832899536  0.3741593174975588  0.5494626168338000   T   T   T
  0.1243179869200768  0.6250630236052038  0.5499014715178790   T   T   T
  0.1246550090976849  0.8753515259155635  0.5495477312241914   T   T   T
  0.3742297011776134  0.1243655993428214  0.5494812618731774   T   T   T
  0.3739477039057709  0.3739523486396377  0.5514869433463792   T   T   T
  0.3748130986088985  0.6251701067529397  0.5484377829715480   T   T   T
  0.3749369512448824  0.8756647965439380  0.5498995022282470   T   T   T
  0.6250786415335470  0.1242646852110284  0.5498541176277694   T   T   T
  0.6251741924095686  0.3747166061999392  0.5485299465786000   T   T   T
  0.6260187656264032  0.6260301634134690  0.5514551327940992   T   T   T
  0.6258323120483668  0.8756319661312743  0.5494458016624102   T   T   T
  0.8753444723164940  0.1246397433261355  0.5495461663950192   T   T   T
  0.8756875752579325  0.3749161214869083  0.5499046080972326   T   T   T
  0.8756213619995797  0.6258128457036467  0.5494647416100068   T   T   T
  0.8749358639869415  0.8749256668773533  0.5496438836529430   T   T   T
  0.1250000002440785  0.1249999992677573  0.3973486452223582   F   F   F
  0.1250000002440785  0.3749999997559215  0.3973486452223582   F   F   F
  0.1250000002440785  0.6249999982914289  0.3973486452223582   F   F   F
  0.1250000002440785  0.8749999987795931  0.3973486452223582   F   F   F
  0.3749999997559215  0.1249999992677573  0.3973486452223582   F   F   F
  0.3749999997559215  0.3749999997559215  0.3973486452223582   F   F   F
  0.3749999997559215  0.6249999982914289  0.3973486452223582   F   F   F
  0.3749999997559215  0.8749999987795931  0.3973486452223582   F   F   F
  0.6249999982914289  0.1249999992677573  0.3973486452223582   F   F   F
  0.6249999982914289  0.3749999997559215  0.3973486452223582   F   F   F
  0.6249999992677573  0.6249999982914289  0.3973486452223582   F   F   F
  0.6249999992677573  0.8749999987795931  0.3973486452223582   F   F   F
  0.8749999987795931  0.1249999992677573  0.3973486452223582   F   F   F
  0.8749999978032648  0.3749999997559215  0.3973486452223582   F   F   F
  0.8749999987795931  0.6249999982914289  0.3973486452223582   F   F   F
  0.8749999987795931  0.8749999987795931  0.3973486452223582   F   F   F
  0.5980988612531211  0.5984298286146224  0.6465113452411115   T   T   T
  0.6322745800843685  0.4638523664245112  0.6538825459187462   T   T   T
  0.5361331005168222  0.3677140138037450  0.6539578811535740   T   T   T
  0.4015177645495691  0.4019886062012289  0.6465624170607333   T   T   T
  0.3674096975783951  0.5366569886191564  0.6537812874504035   T   T   T
  0.4635517194383323  0.6327176423200841  0.6537708881321018   T   T   T
  0.6716474098975673  0.6720275309060174  0.6563784111833995   T   T   T
  0.3278099538282803  0.3285352647927550  0.6565071869865567   T   T   T
  0.8109865025377831  0.4260372357275947  0.6678292926453995   T   T   T
  0.5737718093011119  0.1891676623529284  0.6683612343176761   T   T   T
  0.1887922548381646  0.5745754447149971  0.6676937349197336   T   T   T
  0.4258384467127502  0.8114707316857546  0.6677445018348599   T   T   T
 
  0.00000000E+00  0.00000000E+00  0.00000000E+00
  0.00000000E+00  0.00000000E+00  0.00000000E+00
  0.00000000E+00  0.00000000E+00  0.00000000E+00
  0.00000000E+00  0.00000000E+00  0.00000000E+00
  0.00000000E+00  0.00000000E+00  0.00000000E+00
  0.00000000E+00  0.00000000E+00  0.00000000E+00
  0.00000000E+00  0.00000000E+00  0.00000000E+00
  0.00000000E+00  0.00000000E+00  0.00000000E+00
  0.00000000E+00  0.00000000E+00  0.00000000E+00
  0.00000000E+00  0.00000000E+00  0.00000000E+00
  0.00000000E+00  0.00000000E+00  0.00000000E+00
  0.00000000E+00  0.00000000E+00  0.00000000E+00
  0.00000000E+00  0.00000000E+00  0.00000000E+00
  0.00000000E+00  0.00000000E+00  0.00000000E+00
  0.00000000E+00  0.00000000E+00  0.00000000E+00
  0.00000000E+00  0.00000000E+00  0.00000000E+00
  0.00000000E+00  0.00000000E+00  0.00000000E+00
  0.00000000E+00  0.00000000E+00  0.00000000E+00
  0.00000000E+00  0.00000000E+00  0.00000000E+00
  0.00000000E+00  0.00000000E+00  0.00000000E+00
  0.00000000E+00  0.00000000E+00  0.00000000E+00
  0.00000000E+00  0.00000000E+00  0.00000000E+00
  0.00000000E+00  0.00000000E+00  0.00000000E+00
  0.00000000E+00  0.00000000E+00  0.00000000E+00
  0.00000000E+00  0.00000000E+00  0.00000000E+00
  0.00000000E+00  0.00000000E+00  0.00000000E+00
  0.00000000E+00  0.00000000E+00  0.00000000E+00
  0.00000000E+00  0.00000000E+00  0.00000000E+00
  0.00000000E+00  0.00000000E+00  0.00000000E+00
  0.00000000E+00  0.00000000E+00  0.00000000E+00
  0.00000000E+00  0.00000000E+00  0.00000000E+00
  0.00000000E+00  0.00000000E+00  0.00000000E+00
  0.00000000E+00  0.00000000E+00  0.00000000E+00
  0.00000000E+00  0.00000000E+00  0.00000000E+00
  0.00000000E+00  0.00000000E+00  0.00000000E+00
  0.00000000E+00  0.00000000E+00  0.00000000E+00
  0.00000000E+00  0.00000000E+00  0.00000000E+00
  0.00000000E+00  0.00000000E+00  0.00000000E+00
  0.00000000E+00  0.00000000E+00  0.00000000E+00
  0.00000000E+00  0.00000000E+00  0.00000000E+00
  0.00000000E+00  0.00000000E+00  0.00000000E+00
  0.00000000E+00  0.00000000E+00  0.00000000E+00
  0.00000000E+00  0.00000000E+00  0.00000000E+00
  0.00000000E+00  0.00000000E+00  0.00000000E+00
  0.00000000E+00  0.00000000E+00  0.00000000E+00
  0.00000000E+00  0.00000000E+00  0.00000000E+00
  0.00000000E+00  0.00000000E+00  0.00000000E+00
  0.00000000E+00  0.00000000E+00  0.00000000E+00
  0.00000000E+00  0.00000000E+00  0.00000000E+00
  0.00000000E+00  0.00000000E+00  0.00000000E+00
  0.00000000E+00  0.00000000E+00  0.00000000E+00
  0.00000000E+00  0.00000000E+00  0.00000000E+00
  0.00000000E+00  0.00000000E+00  0.00000000E+00
  0.00000000E+00  0.00000000E+00  0.00000000E+00
  0.00000000E+00  0.00000000E+00  0.00000000E+00
  0.00000000E+00  0.00000000E+00  0.00000000E+00
  0.00000000E+00  0.00000000E+00  0.00000000E+00
  0.00000000E+00  0.00000000E+00  0.00000000E+00
  0.00000000E+00  0.00000000E+00  0.00000000E+00
  0.00000000E+00  0.00000000E+00  0.00000000E+00
  0.00000000E+00  0.00000000E+00  0.00000000E+00
  0.00000000E+00  0.00000000E+00  0.00000000E+00
  0.00000000E+00  0.00000000E+00  0.00000000E+00
  0.00000000E+00  0.00000000E+00  0.00000000E+00
  0.00000000E+00  0.00000000E+00  0.00000000E+00
  0.00000000E+00  0.00000000E+00  0.00000000E+00
  0.00000000E+00  0.00000000E+00  0.00000000E+00
  0.00000000E+00  0.00000000E+00  0.00000000E+00
  0.00000000E+00  0.00000000E+00  0.00000000E+00
  0.00000000E+00  0.00000000E+00  0.00000000E+00
  0.00000000E+00  0.00000000E+00  0.00000000E+00
  0.00000000E+00  0.00000000E+00  0.00000000E+00
  0.00000000E+00  0.00000000E+00  0.00000000E+00
  0.00000000E+00  0.00000000E+00  0.00000000E+00
  0.00000000E+00  0.00000000E+00  0.00000000E+00
  0.00000000E+00  0.00000000E+00  0.00000000E+00
