Pt48 C6 F6                              
    1.000000000000000     
    11.2480068000000006    0.0000000000000000    0.0000000000000000
     0.0000000000000000   11.2480068000000006    0.0000000000000000
     0.0000000000000000    0.0000000000000000   16.9136689300000000
   Pt   C    F 
    48     6     6
Selective dynamics
Direct
  0.2493376995719458  0.9979949078778318  0.4102723630813614   T   T   T
  0.2503588987985381  0.2503595701354442  0.4105599951419237   T   T   T
  0.2538634566528657  0.5006187044451451  0.4131119726847317   T   T   T
  0.2540646946753995  0.7459363760977240  0.4137939328005160   T   T   T
  0.5000000017780906  0.0000000000000000  0.4100574192669271   T   T   T
  0.5006195590152913  0.2538653867556420  0.4131105433231141   T   T   T
  0.5000000017780906  0.5000000017780906  0.4143821434942652   T   T   T
  0.4993804445408898  0.7461346168005392  0.4131105433231141   T   T   T
  0.7506623039842353  0.0020050921221682  0.4102723630813614   T   T   T
  0.7459353088807816  0.2540636274584571  0.4137939328005160   T   T   T
  0.7461365469033154  0.4993812991110360  0.4131119726847317   T   T   T
  0.7496411047576430  0.7496404334207369  0.4105599951419237   T   T   T
  0.0000000000000000  0.0000000000000000  0.4104193770854820   T   T   T
  0.9980001423523888  0.2493358808403556  0.4102735638432549   T   T   T
  0.0000000000000000  0.5000000017780906  0.4100604586680987   T   T   T
  0.0019998576476112  0.7506641227158255  0.4102735638432549   T   T   T
  0.1232793075387164  0.1232775935730501  0.5258216780182963   T   T   T
  0.1221629987333870  0.3732249302691457  0.5253407779648782   T   T   T
  0.1241227825645268  0.6235929556504871  0.5266068795361818   T   T   T
  0.1256470240648966  0.8743514514931405  0.5267008499615926   T   T   T
  0.3732262647489293  0.1221632200720748  0.5253399820784779   T   T   T
  0.3665163816329269  0.3665166305693788  0.5319256863148425   T   T   T
  0.3755651628503358  0.6244313861950559  0.5416039523477494   T   T   T
  0.3764046615444556  0.8758760435170032  0.5266074408626622   T   T   T
  0.6235953429007708  0.1241239591501326  0.5266074408626622   T   T   T
  0.6244348415948906  0.3755686173611252  0.5416039523477494   T   T   T
  0.6334836228122995  0.6334833729868024  0.5319256863148425   T   T   T
  0.6267737396962971  0.8778367825950610  0.5253399820784779   T   T   T
  0.8743529803803369  0.1256485511739953  0.5267008499615926   T   T   T
  0.8758772209916543  0.3764070479056940  0.5266068795361818   T   T   T
  0.8778370057118394  0.6267750732870354  0.5253407779648782   T   T   T
  0.8767206969065171  0.8767224090940857  0.5258216780182963   T   T   T
  0.1250000008890453  0.1250000000000000  0.2956188879357455   F   F   F
  0.1250000008890453  0.3750000008890453  0.2956188879357455   F   F   F
  0.1250000008890453  0.6250000026671358  0.2956188879357455   F   F   F
  0.1250000008890453  0.8750000026671358  0.2956188879357455   F   F   F
  0.3750000017780906  0.1250000000000000  0.2956188879357455   F   F   F
  0.3750000017780906  0.3750000008890453  0.2956188879357455   F   F   F
  0.3750000017780906  0.6250000026671358  0.2956188879357455   F   F   F
  0.3750000017780906  0.8750000026671358  0.2956188879357455   F   F   F
  0.6250000026671358  0.1250000000000000  0.2956188879357455   F   F   F
  0.6250000026671358  0.3750000008890453  0.2956188879357455   F   F   F
  0.6250000026671358  0.6250000026671358  0.2956188879357455   F   F   F
  0.6250000026671358  0.8750000026671358  0.2956188879357455   F   F   F
  0.8750000035561882  0.1250000000000000  0.2956188879357455   F   F   F
  0.8750000026671358  0.3750000008890453  0.2956188879357455   F   F   F
  0.8750000035561882  0.6250000026671358  0.2956188879357455   F   F   F
  0.8750000035561882  0.8750000026671358  0.2956188879357455   F   F   F
  0.6263498682988740  0.4649772466957103  0.6526449050950802   T   T   T
  0.5350328485461446  0.3736447947706694  0.6526465328651838   T   T   T
  0.4044075901610356  0.4044058762248710  0.6468702759927538   T   T   T
  0.3736501645958370  0.5350227701961714  0.6526449050950802   T   T   T
  0.4649671274496043  0.6263551954498254  0.6526465328651838   T   T   T
  0.5955924142841909  0.5955941273313101  0.6468702759927538   T   T   T
  0.7244454280540538  0.4437466234783685  0.6972312924991186   T   T   T
  0.5562600557258719  0.2755580140743774  0.6972346317773486   T   T   T
  0.3395542263252125  0.3395522286997590  0.7009662768479856   T   T   T
  0.2755545763911798  0.5562533800778127  0.6972312924991186   T   T   T
  0.4437398793737373  0.7244419717008768  0.6972346317773486   T   T   T
  0.6604457505595818  0.6604477615207358  0.7009662768479856   T   T   T
 
  0.00000000E+00  0.00000000E+00  0.00000000E+00
  0.00000000E+00  0.00000000E+00  0.00000000E+00
  0.00000000E+00  0.00000000E+00  0.00000000E+00
  0.00000000E+00  0.00000000E+00  0.00000000E+00
  0.00000000E+00  0.00000000E+00  0.00000000E+00
  0.00000000E+00  0.00000000E+00  0.00000000E+00
  0.00000000E+00  0.00000000E+00  0.00000000E+00
  0.00000000E+00  0.00000000E+00  0.00000000E+00
  0.00000000E+00  0.00000000E+00  0.00000000E+00
  0.00000000E+00  0.00000000E+00  0.00000000E+00
  0.00000000E+00  0.00000000E+00  0.00000000E+00
  0.00000000E+00  0.00000000E+00  0.00000000E+00
  0.00000000E+00  0.00000000E+00  0.00000000E+00
  0.00000000E+00  0.00000000E+00  0.00000000E+00
  0.00000000E+00  0.00000000E+00  0.00000000E+00
  0.00000000E+00  0.00000000E+00  0.00000000E+00
  0.00000000E+00  0.00000000E+00  0.00000000E+00
  0.00000000E+00  0.00000000E+00  0.00000000E+00
  0.00000000E+00  0.00000000E+00  0.00000000E+00
  0.00000000E+00  0.00000000E+00  0.00000000E+00
  0.00000000E+00  0.00000000E+00  0.00000000E+00
  0.00000000E+00  0.00000000E+00  0.00000000E+00
  0.00000000E+00  0.00000000E+00  0.00000000E+00
  0.00000000E+00  0.00000000E+00  0.00000000E+00
  0.00000000E+00  0.00000000E+00  0.00000000E+00
  0.00000000E+00  0.00000000E+00  0.00000000E+00
  0.00000000E+00  0.00000000E+00  0.00000000E+00
  0.00000000E+00  0.00000000E+00  0.00000000E+00
  0.00000000E+00  0.00000000E+00  0.00000000E+00
  0.00000000E+00  0.00000000E+00  0.00000000E+00
  0.00000000E+00  0.00000000E+00  0.00000000E+00
  0.00000000E+00  0.00000000E+00  0.00000000E+00
  0.00000000E+00  0.00000000E+00  0.00000000E+00
  0.00000000E+00  0.00000000E+00  0.00000000E+00
  0.00000000E+00  0.00000000E+00  0.00000000E+00
  0.00000000E+00  0.00000000E+00  0.00000000E+00
  0.00000000E+00  0.00000000E+00  0.00000000E+00
  0.00000000E+00  0.00000000E+00  0.00000000E+00
  0.00000000E+00  0.00000000E+00  0.00000000E+00
  0.00000000E+00  0.00000000E+00  0.00000000E+00
  0.00000000E+00  0.00000000E+00  0.00000000E+00
  0.00000000E+00  0.00000000E+00  0.00000000E+00
  0.00000000E+00  0.00000000E+00  0.00000000E+00
  0.00000000E+00  0.00000000E+00  0.00000000E+00
  0.00000000E+00  0.00000000E+00  0.00000000E+00
  0.00000000E+00  0.00000000E+00  0.00000000E+00
  0.00000000E+00  0.00000000E+00  0.00000000E+00
  0.00000000E+00  0.00000000E+00  0.00000000E+00
  0.00000000E+00  0.00000000E+00  0.00000000E+00
  0.00000000E+00  0.00000000E+00  0.00000000E+00
  0.00000000E+00  0.00000000E+00  0.00000000E+00
  0.00000000E+00  0.00000000E+00  0.00000000E+00
  0.00000000E+00  0.00000000E+00  0.00000000E+00
  0.00000000E+00  0.00000000E+00  0.00000000E+00
  0.00000000E+00  0.00000000E+00  0.00000000E+00
  0.00000000E+00  0.00000000E+00  0.00000000E+00
  0.00000000E+00  0.00000000E+00  0.00000000E+00
  0.00000000E+00  0.00000000E+00  0.00000000E+00
  0.00000000E+00  0.00000000E+00  0.00000000E+00
  0.00000000E+00  0.00000000E+00  0.00000000E+00
