H2 Pt48 C6 F4                           
    1.000000000000000     
    11.2480069999999994    0.0000000000000000    0.0000000000000000
    -5.6240030000000001    9.7410599999999992    0.0000000000000000
     0.0000000000000000    0.0000000000000000   17.8162860000000016
   H    Pt   C    F 
     2    48     6     4
Selective dynamics
Direct
  0.7530507247892331  0.4954190532550697  0.7748898243698008   T   T   T
  0.4959638196763336  0.7526347929666031  0.7760790900751573   T   T   T
  0.0833330000000032  0.1666669999999968  0.3367709999999988   F   F   F
  0.0833330000000032  0.4166669999999968  0.3367709999999988   F   F   F
  0.0833330000000032  0.6666669999999968  0.3367709999999988   F   F   F
  0.0833330000000032  0.9166669999999968  0.3367709999999988   F   F   F
  0.3333330000000032  0.1666669999999968  0.3367709999999988   F   F   F
  0.3333330000000032  0.4166669999999968  0.3367709999999988   F   F   F
  0.3333330000000032  0.6666669999999968  0.3367709999999988   F   F   F
  0.3333330000000032  0.9166669999999968  0.3367709999999988   F   F   F
  0.5833330000000032  0.1666669999999968  0.3367709999999988   F   F   F
  0.5833330000000032  0.4166669999999968  0.3367709999999988   F   F   F
  0.5833330000000032  0.6666669999999968  0.3367709999999988   F   F   F
  0.5833330000000032  0.9166669999999968  0.3367709999999988   F   F   F
  0.8333330000000032  0.1666669999999968  0.3367709999999988   F   F   F
  0.8333330000000032  0.4166669999999968  0.3367709999999988   F   F   F
  0.8333330000000032  0.6666669999999968  0.3367709999999988   F   F   F
  0.8333330000000032  0.9166669999999968  0.3367709999999988   F   F   F
  0.2498664986679628  0.2503532954982290  0.5946544687891873   T   T   T
  0.2495850496189860  0.5005462809298677  0.5944373080674836   T   T   T
  0.2502440096641010  0.7506271375237716  0.5949855902122962   T   T   T
  0.2502718894297047  0.0005584002010437  0.5948851102565840   T   T   T
  0.5001937109871832  0.2501279080991381  0.5944917265041738   T   T   T
  0.4996086713452854  0.5001063873782314  0.5937618019095936   T   T   T
  0.4998651256622608  0.7508147504168221  0.5945354458658301   T   T   T
  0.5001712252172794  0.0005676085615178  0.5949939479066444   T   T   T
  0.7502346148980834  0.2507210437393752  0.5949306504929552   T   T   T
  0.7503192100568796  0.5003644827617393  0.5943658807647836   T   T   T
  0.7504727864375482  0.7509371915429881  0.5935901869683207   T   T   T
  0.7501896752901160  0.0011704982216472  0.5943031175401501   T   T   T
  0.0000631687281611  0.2507566229961924  0.5947484061289430   T   T   T
  0.0000969001692752  0.5005465360422363  0.5949509351297095   T   T   T
  0.0006569015993136  0.7505728645029848  0.5943686820219511   T   T   T
  0.0004135603866189  0.0008965567889732  0.5945553068631497   T   T   T
  0.1669840097663311  0.0834717960602021  0.4656960019470162   T   T   T
  0.1666632830625474  0.3334916593712265  0.4656304935032622   T   T   T
  0.1666203839110736  0.5837571323866584  0.4657462527970537   T   T   T
  0.1672248862563279  0.8337483105191055  0.4656870380717066   T   T   T
  0.4166536021096690  0.0831905975473362  0.4657166274994182   T   T   T
  0.4162657209341347  0.3329134195166361  0.4655126544786228   T   T   T
  0.4164709162396036  0.5835845624892215  0.4654572757573305   T   T   T
  0.4167639374890300  0.8336506894974960  0.4657530974559592   T   T   T
  0.6666398105343063  0.0838395161289895  0.4657190570979211   T   T   T
  0.6665580772393866  0.3334021726359069  0.4656288454938462   T   T   T
  0.6666454889642353  0.5834941144949184  0.4653175163417131   T   T   T
  0.6667176245968633  0.8338775385836286  0.4653953863517799   T   T   T
  0.9169229618534658  0.0837771848625977  0.4656035809896935   T   T   T
  0.9167468545790243  0.3336898761305775  0.4657548542809522   T   T   T
  0.9169245590620179  0.5837516961846418  0.4656241987618657   T   T   T
  0.9174116522132891  0.8340695336045769  0.4654539603162249   T   T   T
  0.6970858162590403  0.5515957644518821  0.7761180463795228   T   T   T
  0.5540942322885982  0.4817212895368712  0.7772643989609307   T   T   T
  0.4822395927592709  0.5536020275104292  0.7777180149195857   T   T   T
  0.5520432931509589  0.6966131830016096  0.7766114945573577   T   T   T
  0.6950999907198465  0.7664325542218151  0.7765091665568633   T   T   T
  0.7669904098460236  0.6946037723355261  0.7763685170135517   T   T   T
  0.4832173527836687  0.3429831643134804  0.7788412379567049   T   T   T
  0.3434734653954266  0.4826455539090020  0.7803205321939330   T   T   T
  0.7659932093658242  0.9052984174453869  0.7776930693929955   T   T   T
  0.9057446665952895  0.7653749158360270  0.7774301645527544   T   T   T
 
  0.00000000E+00  0.00000000E+00  0.00000000E+00
  0.00000000E+00  0.00000000E+00  0.00000000E+00
  0.00000000E+00  0.00000000E+00  0.00000000E+00
  0.00000000E+00  0.00000000E+00  0.00000000E+00
  0.00000000E+00  0.00000000E+00  0.00000000E+00
  0.00000000E+00  0.00000000E+00  0.00000000E+00
  0.00000000E+00  0.00000000E+00  0.00000000E+00
  0.00000000E+00  0.00000000E+00  0.00000000E+00
  0.00000000E+00  0.00000000E+00  0.00000000E+00
  0.00000000E+00  0.00000000E+00  0.00000000E+00
  0.00000000E+00  0.00000000E+00  0.00000000E+00
  0.00000000E+00  0.00000000E+00  0.00000000E+00
  0.00000000E+00  0.00000000E+00  0.00000000E+00
  0.00000000E+00  0.00000000E+00  0.00000000E+00
  0.00000000E+00  0.00000000E+00  0.00000000E+00
  0.00000000E+00  0.00000000E+00  0.00000000E+00
  0.00000000E+00  0.00000000E+00  0.00000000E+00
  0.00000000E+00  0.00000000E+00  0.00000000E+00
  0.00000000E+00  0.00000000E+00  0.00000000E+00
  0.00000000E+00  0.00000000E+00  0.00000000E+00
  0.00000000E+00  0.00000000E+00  0.00000000E+00
  0.00000000E+00  0.00000000E+00  0.00000000E+00
  0.00000000E+00  0.00000000E+00  0.00000000E+00
  0.00000000E+00  0.00000000E+00  0.00000000E+00
  0.00000000E+00  0.00000000E+00  0.00000000E+00
  0.00000000E+00  0.00000000E+00  0.00000000E+00
  0.00000000E+00  0.00000000E+00  0.00000000E+00
  0.00000000E+00  0.00000000E+00  0.00000000E+00
  0.00000000E+00  0.00000000E+00  0.00000000E+00
  0.00000000E+00  0.00000000E+00  0.00000000E+00
  0.00000000E+00  0.00000000E+00  0.00000000E+00
  0.00000000E+00  0.00000000E+00  0.00000000E+00
  0.00000000E+00  0.00000000E+00  0.00000000E+00
  0.00000000E+00  0.00000000E+00  0.00000000E+00
  0.00000000E+00  0.00000000E+00  0.00000000E+00
  0.00000000E+00  0.00000000E+00  0.00000000E+00
  0.00000000E+00  0.00000000E+00  0.00000000E+00
  0.00000000E+00  0.00000000E+00  0.00000000E+00
  0.00000000E+00  0.00000000E+00  0.00000000E+00
  0.00000000E+00  0.00000000E+00  0.00000000E+00
  0.00000000E+00  0.00000000E+00  0.00000000E+00
  0.00000000E+00  0.00000000E+00  0.00000000E+00
  0.00000000E+00  0.00000000E+00  0.00000000E+00
  0.00000000E+00  0.00000000E+00  0.00000000E+00
  0.00000000E+00  0.00000000E+00  0.00000000E+00
  0.00000000E+00  0.00000000E+00  0.00000000E+00
  0.00000000E+00  0.00000000E+00  0.00000000E+00
  0.00000000E+00  0.00000000E+00  0.00000000E+00
  0.00000000E+00  0.00000000E+00  0.00000000E+00
  0.00000000E+00  0.00000000E+00  0.00000000E+00
  0.00000000E+00  0.00000000E+00  0.00000000E+00
  0.00000000E+00  0.00000000E+00  0.00000000E+00
  0.00000000E+00  0.00000000E+00  0.00000000E+00
  0.00000000E+00  0.00000000E+00  0.00000000E+00
  0.00000000E+00  0.00000000E+00  0.00000000E+00
  0.00000000E+00  0.00000000E+00  0.00000000E+00
  0.00000000E+00  0.00000000E+00  0.00000000E+00
  0.00000000E+00  0.00000000E+00  0.00000000E+00
  0.00000000E+00  0.00000000E+00  0.00000000E+00
  0.00000000E+00  0.00000000E+00  0.00000000E+00
