Rh  C  N Br                             
    1.000000000000000     
    10.8856652999999994    0.0000000000000000    0.0000000000000000
     0.0000000000000000   15.3946555000000007    0.0000000000000000
     0.0000000000000000    0.0000000000000000   22.0821244799999974
   Rh   C    N    Br
    64     4     2     4
Selective dynamics
Direct
  0.2500000004593161  0.2500000003247891  0.3396412336499992   F   F   F
  0.0000000018372788  0.7500000016239383  0.3396412336499992   F   F   F
  0.2500000004593161  0.5000000012991492  0.3396412336499992   F   F   F
  0.2500000004593161  0.7500000016239383  0.3396412336499992   F   F   F
  0.2500000004593161  0.0000000019487274  0.3396412336499992   F   F   F
  0.5000000009186394  0.2500000003247891  0.3396412336499992   F   F   F
  0.5000000009186394  0.5000000012991492  0.3396412336499992   F   F   F
  0.0000000018372788  0.0000000019487274  0.3396412336499992   F   F   F
  0.5000000009186394  0.7500000016239383  0.3396412336499992   F   F   F
  0.5000000009186394  0.0000000019487274  0.3396412336499992   F   F   F
  0.7500000013779555  0.2500000003247891  0.3396412336499992   F   F   F
  0.7500000013779555  0.5000000012991492  0.3396412336499992   F   F   F
  0.7500000013779555  0.7500000016239383  0.3396412336499992   F   F   F
  0.7500000013779555  0.0000000019487274  0.3396412336499992   F   F   F
  0.0000000018372788  0.2500000003247891  0.3396412336499992   F   F   F
  0.0000000018372788  0.5000000012991492  0.3396412336499992   F   F   F
  0.2502452880426826  0.2505205922468084  0.4585691153351509   T   T   T
  0.2515330098127790  0.5000096298001270  0.4575055034991817   T   T   T
  0.2495873978269186  0.7503164341515380  0.4579773216061135   T   T   T
  0.2500959771674107  0.9993729909846223  0.4580674810099635   T   T   T
  0.5008513701363909  0.2494125036260294  0.4577603368913263   T   T   T
  0.5000028852668067  0.5000084076361191  0.4577847335077107   T   T   T
  0.4991426234346937  0.7505878114261435  0.4577594165016833   T   T   T
  0.4999940764538254  0.0000007628237371  0.4588645461772368   T   T   T
  0.7504181902978916  0.2496639684637935  0.4579906238427018   T   T   T
  0.7484675214893917  0.4999948238368850  0.4574894011494717   T   T   T
  0.7497418800127942  0.7495027271422530  0.4585773650158226   T   T   T
  0.7499217428447678  0.0006126653135112  0.4580671603291520   T   T   T
  0.0003396315354552  0.2504942645342866  0.4588995621146497   T   T   T
 -0.0000039345261681  0.5000077378562813  0.4589925745292995   T   T   T
  0.9996462838184544  0.7495041085394846  0.4588841835978718   T   T   T
  0.0000089482607323 -0.0000093894648137  0.4588267852927049   T   T   T
  0.1272951595197006  0.1253499046589516  0.5149521318941076   T   T   T
  0.1271368551199281  0.3770360087514433  0.5163742901471653   T   T   T
  0.1245415172262181  0.6241301174134660  0.5157557790080063   T   T   T
  0.1220283609099082  0.8746044446381063  0.5168200588672491   T   T   T
  0.3726021855777570  0.1250432068089721  0.5149703698167100   T   T   T
  0.3770005546139034  0.3721804618623080  0.5161225791755377   T   T   T
  0.3723528733944003  0.6269887037097484  0.5173598798768810   T   T   T
  0.3768312972898149  0.8749786669403838  0.5167642317677827   T   T   T
  0.6231797181357585  0.1250252896819564  0.5167987434836327   T   T   T
  0.6276699592472726  0.3730385346473578  0.5173591489412631   T   T   T
  0.6229754153362207  0.6278313909738510  0.5161240275578962   T   T   T
  0.6274164469156046  0.8749655163727453  0.5149850738865553   T   T   T
  0.8778898289266432  0.1253796844148852  0.5168671014362569   T   T   T
  0.8754797786097637  0.3758723832952426  0.5157598806942075   T   T   T
  0.8728085912923301  0.6229311700465983  0.5163754139413911   T   T   T
  0.8727165096832086  0.8746437451956018  0.5149644211451995   T   T   T
  0.1249999997703384  0.1250000001623945  0.4012615800633341   F   F   F
  0.1249999997703384  0.3750000004871836  0.4012615800633341   F   F   F
  0.1250000006889778  0.6250000014615438  0.4012615800633341   F   F   F
  0.1250000006889778  0.8750000017863329  0.4012615800633341   F   F   F
  0.3750000002296616  0.1250000001623945  0.4012615800633341   F   F   F
  0.3750000002296616  0.3750000004871836  0.4012615800633341   F   F   F
  0.3750000011483010  0.6250000014615438  0.4012615800633341   F   F   F
  0.3750000011483010  0.8750000017863329  0.4012615800633341   F   F   F
  0.6250000006889778  0.1250000001623945  0.4012615800633341   F   F   F
  0.6250000006889778  0.3750000004871836  0.4012615800633341   F   F   F
  0.6250000006889778  0.6250000014615438  0.4012615800633341   F   F   F
  0.6250000006889778  0.8750000017863329  0.4012615800633341   F   F   F
  0.8750000011483010  0.1250000001623945  0.4012615800633341   F   F   F
  0.8750000011483010  0.3750000004871836  0.4012615800633341   F   F   F
  0.8750000020669404  0.6250000014615438  0.4012615800633341   F   F   F
  0.8750000011483010  0.8750000017863329  0.4012615800633341   F   F   F
  0.4350562560513006  0.5767443152507907  0.5938086367642873   T   T   T
  0.3781107016098866  0.4968581487275326  0.6086650292058567   T   T   T
  0.5650398666818155  0.4232425740686029  0.5937978229172814   T   T   T
  0.6220225166548231  0.5031941651045794  0.6086691524901923   T   T   T
  0.4390070184458958  0.4215501662865582  0.5985916512985431   T   T   T
  0.5610489768433233  0.5784787904927561  0.5985848115056720   T   T   T
  0.7981098465199929  0.5112658956382334  0.6189142794154938   T   T   T
  0.7503666707610821  0.1280544086295989  0.6099619076543330   T   T   T
  0.2493463350263038  0.8717416474295675  0.6099022835506149   T   T   T
  0.2019855111349907  0.4888360982659763  0.6189248529256355   T   T   T
 
  0.00000000E+00  0.00000000E+00  0.00000000E+00
  0.00000000E+00  0.00000000E+00  0.00000000E+00
  0.00000000E+00  0.00000000E+00  0.00000000E+00
  0.00000000E+00  0.00000000E+00  0.00000000E+00
  0.00000000E+00  0.00000000E+00  0.00000000E+00
  0.00000000E+00  0.00000000E+00  0.00000000E+00
  0.00000000E+00  0.00000000E+00  0.00000000E+00
  0.00000000E+00  0.00000000E+00  0.00000000E+00
  0.00000000E+00  0.00000000E+00  0.00000000E+00
  0.00000000E+00  0.00000000E+00  0.00000000E+00
  0.00000000E+00  0.00000000E+00  0.00000000E+00
  0.00000000E+00  0.00000000E+00  0.00000000E+00
  0.00000000E+00  0.00000000E+00  0.00000000E+00
  0.00000000E+00  0.00000000E+00  0.00000000E+00
  0.00000000E+00  0.00000000E+00  0.00000000E+00
  0.00000000E+00  0.00000000E+00  0.00000000E+00
  0.00000000E+00  0.00000000E+00  0.00000000E+00
  0.00000000E+00  0.00000000E+00  0.00000000E+00
  0.00000000E+00  0.00000000E+00  0.00000000E+00
  0.00000000E+00  0.00000000E+00  0.00000000E+00
  0.00000000E+00  0.00000000E+00  0.00000000E+00
  0.00000000E+00  0.00000000E+00  0.00000000E+00
  0.00000000E+00  0.00000000E+00  0.00000000E+00
  0.00000000E+00  0.00000000E+00  0.00000000E+00
  0.00000000E+00  0.00000000E+00  0.00000000E+00
  0.00000000E+00  0.00000000E+00  0.00000000E+00
  0.00000000E+00  0.00000000E+00  0.00000000E+00
  0.00000000E+00  0.00000000E+00  0.00000000E+00
  0.00000000E+00  0.00000000E+00  0.00000000E+00
  0.00000000E+00  0.00000000E+00  0.00000000E+00
  0.00000000E+00  0.00000000E+00  0.00000000E+00
  0.00000000E+00  0.00000000E+00  0.00000000E+00
  0.00000000E+00  0.00000000E+00  0.00000000E+00
  0.00000000E+00  0.00000000E+00  0.00000000E+00
  0.00000000E+00  0.00000000E+00  0.00000000E+00
  0.00000000E+00  0.00000000E+00  0.00000000E+00
  0.00000000E+00  0.00000000E+00  0.00000000E+00
  0.00000000E+00  0.00000000E+00  0.00000000E+00
  0.00000000E+00  0.00000000E+00  0.00000000E+00
  0.00000000E+00  0.00000000E+00  0.00000000E+00
  0.00000000E+00  0.00000000E+00  0.00000000E+00
  0.00000000E+00  0.00000000E+00  0.00000000E+00
  0.00000000E+00  0.00000000E+00  0.00000000E+00
  0.00000000E+00  0.00000000E+00  0.00000000E+00
  0.00000000E+00  0.00000000E+00  0.00000000E+00
  0.00000000E+00  0.00000000E+00  0.00000000E+00
  0.00000000E+00  0.00000000E+00  0.00000000E+00
  0.00000000E+00  0.00000000E+00  0.00000000E+00
  0.00000000E+00  0.00000000E+00  0.00000000E+00
  0.00000000E+00  0.00000000E+00  0.00000000E+00
  0.00000000E+00  0.00000000E+00  0.00000000E+00
  0.00000000E+00  0.00000000E+00  0.00000000E+00
  0.00000000E+00  0.00000000E+00  0.00000000E+00
  0.00000000E+00  0.00000000E+00  0.00000000E+00
  0.00000000E+00  0.00000000E+00  0.00000000E+00
  0.00000000E+00  0.00000000E+00  0.00000000E+00
  0.00000000E+00  0.00000000E+00  0.00000000E+00
  0.00000000E+00  0.00000000E+00  0.00000000E+00
  0.00000000E+00  0.00000000E+00  0.00000000E+00
  0.00000000E+00  0.00000000E+00  0.00000000E+00
  0.00000000E+00  0.00000000E+00  0.00000000E+00
  0.00000000E+00  0.00000000E+00  0.00000000E+00
  0.00000000E+00  0.00000000E+00  0.00000000E+00
  0.00000000E+00  0.00000000E+00  0.00000000E+00
  0.00000000E+00  0.00000000E+00  0.00000000E+00
  0.00000000E+00  0.00000000E+00  0.00000000E+00
  0.00000000E+00  0.00000000E+00  0.00000000E+00
  0.00000000E+00  0.00000000E+00  0.00000000E+00
  0.00000000E+00  0.00000000E+00  0.00000000E+00
  0.00000000E+00  0.00000000E+00  0.00000000E+00
  0.00000000E+00  0.00000000E+00  0.00000000E+00
  0.00000000E+00  0.00000000E+00  0.00000000E+00
  0.00000000E+00  0.00000000E+00  0.00000000E+00
  0.00000000E+00  0.00000000E+00  0.00000000E+00
