Ag48 C4 N2 F4                           
    1.000000000000000     
    11.7702790000000004    0.0000000000000000    0.0000000000000000
     0.0000000000000000   16.6456881000000010    0.0000000000000000
     0.0000000000000000    0.0000000000000000   15.7051487600000002
   Ag   C    N    F 
    48     4     2     4
Selective dynamics
Direct
  0.0000281250962217  0.2500483940587657  0.4044737204048161   T   T   T
  0.9999999870201819  0.5000000178841404  0.4044913035727902   T   T   T
  0.9999718403112823  0.7499515357232767  0.4044738118702256   T   T   T
  0.9999999878283887  0.0000000561459927  0.4044568101324657   T   T   T
  0.2500072652125951  0.2500435136918995  0.4045694517490261   T   T   T
  0.2501399641062036  0.4999711871862260  0.4046764828557627   T   T   T
  0.2499475255349424  0.7500640838633785  0.4044912318356850   T   T   T
  0.2499832644863531  0.9999801890356039  0.4045347997454982   T   T   T
  0.4999387324615512  0.2499332596233259  0.4044214121841136   T   T   T
  0.4999999715701264  0.5000000038503458  0.4048776718512315   T   T   T
  0.5000612703173246  0.7500666277493764  0.4044213790848019   T   T   T
  0.4999999882161958  0.0000001239641421  0.4044868297370314   T   T   T
  0.7500523352773385  0.2499358307167370  0.4044912977876294   T   T   T
  0.7498599641286319  0.5000288309933154  0.4046764973493282   T   T   T
  0.7499926652919058  0.7499563849339879  0.4045695433780665   T   T   T
  0.7500166443439085  0.0000199872254427  0.4045349242676224   T   T   T
  0.1249699026908289  0.1250133849966630  0.4905764604669329   T   T   T
  0.1249946576330387  0.3750288083663236  0.4906731013931847   T   T   T
  0.1250798239126851  0.6249144485615474  0.4907224978169467   T   T   T
  0.1249916933177602  0.8749954753162399  0.4906005748310065   T   T   T
  0.3750609603730481  0.1250966195295575  0.4906048603681654   T   T   T
  0.3750090672125594  0.3749781613308087  0.4910929265493138   T   T   T
  0.3745838505872285  0.6250362404386038  0.4895115826278058   T   T   T
  0.3750404438715620  0.8749300567751632  0.4906127379217082   T   T   T
  0.6249594835067498  0.1250699434063378  0.4906121171552158   T   T   T
  0.6254162797066058  0.3749638508037805  0.4895117367092965   T   T   T
  0.6249908476313948  0.6250218408063404  0.4910929686241445   T   T   T
  0.6249390200006815  0.8749033446834460  0.4906052415733981   T   T   T
  0.8750081983704092  0.1250045423556614  0.4906003960945498   T   T   T
  0.8749199541492274  0.3750855789021017  0.4907228208490508   T   T   T
  0.8750052527943240  0.6249711650512140  0.4906730823451539   T   T   T
  0.8750300491910039  0.8749866023561665  0.4905766804823131   T   T   T
  0.1249999995752020  0.1250000004505694  0.3183669302601402   F   F   F
  0.1249999995752020  0.3750000007509442  0.3183669302601402   F   F   F
  0.1249999995752020  0.6250000016520829  0.3183669302601402   F   F   F
  0.1249999995752020  0.8750000019524578  0.3183669302601402   F   F   F
  0.3749999987256061  0.1250000004505694  0.3183669302601402   F   F   F
  0.3749999987256061  0.3750000007509442  0.3183669302601402   F   F   F
  0.3749999987256061  0.6250000016520829  0.3183669302601402   F   F   F
  0.3749999987256061  0.8750000019524578  0.3183669302601402   F   F   F
  0.6249999978760030  0.1250000004505694  0.3183669302601402   F   F   F
  0.6249999978760030  0.3750000007509442  0.3183669302601402   F   F   F
  0.6249999978760030  0.6250000016520829  0.3183669302601402   F   F   F
  0.6249999978760030  0.8750000019524578  0.3183669302601402   F   F   F
  0.8749999970264071  0.1250000004505694  0.3183669302601402   F   F   F
  0.8749999970264071  0.3750000007509442  0.3183669302601402   F   F   F
  0.8749999970264071  0.6250000016520829  0.3183669302601402   F   F   F
  0.8749999970264071  0.8750000019524578  0.3183669302601402   F   F   F
  0.4562517613945758  0.5733221432580535  0.6812991919614433   T   T   T
  0.3872981528281940  0.5047762448620290  0.6813253877162921   T   T   T
  0.5437432213336066  0.4266759334308858  0.6812991009307865   T   T   T
  0.6126985165852474  0.4952222185219100  0.6813255028227232   T   T   T
  0.4319944625867933  0.4321590263748334  0.6812326484392983   T   T   T
  0.5680005422123742  0.5678386241565718  0.6812326084971119   T   T   T
  0.7262824881145775  0.4888631737374638  0.6816985082769165   T   T   T
  0.5899594527231216  0.3527936059085945  0.6827339563408827   T   T   T
  0.4100440651052466  0.6472075968155124  0.6827349643622114   T   T   T
  0.2737132881994455  0.5111326890879724  0.6816964477365417   T   T   T
 
  0.00000000E+00  0.00000000E+00  0.00000000E+00
  0.00000000E+00  0.00000000E+00  0.00000000E+00
  0.00000000E+00  0.00000000E+00  0.00000000E+00
  0.00000000E+00  0.00000000E+00  0.00000000E+00
  0.00000000E+00  0.00000000E+00  0.00000000E+00
  0.00000000E+00  0.00000000E+00  0.00000000E+00
  0.00000000E+00  0.00000000E+00  0.00000000E+00
  0.00000000E+00  0.00000000E+00  0.00000000E+00
  0.00000000E+00  0.00000000E+00  0.00000000E+00
  0.00000000E+00  0.00000000E+00  0.00000000E+00
  0.00000000E+00  0.00000000E+00  0.00000000E+00
  0.00000000E+00  0.00000000E+00  0.00000000E+00
  0.00000000E+00  0.00000000E+00  0.00000000E+00
  0.00000000E+00  0.00000000E+00  0.00000000E+00
  0.00000000E+00  0.00000000E+00  0.00000000E+00
  0.00000000E+00  0.00000000E+00  0.00000000E+00
  0.00000000E+00  0.00000000E+00  0.00000000E+00
  0.00000000E+00  0.00000000E+00  0.00000000E+00
  0.00000000E+00  0.00000000E+00  0.00000000E+00
  0.00000000E+00  0.00000000E+00  0.00000000E+00
  0.00000000E+00  0.00000000E+00  0.00000000E+00
  0.00000000E+00  0.00000000E+00  0.00000000E+00
  0.00000000E+00  0.00000000E+00  0.00000000E+00
  0.00000000E+00  0.00000000E+00  0.00000000E+00
  0.00000000E+00  0.00000000E+00  0.00000000E+00
  0.00000000E+00  0.00000000E+00  0.00000000E+00
  0.00000000E+00  0.00000000E+00  0.00000000E+00
  0.00000000E+00  0.00000000E+00  0.00000000E+00
  0.00000000E+00  0.00000000E+00  0.00000000E+00
  0.00000000E+00  0.00000000E+00  0.00000000E+00
  0.00000000E+00  0.00000000E+00  0.00000000E+00
  0.00000000E+00  0.00000000E+00  0.00000000E+00
  0.00000000E+00  0.00000000E+00  0.00000000E+00
  0.00000000E+00  0.00000000E+00  0.00000000E+00
  0.00000000E+00  0.00000000E+00  0.00000000E+00
  0.00000000E+00  0.00000000E+00  0.00000000E+00
  0.00000000E+00  0.00000000E+00  0.00000000E+00
  0.00000000E+00  0.00000000E+00  0.00000000E+00
  0.00000000E+00  0.00000000E+00  0.00000000E+00
  0.00000000E+00  0.00000000E+00  0.00000000E+00
  0.00000000E+00  0.00000000E+00  0.00000000E+00
  0.00000000E+00  0.00000000E+00  0.00000000E+00
  0.00000000E+00  0.00000000E+00  0.00000000E+00
  0.00000000E+00  0.00000000E+00  0.00000000E+00
  0.00000000E+00  0.00000000E+00  0.00000000E+00
  0.00000000E+00  0.00000000E+00  0.00000000E+00
  0.00000000E+00  0.00000000E+00  0.00000000E+00
  0.00000000E+00  0.00000000E+00  0.00000000E+00
  0.00000000E+00  0.00000000E+00  0.00000000E+00
  0.00000000E+00  0.00000000E+00  0.00000000E+00
  0.00000000E+00  0.00000000E+00  0.00000000E+00
  0.00000000E+00  0.00000000E+00  0.00000000E+00
  0.00000000E+00  0.00000000E+00  0.00000000E+00
  0.00000000E+00  0.00000000E+00  0.00000000E+00
  0.00000000E+00  0.00000000E+00  0.00000000E+00
  0.00000000E+00  0.00000000E+00  0.00000000E+00
  0.00000000E+00  0.00000000E+00  0.00000000E+00
  0.00000000E+00  0.00000000E+00  0.00000000E+00
