H4 Ir48 C6 Cl2                          
    1.000000000000000     
    10.9622130000000002    0.0000000000000000    0.0000000000000000
    -5.4811069999999997    9.4935550000000006    0.0000000000000000
     0.0000000000000000    0.0000000000000000   16.4770989999999991
   H    Ir   C    Cl
     4    48     6     2
Selective dynamics
Direct
  0.5034370912903441  0.6340808257287733  0.7816903490081231   T   T   T
  0.6349466083393764  0.5027541073246340  0.7811656954652122   T   T   T
  0.2471736587221969  0.1149436456153197  0.7811391827028160   T   T   T
  0.1157970492440086  0.2464559503559656  0.7816705412505343   T   T   T
  0.0833330000000032  0.1666669999999968  0.3641420000000011   F   F   F
  0.0833330000000032  0.4166669999999968  0.3641420000000011   F   F   F
  0.0833330000000032  0.6666669999999968  0.3641420000000011   F   F   F
  0.0833330000000032  0.9166669999999968  0.3641420000000011   F   F   F
  0.3333330000000032  0.1666669999999968  0.3641420000000011   F   F   F
  0.3333330000000032  0.4166669999999968  0.3641420000000011   F   F   F
  0.3333330000000032  0.6666669999999968  0.3641420000000011   F   F   F
  0.3333330000000032  0.9166669999999968  0.3641420000000011   F   F   F
  0.5833330000000032  0.1666669999999968  0.3641420000000011   F   F   F
  0.5833330000000032  0.4166669999999968  0.3641420000000011   F   F   F
  0.5833330000000032  0.6666669999999968  0.3641420000000011   F   F   F
  0.5833330000000032  0.9166669999999968  0.3641420000000011   F   F   F
  0.8333330000000032  0.1666669999999968  0.3641420000000011   F   F   F
  0.8333330000000032  0.4166669999999968  0.3641420000000011   F   F   F
  0.8333330000000032  0.6666669999999968  0.3641420000000011   F   F   F
  0.8333330000000032  0.9166669999999968  0.3641420000000011   F   F   F
  0.9962021488434374  0.9959921086717642  0.6261454762407226   T   T   T
  0.9934734817592457  0.2476866679111254  0.6261919320015608   T   T   T
  0.0004318618651808  0.4992109620139260  0.6271050558318194   T   T   T
  0.0010476643316508  0.7489527115681156  0.6262783507842755   T   T   T
  0.2474720058588815  0.9930083286385454  0.6258535147436532   T   T   T
  0.2418282303799018  0.2407579549708174  0.6346529902855522   T   T   T
  0.2512653266544831  0.4987348554376112  0.6345123105669188   T   T   T
  0.2507987473437012  0.7495741126523114  0.6271000112171237   T   T   T
  0.5003107466509249  0.0008078873531403  0.6271343378546987   T   T   T
  0.4995692468624355  0.2504298266185359  0.6354312404243316   T   T   T
  0.5092450829773298  0.5081753106770108  0.6346648283512693   T   T   T
  0.5023200392930036  0.7565314660207818  0.6261947687514038   T   T   T
  0.7501768073437205  0.9998263239987395  0.6267474546962504   T   T   T
  0.7491915717128492  0.2496929409861579  0.6271319074696748   T   T   T
  0.7569870160024337  0.5025266931781971  0.6258567658651302   T   T   T
  0.7540133770558484  0.7538071079352022  0.6261491743409096   T   T   T
  0.1683675722462468  0.0865479937257092  0.4963121577386502   T   T   T
  0.1689874025123075  0.3346300929709187  0.4970937492923326   T   T   T
  0.1690502637162581  0.5809493199076954  0.4971924206880800   T   T   T
  0.1680328008875023  0.8333378986932303  0.4946390667010689   T   T   T
  0.4176941719196563  0.0870128845446274  0.4967682742490354   T   T   T
  0.4157406324612225  0.3342603829533388  0.4986154912961638   T   T   T
  0.4153732054585788  0.5810134920727918  0.4970964973926044   T   T   T
  0.4167279669064357  0.8333742527810131  0.4953742671054329   T   T   T
  0.6662054487673785  0.0837926911007756  0.4954413936289654   T   T   T
  0.6629896934337296  0.3323147636425432  0.4967620784302085   T   T   T
  0.6634527499588572  0.5816381533686084  0.4963168304079915   T   T   T
  0.6660792792987422  0.8323604400432245  0.4951409506626163   T   T   T
  0.9176443126599025  0.0839267393026901  0.4951388760842548   T   T   T
  0.9166319481456924  0.3332810175370824  0.4953671901095902   T   T   T
  0.9166576132218296  0.5819640979689424  0.4946423295311178   T   T   T
  0.9171954309235772  0.8328041582168524  0.4943773340359527   T   T   T
  0.2945197958929882  0.4554146661338478  0.7561620257243220   T   T   T
  0.4507097479980331  0.5255098042494240  0.7593678958756485   T   T   T
  0.5262731876959776  0.4498842241299172  0.7589980017661162   T   T   T
  0.4564456675177269  0.2934918022390818  0.7561931891896592   T   T   T
  0.3000257433858522  0.2236441701540102  0.7589851713747748   T   T   T
  0.2244028536159419  0.2991691080091599  0.7593512978981281   T   T   T
  0.2268209210668743  0.5230418359131761  0.8323780129219571   T   T   T
  0.5227378879920366  0.2271559664125604  0.8339732468012144   T   T   T
 
  0.00000000E+00  0.00000000E+00  0.00000000E+00
  0.00000000E+00  0.00000000E+00  0.00000000E+00
  0.00000000E+00  0.00000000E+00  0.00000000E+00
  0.00000000E+00  0.00000000E+00  0.00000000E+00
  0.00000000E+00  0.00000000E+00  0.00000000E+00
  0.00000000E+00  0.00000000E+00  0.00000000E+00
  0.00000000E+00  0.00000000E+00  0.00000000E+00
  0.00000000E+00  0.00000000E+00  0.00000000E+00
  0.00000000E+00  0.00000000E+00  0.00000000E+00
  0.00000000E+00  0.00000000E+00  0.00000000E+00
  0.00000000E+00  0.00000000E+00  0.00000000E+00
  0.00000000E+00  0.00000000E+00  0.00000000E+00
  0.00000000E+00  0.00000000E+00  0.00000000E+00
  0.00000000E+00  0.00000000E+00  0.00000000E+00
  0.00000000E+00  0.00000000E+00  0.00000000E+00
  0.00000000E+00  0.00000000E+00  0.00000000E+00
  0.00000000E+00  0.00000000E+00  0.00000000E+00
  0.00000000E+00  0.00000000E+00  0.00000000E+00
  0.00000000E+00  0.00000000E+00  0.00000000E+00
  0.00000000E+00  0.00000000E+00  0.00000000E+00
  0.00000000E+00  0.00000000E+00  0.00000000E+00
  0.00000000E+00  0.00000000E+00  0.00000000E+00
  0.00000000E+00  0.00000000E+00  0.00000000E+00
  0.00000000E+00  0.00000000E+00  0.00000000E+00
  0.00000000E+00  0.00000000E+00  0.00000000E+00
  0.00000000E+00  0.00000000E+00  0.00000000E+00
  0.00000000E+00  0.00000000E+00  0.00000000E+00
  0.00000000E+00  0.00000000E+00  0.00000000E+00
  0.00000000E+00  0.00000000E+00  0.00000000E+00
  0.00000000E+00  0.00000000E+00  0.00000000E+00
  0.00000000E+00  0.00000000E+00  0.00000000E+00
  0.00000000E+00  0.00000000E+00  0.00000000E+00
  0.00000000E+00  0.00000000E+00  0.00000000E+00
  0.00000000E+00  0.00000000E+00  0.00000000E+00
  0.00000000E+00  0.00000000E+00  0.00000000E+00
  0.00000000E+00  0.00000000E+00  0.00000000E+00
  0.00000000E+00  0.00000000E+00  0.00000000E+00
  0.00000000E+00  0.00000000E+00  0.00000000E+00
  0.00000000E+00  0.00000000E+00  0.00000000E+00
  0.00000000E+00  0.00000000E+00  0.00000000E+00
  0.00000000E+00  0.00000000E+00  0.00000000E+00
  0.00000000E+00  0.00000000E+00  0.00000000E+00
  0.00000000E+00  0.00000000E+00  0.00000000E+00
  0.00000000E+00  0.00000000E+00  0.00000000E+00
  0.00000000E+00  0.00000000E+00  0.00000000E+00
  0.00000000E+00  0.00000000E+00  0.00000000E+00
  0.00000000E+00  0.00000000E+00  0.00000000E+00
  0.00000000E+00  0.00000000E+00  0.00000000E+00
  0.00000000E+00  0.00000000E+00  0.00000000E+00
  0.00000000E+00  0.00000000E+00  0.00000000E+00
  0.00000000E+00  0.00000000E+00  0.00000000E+00
  0.00000000E+00  0.00000000E+00  0.00000000E+00
  0.00000000E+00  0.00000000E+00  0.00000000E+00
  0.00000000E+00  0.00000000E+00  0.00000000E+00
  0.00000000E+00  0.00000000E+00  0.00000000E+00
  0.00000000E+00  0.00000000E+00  0.00000000E+00
  0.00000000E+00  0.00000000E+00  0.00000000E+00
  0.00000000E+00  0.00000000E+00  0.00000000E+00
  0.00000000E+00  0.00000000E+00  0.00000000E+00
  0.00000000E+00  0.00000000E+00  0.00000000E+00
