Cu  C  H Br                             
    1.000000000000000     
    10.2424774999999997    0.0000000000000000    0.0000000000000000
     0.0000000000000000   14.4850505999999992    0.0000000000000000
     0.0000000000000000    0.0000000000000000   21.8409290399999989
   Cu   C    H    Br
    64     6     2     4
Selective dynamics
Direct
  0.2499999995118358  0.2499999993096296  0.3433919860398049   F   F   F
  0.0000000000000000  0.7499999965481621  0.3433919860398049   F   F   F
  0.2499999995118358  0.4999999986192663  0.3433919860398049   F   F   F
  0.2499999995118358  0.7499999979288958  0.3433919860398049   F   F   F
  0.2499999995118358  0.0000000000000000  0.3433919860398049   F   F   F
  0.4999999990236716  0.2499999993096296  0.3433919860398049   F   F   F
  0.4999999990236716  0.4999999986192663  0.3433919860398049   F   F   F
  0.0000000000000000  0.0000000000000000  0.3433919860398049   F   F   F
  0.4999999990236716  0.7499999979288958  0.3433919860398049   F   F   F
  0.4999999990236716  0.0000000000000000  0.3433919860398049   F   F   F
  0.7499999985355075  0.2499999993096296  0.3433919860398049   F   F   F
  0.7499999985355075  0.4999999986192663  0.3433919860398049   F   F   F
  0.7499999985355075  0.7499999979288958  0.3433919860398049   F   F   F
  0.7499999985355075  0.0000000000000000  0.3433919860398049   F   F   F
  0.9999999980473504  0.2499999993096296  0.3433919860398049   F   F   F
  0.0000000000000000  0.4999999986192663  0.3433919860398049   F   F   F
  0.2500484567299749  0.2503344031134144  0.4621152201452641   T   T   T
  0.2502199156164497  0.4999439224034242  0.4613917601050350   T   T   T
  0.2496116566965233  0.7501544513567858  0.4614288903105131   T   T   T
  0.2499250989460180  0.0000416318884855  0.4618600670072214   T   T   T
  0.4995610771057895  0.2496810910281587  0.4613453094901073   T   T   T
  0.4999954267846987  0.5000027767237055  0.4615734859622745   T   T   T
  0.5004405212241052  0.7503315632558077  0.4613509164832217   T   T   T
  0.4999984246343225 -0.0000025530398008  0.4617904557755620   T   T   T
  0.7504044977850631  0.2498531745174229  0.4614207053871697   T   T   T
  0.7498067468663576  0.5000579961111516  0.4614105953028041   T   T   T
  0.7499660781750833  0.7496743319662417  0.4621157023433899   T   T   T
  0.7500752843147767 -0.0000438629342201  0.4618315061370583   T   T   T
  0.0001651672138160  0.2502304518478599  0.4619933971413903   T   T   T
  0.0000021146198669  0.4999992063186492  0.4615986228927327   T   T   T
 -0.0001745287772996  0.7497680905499525  0.4619863998079299   T   T   T
  0.0000015537758831 -0.0000009177310666  0.4617897556768897   T   T   T
  0.1250420372208279  0.1251086819532353  0.5167847410378583   T   T   T
  0.1253681283837672  0.3753796078066441  0.5171342294890744   T   T   T
  0.1248866812674030  0.6246921547615919  0.5169080641800562   T   T   T
  0.1249759156763670  0.8749857781308825  0.5167182876277785   T   T   T
  0.3749510535019185  0.1250486774669453  0.5167650499911701   T   T   T
  0.3751965925793509  0.3753149792098713  0.5169179053352182   T   T   T
  0.3753196592865028  0.6256124830259172  0.5155470484748687   T   T   T
  0.3749954848197775  0.8750109524063552  0.5165722778788734   T   T   T
  0.6250066455708604  0.1250003752665899  0.5165710707284050   T   T   T
  0.6246965833526069  0.3744075114670305  0.5155419266001328   T   T   T
  0.6248200838013814  0.6246880836591734  0.5169246432577266   T   T   T
  0.6250521886702649  0.8749545042806842  0.5167683666950837   T   T   T
  0.8750267539720199  0.1250145143774989  0.5167196132309153   T   T   T
  0.8751266652749972  0.3753218110806995  0.5169065840106478   T   T   T
  0.8746456166456120  0.6246249254312350  0.5171350739708668   T   T   T
  0.8749654618347704  0.8748861147471606  0.5167838647141708   T   T   T
  0.1250000002440785  0.1249999996548183  0.4020117305412967   F   F   F
  0.1250000002440785  0.3749999989644479  0.4020117305412967   F   F   F
  0.1250000002440785  0.6249999982740846  0.4020117305412967   F   F   F
  0.1250000002440785  0.8749999975837142  0.4020117305412967   F   F   F
  0.3749999997559215  0.1249999996548183  0.4020117305412967   F   F   F
  0.3749999997559215  0.3749999989644479  0.4020117305412967   F   F   F
  0.3749999997559215  0.6249999982740846  0.4020117305412967   F   F   F
  0.3749999997559215  0.8749999975837142  0.4020117305412967   F   F   F
  0.6249999982914289  0.1249999996548183  0.4020117305412967   F   F   F
  0.6249999992677573  0.3749999989644479  0.4020117305412967   F   F   F
  0.6249999992677573  0.6249999982740846  0.4020117305412967   F   F   F
  0.6249999992677573  0.8749999975837142  0.4020117305412967   F   F   F
  0.8749999987795931  0.1249999996548183  0.4020117305412967   F   F   F
  0.8749999978032648  0.3749999989644479  0.4020117305412967   F   F   F
  0.8749999987795931  0.6249999982740846  0.4020117305412967   F   F   F
  0.8749999987795931  0.8749999975837142  0.4020117305412967   F   F   F
  0.5791623949952596  0.5789133996979046  0.6452379588720651   T   T   T
  0.6360849933241081  0.4910174463617509  0.6468662367359015   T   T   T
  0.5570993642559650  0.4121399564532959  0.6466492754728886   T   T   T
  0.4207616193140444  0.4210893300123492  0.6452110453673672   T   T   T
  0.3638466951263237  0.5089719468010673  0.6468593539128843   T   T   T
  0.4427886860913930  0.5878356600758005  0.6466361495745724   T   T   T
  0.6403756076664101  0.6404418403907016  0.6465618739368019   T   T   T
  0.3594713554806268  0.3596227874396910  0.6465118722471629   T   T   T
  0.8201786842848493  0.4831879673448165  0.6460052897435392   T   T   T
  0.6284821745390330  0.2913346843374327  0.6481264332870241   T   T   T
  0.1796289739483909  0.5166521948110342  0.6458607013659559   T   T   T
  0.3713620715636876  0.7086918845178417  0.6479854014225422   T   T   T
 
  0.00000000E+00  0.00000000E+00  0.00000000E+00
  0.00000000E+00  0.00000000E+00  0.00000000E+00
  0.00000000E+00  0.00000000E+00  0.00000000E+00
  0.00000000E+00  0.00000000E+00  0.00000000E+00
  0.00000000E+00  0.00000000E+00  0.00000000E+00
  0.00000000E+00  0.00000000E+00  0.00000000E+00
  0.00000000E+00  0.00000000E+00  0.00000000E+00
  0.00000000E+00  0.00000000E+00  0.00000000E+00
  0.00000000E+00  0.00000000E+00  0.00000000E+00
  0.00000000E+00  0.00000000E+00  0.00000000E+00
  0.00000000E+00  0.00000000E+00  0.00000000E+00
  0.00000000E+00  0.00000000E+00  0.00000000E+00
  0.00000000E+00  0.00000000E+00  0.00000000E+00
  0.00000000E+00  0.00000000E+00  0.00000000E+00
  0.00000000E+00  0.00000000E+00  0.00000000E+00
  0.00000000E+00  0.00000000E+00  0.00000000E+00
  0.00000000E+00  0.00000000E+00  0.00000000E+00
  0.00000000E+00  0.00000000E+00  0.00000000E+00
  0.00000000E+00  0.00000000E+00  0.00000000E+00
  0.00000000E+00  0.00000000E+00  0.00000000E+00
  0.00000000E+00  0.00000000E+00  0.00000000E+00
  0.00000000E+00  0.00000000E+00  0.00000000E+00
  0.00000000E+00  0.00000000E+00  0.00000000E+00
  0.00000000E+00  0.00000000E+00  0.00000000E+00
  0.00000000E+00  0.00000000E+00  0.00000000E+00
  0.00000000E+00  0.00000000E+00  0.00000000E+00
  0.00000000E+00  0.00000000E+00  0.00000000E+00
  0.00000000E+00  0.00000000E+00  0.00000000E+00
  0.00000000E+00  0.00000000E+00  0.00000000E+00
  0.00000000E+00  0.00000000E+00  0.00000000E+00
  0.00000000E+00  0.00000000E+00  0.00000000E+00
  0.00000000E+00  0.00000000E+00  0.00000000E+00
  0.00000000E+00  0.00000000E+00  0.00000000E+00
  0.00000000E+00  0.00000000E+00  0.00000000E+00
  0.00000000E+00  0.00000000E+00  0.00000000E+00
  0.00000000E+00  0.00000000E+00  0.00000000E+00
  0.00000000E+00  0.00000000E+00  0.00000000E+00
  0.00000000E+00  0.00000000E+00  0.00000000E+00
  0.00000000E+00  0.00000000E+00  0.00000000E+00
  0.00000000E+00  0.00000000E+00  0.00000000E+00
  0.00000000E+00  0.00000000E+00  0.00000000E+00
  0.00000000E+00  0.00000000E+00  0.00000000E+00
  0.00000000E+00  0.00000000E+00  0.00000000E+00
  0.00000000E+00  0.00000000E+00  0.00000000E+00
  0.00000000E+00  0.00000000E+00  0.00000000E+00
  0.00000000E+00  0.00000000E+00  0.00000000E+00
  0.00000000E+00  0.00000000E+00  0.00000000E+00
  0.00000000E+00  0.00000000E+00  0.00000000E+00
  0.00000000E+00  0.00000000E+00  0.00000000E+00
  0.00000000E+00  0.00000000E+00  0.00000000E+00
  0.00000000E+00  0.00000000E+00  0.00000000E+00
  0.00000000E+00  0.00000000E+00  0.00000000E+00
  0.00000000E+00  0.00000000E+00  0.00000000E+00
  0.00000000E+00  0.00000000E+00  0.00000000E+00
  0.00000000E+00  0.00000000E+00  0.00000000E+00
  0.00000000E+00  0.00000000E+00  0.00000000E+00
  0.00000000E+00  0.00000000E+00  0.00000000E+00
  0.00000000E+00  0.00000000E+00  0.00000000E+00
  0.00000000E+00  0.00000000E+00  0.00000000E+00
  0.00000000E+00  0.00000000E+00  0.00000000E+00
  0.00000000E+00  0.00000000E+00  0.00000000E+00
  0.00000000E+00  0.00000000E+00  0.00000000E+00
  0.00000000E+00  0.00000000E+00  0.00000000E+00
  0.00000000E+00  0.00000000E+00  0.00000000E+00
  0.00000000E+00  0.00000000E+00  0.00000000E+00
  0.00000000E+00  0.00000000E+00  0.00000000E+00
  0.00000000E+00  0.00000000E+00  0.00000000E+00
  0.00000000E+00  0.00000000E+00  0.00000000E+00
  0.00000000E+00  0.00000000E+00  0.00000000E+00
  0.00000000E+00  0.00000000E+00  0.00000000E+00
  0.00000000E+00  0.00000000E+00  0.00000000E+00
  0.00000000E+00  0.00000000E+00  0.00000000E+00
  0.00000000E+00  0.00000000E+00  0.00000000E+00
  0.00000000E+00  0.00000000E+00  0.00000000E+00
  0.00000000E+00  0.00000000E+00  0.00000000E+00
  0.00000000E+00  0.00000000E+00  0.00000000E+00
