Pd48 C6 Br6                             
    1.000000000000000     
    11.1922750000000004    0.0000000000000000    0.0000000000000000
    -5.5961369999999997    9.6927939999999992    0.0000000000000000
     0.0000000000000000    0.0000000000000000   16.5706309999999988
   Pd   C    Br
    48     6     6
Selective dynamics
Direct
  0.0833330000000032  0.1666669999999968  0.3620859999999979   F   F   F
  0.0833330000000032  0.4166669999999968  0.3620859999999979   F   F   F
  0.0833330000000032  0.6666669999999968  0.3620859999999979   F   F   F
  0.0833330000000032  0.9166669999999968  0.3620859999999979   F   F   F
  0.3333330000000032  0.1666669999999968  0.3620859999999979   F   F   F
  0.3333330000000032  0.4166669999999968  0.3620859999999979   F   F   F
  0.3333330000000032  0.6666669999999968  0.3620859999999979   F   F   F
  0.3333330000000032  0.9166669999999968  0.3620859999999979   F   F   F
  0.5833330000000032  0.1666669999999968  0.3620859999999979   F   F   F
  0.5833330000000032  0.4166669999999968  0.3620859999999979   F   F   F
  0.5833330000000032  0.6666669999999968  0.3620859999999979   F   F   F
  0.5833330000000032  0.9166669999999968  0.3620859999999979   F   F   F
  0.8333330000000032  0.1666669999999968  0.3620859999999979   F   F   F
  0.8333330000000032  0.4166669999999968  0.3620859999999979   F   F   F
  0.8333330000000032  0.6666669999999968  0.3620859999999979   F   F   F
  0.8333330000000032  0.9166669999999968  0.3620859999999979   F   F   F
  0.2506575609854593  0.9952534631309931  0.6363189497625257   T   T   T
  0.2519205993800497  0.2509737111012882  0.6440987113686347   T   T   T
  0.2506641811942387  0.5054306209245496  0.6363364643851597   T   T   T
  0.2567092637917341  0.7533654326621075  0.6364533410306521   T   T   T
  0.5038227052114621  0.9983033165154538  0.6333157919627936   T   T   T
  0.5024444356863782  0.2448263516710227  0.6348053680538115   T   T   T
  0.5024515539476937  0.5076437016108315  0.6348260935194503   T   T   T
  0.5038190031103014  0.7555313055672102  0.6333321095943916   T   T   T
  0.7525069915227078  0.0012558103100417  0.6380938206014193   T   T   T
  0.7535497670556452  0.2468804675753802  0.6378518744281223   T   T   T
  0.7526242806786883  0.5013141215975949  0.6437625790698434   T   T   T
  0.7535425802597544  0.7566787624426752  0.6378692326371720   T   T   T
  0.0049917634194685  0.0028431664504680  0.6391975550582671   T   T   T
  0.0049764010674167  0.2521536573256569  0.6392171068556465   T   T   T
  0.9975284297871880  0.4946398648524237  0.6372125816446186   T   T   T
  0.9975324003100567  0.7529074011701837  0.6372242801404298   T   T   T
  0.1690172001610506  0.0845761286147919  0.5019168807462577   T   T   T
  0.1690189872203476  0.3344485825794834  0.5019272066853944   T   T   T
  0.1653025328184867  0.5828891972506796  0.4984490985185275   T   T   T
  0.1653001062819399  0.8324246324327902  0.4984504856788377   T   T   T
  0.4175989642169426  0.0839510331547615  0.4979900742970997   T   T   T
  0.4163147691760045  0.3331648918018502  0.4985084068756507   T   T   T
  0.4175966319633986  0.5836565034216363  0.4979995282513485   T   T   T
  0.4145720253724008  0.8322854366331853  0.4987269585375884   T   T   T
  0.6681004460709516  0.0828054774979776  0.4984631662103638   T   T   T
  0.6682171462053077  0.3342364272707528  0.4996013429692923   T   T   T
  0.6682146998209717  0.5839962023225809  0.4996082170794551   T   T   T
  0.6680978462408262  0.8352963228004668  0.4984706555155185   T   T   T
  0.9195649863682860  0.0847891449646738  0.4989112930724531   T   T   T
  0.9179217148551757  0.3336861136884508  0.5022564147405078   T   T   T
  0.9151227802176365  0.5825694120383389  0.5010958132903127   T   T   T
  0.9179207372238807  0.8342428853280737  0.5022537515614403   T   T   T
  0.5703527626284526  0.3034148065032412  0.7608005937850280   T   T   T
  0.4233827662166121  0.2302309979574062  0.7628981815765030   T   T   T
  0.3474011254732758  0.2987003413222808  0.7544631901523005   T   T   T
  0.4234218324597094  0.4431914670544188  0.7628966820119487   T   T   T
  0.5704108036367543  0.5169586375735236  0.7608166312593738   T   T   T
  0.6463860926560443  0.4481826367435460  0.7502074242638841   T   T   T
  0.6812466280732465  0.2125997303662501  0.7866309312276414   T   T   T
  0.3155296188242431  0.0289004282904983  0.7864616530707309   T   T   T
  0.9322421607472862  0.0910608554280756  0.7622802390935917   T   T   T
  0.3155912843328750  0.5366853628841710  0.7864788745937190   T   T   T
  0.6813029312629197  0.7186230782060434  0.7866669258950125   T   T   T
  0.0735029369004820  0.6617581299227453  0.7553893130124081   T   T   T
 
  0.00000000E+00  0.00000000E+00  0.00000000E+00
  0.00000000E+00  0.00000000E+00  0.00000000E+00
  0.00000000E+00  0.00000000E+00  0.00000000E+00
  0.00000000E+00  0.00000000E+00  0.00000000E+00
  0.00000000E+00  0.00000000E+00  0.00000000E+00
  0.00000000E+00  0.00000000E+00  0.00000000E+00
  0.00000000E+00  0.00000000E+00  0.00000000E+00
  0.00000000E+00  0.00000000E+00  0.00000000E+00
  0.00000000E+00  0.00000000E+00  0.00000000E+00
  0.00000000E+00  0.00000000E+00  0.00000000E+00
  0.00000000E+00  0.00000000E+00  0.00000000E+00
  0.00000000E+00  0.00000000E+00  0.00000000E+00
  0.00000000E+00  0.00000000E+00  0.00000000E+00
  0.00000000E+00  0.00000000E+00  0.00000000E+00
  0.00000000E+00  0.00000000E+00  0.00000000E+00
  0.00000000E+00  0.00000000E+00  0.00000000E+00
  0.00000000E+00  0.00000000E+00  0.00000000E+00
  0.00000000E+00  0.00000000E+00  0.00000000E+00
  0.00000000E+00  0.00000000E+00  0.00000000E+00
  0.00000000E+00  0.00000000E+00  0.00000000E+00
  0.00000000E+00  0.00000000E+00  0.00000000E+00
  0.00000000E+00  0.00000000E+00  0.00000000E+00
  0.00000000E+00  0.00000000E+00  0.00000000E+00
  0.00000000E+00  0.00000000E+00  0.00000000E+00
  0.00000000E+00  0.00000000E+00  0.00000000E+00
  0.00000000E+00  0.00000000E+00  0.00000000E+00
  0.00000000E+00  0.00000000E+00  0.00000000E+00
  0.00000000E+00  0.00000000E+00  0.00000000E+00
  0.00000000E+00  0.00000000E+00  0.00000000E+00
  0.00000000E+00  0.00000000E+00  0.00000000E+00
  0.00000000E+00  0.00000000E+00  0.00000000E+00
  0.00000000E+00  0.00000000E+00  0.00000000E+00
  0.00000000E+00  0.00000000E+00  0.00000000E+00
  0.00000000E+00  0.00000000E+00  0.00000000E+00
  0.00000000E+00  0.00000000E+00  0.00000000E+00
  0.00000000E+00  0.00000000E+00  0.00000000E+00
  0.00000000E+00  0.00000000E+00  0.00000000E+00
  0.00000000E+00  0.00000000E+00  0.00000000E+00
  0.00000000E+00  0.00000000E+00  0.00000000E+00
  0.00000000E+00  0.00000000E+00  0.00000000E+00
  0.00000000E+00  0.00000000E+00  0.00000000E+00
  0.00000000E+00  0.00000000E+00  0.00000000E+00
  0.00000000E+00  0.00000000E+00  0.00000000E+00
  0.00000000E+00  0.00000000E+00  0.00000000E+00
  0.00000000E+00  0.00000000E+00  0.00000000E+00
  0.00000000E+00  0.00000000E+00  0.00000000E+00
  0.00000000E+00  0.00000000E+00  0.00000000E+00
  0.00000000E+00  0.00000000E+00  0.00000000E+00
  0.00000000E+00  0.00000000E+00  0.00000000E+00
  0.00000000E+00  0.00000000E+00  0.00000000E+00
  0.00000000E+00  0.00000000E+00  0.00000000E+00
  0.00000000E+00  0.00000000E+00  0.00000000E+00
  0.00000000E+00  0.00000000E+00  0.00000000E+00
  0.00000000E+00  0.00000000E+00  0.00000000E+00
  0.00000000E+00  0.00000000E+00  0.00000000E+00
  0.00000000E+00  0.00000000E+00  0.00000000E+00
  0.00000000E+00  0.00000000E+00  0.00000000E+00
  0.00000000E+00  0.00000000E+00  0.00000000E+00
  0.00000000E+00  0.00000000E+00  0.00000000E+00
  0.00000000E+00  0.00000000E+00  0.00000000E+00
