Pd  C  H Br                             
   1.00000000000000     
    11.1922750000000004    0.0000000000000000    0.0000000000000000
    -5.5961369999999997    9.6927939999999992    0.0000000000000000
     0.0000000000000000    0.0000000000000000   24.8538405000000040
   Pd   C    H    Br
    64     6     4     2
Selective dynamics
Direct
  0.9999999513476965  0.0000000206338839  0.3017642283493345   F   F   F
  0.2499999873901899  0.2500000051584692  0.3017642283493345   F   F   F
  0.2499999828216346  0.5000000103169455  0.3017642283493345   F   F   F
  0.2499999773596073  0.7500000154754147  0.3017642283493345   F   F   F
  0.2499999727910591  0.0000000206338839  0.3017642283493345   F   F   F
  0.4999999802424000  0.2500000051584692  0.3017642283493345   F   F   F
  0.4999999756738518  0.5000000103169455  0.3017642283493345   F   F   F
  0.4999999702118245  0.7500000154754147  0.3017642283493345   F   F   F
  0.7499999730946101  0.2500000051584692  0.3017642283493345   F   F   F
  0.7499999685260619  0.5000000103169455  0.3017642283493345   F   F   F
  0.7499999630640346  0.7500000154754147  0.3017642283493345   F   F   F
  0.7499999584954864  0.0000000206338839  0.3017642283493345   F   F   F
  0.9999999659468273  0.2500000051584692  0.3017642283493345   F   F   F
  0.9999999613782720  0.5000000103169455  0.3017642283493345   F   F   F
  0.9999999559162518  0.7500000154754147  0.3017642283493345   F   F   F
  0.4999999656432692  0.0000000206338839  0.3017642283493345   F   F   F
  0.0833330000000032  0.1666669999999968  0.3936861790032040   F   F   F
  0.0833330000000032  0.4166669999999968  0.3936861790032040   F   F   F
  0.0833330000000032  0.6666669999999968  0.3936861790032040   F   F   F
  0.0833330000000032  0.9166669999999968  0.3936861790032040   F   F   F
  0.3333330000000032  0.1666669999999968  0.3936861790032040   F   F   F
  0.3333330000000032  0.4166669999999968  0.3936861790032040   F   F   F
  0.3333330000000032  0.6666669999999968  0.3936861790032040   F   F   F
  0.3333330000000032  0.9166669999999968  0.3936861790032040   F   F   F
  0.5833330000000032  0.1666669999999968  0.3936861790032040   F   F   F
  0.5833330000000032  0.4166669999999968  0.3936861790032040   F   F   F
  0.5833330000000032  0.6666669999999968  0.3936861790032040   F   F   F
  0.5833330000000032  0.9166669999999968  0.3936861790032040   F   F   F
  0.8333330000000032  0.1666669999999968  0.3936861790032040   F   F   F
  0.8333330000000032  0.4166669999999968  0.3936861790032040   F   F   F
  0.8333330000000032  0.6666669999999968  0.3936861790032040   F   F   F
  0.8333330000000032  0.9166669999999968  0.3936861790032040   F   F   F
  0.2474181855762037  0.9945078734403771  0.5740577827531431   T   T   T
  0.2566756323533796  0.2533422204844263  0.5817268692792007   T   T   T
  0.2474270255387363  0.5029175383536517  0.5740593203776146   T   T   T
  0.2490218026868618  0.7495114942069639  0.5757739045560020   T   T   T
  0.5005800978555259  0.9964092091630651  0.5752030269880216   T   T   T
  0.5034897847993274  0.2415811091308773  0.5786119778752117   T   T   T
  0.5035235734203898  0.5119328871420775  0.5786073600403850   T   T   T
  0.5005918770021477  0.7541758355233003  0.5751979773623715   T   T   T
  0.7519982204988299  0.0010014904753486  0.5753798533514665   T   T   T
  0.7558642261771812  0.2485192969915626  0.5744796304821979   T   T   T
  0.7496050260465487  0.4997919180116564  0.5825543126686604   T   T   T
  0.7558220392118904  0.7573195376176471  0.5744883231797077   T   T   T
  0.0022334904889248  0.0015596267653749  0.5756058260802025   T   T   T
  0.0022511497872850  0.2506711524692673  0.5756248745818462   T   T   T
 -0.0000261075004642  0.4999809295493370  0.5762506820243536   T   T   T
 -0.0000104129587940  0.7500063588372843  0.5762515120353233   T   T   T
  0.1687190046962566  0.0864272475944803  0.4850059959246029   T   T   T
  0.1686653135277811  0.3322710913442628  0.4850081922703552   T   T   T
  0.1649665786898443  0.5826286015249761  0.4835012854902446   T   T   T
  0.1649678306493659  0.8323541847509932  0.4835038456030272   T   T   T
  0.4174033325314981  0.0846931856983845  0.4841992374726956   T   T   T
  0.4181596352203656  0.3340889781853120  0.4855102379214088   T   T   T
  0.4173783835699006  0.5827004357312560  0.4842006977036722   T   T   T
  0.4152559731981575  0.8326250110709733  0.4833246089626911   T   T   T
  0.6665547257066530  0.0829570637312931  0.4834603434467106   T   T   T
  0.6655240883420489  0.3330308795829758  0.4853877735875869   T   T   T
  0.6655466504300789  0.5824990836121857  0.4854105808242736   T   T   T
  0.6665416190126267  0.8335842323053069  0.4834523561482149   T   T   T
  0.9172405702073714  0.0836075125711570  0.4837942381497909   T   T   T
  0.9176669190335655  0.3335660606372038  0.4836431932444002   T   T   T
  0.9112710158796439  0.5806321777392771  0.4860100322992588   T   T   T
  0.9176557915025388  0.8341062611754546  0.4836431952453680   T   T   T
  0.3468278848183904  0.2983681243690511  0.6582627541166179   T   T   T
  0.4257553578140738  0.4490610201621260  0.6605861884762647   T   T   T
  0.5734917944411868  0.5229517676788792  0.6607193038054139   T   T   T
  0.6526471901322893  0.4513326499781125  0.6581746152710065   T   T   T
  0.5735174678862291  0.3005479379118751  0.6607136275430933   T   T   T
  0.4257698311296662  0.2266597308488729  0.6605635383399794   T   T   T
  0.3720405139369049  0.5024669849164738  0.6741792458816538   T   T   T
  0.6270590260989154  0.6298088733960806  0.6746565133321120   T   T   T
  0.6270799441307781  0.2472623292980283  0.6746405629283520   T   T   T
  0.3720917696833231  0.1195615230517603  0.6741709383866423   T   T   T
  0.1786883465500960  0.2142761041787895  0.7023423730241335   T   T   T
  0.8211445696685075  0.5355555067795016  0.7023430039938009   T   T   T
 
  0.00000000E+00  0.00000000E+00  0.00000000E+00
  0.00000000E+00  0.00000000E+00  0.00000000E+00
  0.00000000E+00  0.00000000E+00  0.00000000E+00
  0.00000000E+00  0.00000000E+00  0.00000000E+00
  0.00000000E+00  0.00000000E+00  0.00000000E+00
  0.00000000E+00  0.00000000E+00  0.00000000E+00
  0.00000000E+00  0.00000000E+00  0.00000000E+00
  0.00000000E+00  0.00000000E+00  0.00000000E+00
  0.00000000E+00  0.00000000E+00  0.00000000E+00
  0.00000000E+00  0.00000000E+00  0.00000000E+00
  0.00000000E+00  0.00000000E+00  0.00000000E+00
  0.00000000E+00  0.00000000E+00  0.00000000E+00
  0.00000000E+00  0.00000000E+00  0.00000000E+00
  0.00000000E+00  0.00000000E+00  0.00000000E+00
  0.00000000E+00  0.00000000E+00  0.00000000E+00
  0.00000000E+00  0.00000000E+00  0.00000000E+00
  0.00000000E+00  0.00000000E+00  0.00000000E+00
  0.00000000E+00  0.00000000E+00  0.00000000E+00
  0.00000000E+00  0.00000000E+00  0.00000000E+00
  0.00000000E+00  0.00000000E+00  0.00000000E+00
  0.00000000E+00  0.00000000E+00  0.00000000E+00
  0.00000000E+00  0.00000000E+00  0.00000000E+00
  0.00000000E+00  0.00000000E+00  0.00000000E+00
  0.00000000E+00  0.00000000E+00  0.00000000E+00
  0.00000000E+00  0.00000000E+00  0.00000000E+00
  0.00000000E+00  0.00000000E+00  0.00000000E+00
  0.00000000E+00  0.00000000E+00  0.00000000E+00
  0.00000000E+00  0.00000000E+00  0.00000000E+00
  0.00000000E+00  0.00000000E+00  0.00000000E+00
  0.00000000E+00  0.00000000E+00  0.00000000E+00
  0.00000000E+00  0.00000000E+00  0.00000000E+00
  0.00000000E+00  0.00000000E+00  0.00000000E+00
  0.00000000E+00  0.00000000E+00  0.00000000E+00
  0.00000000E+00  0.00000000E+00  0.00000000E+00
  0.00000000E+00  0.00000000E+00  0.00000000E+00
  0.00000000E+00  0.00000000E+00  0.00000000E+00
  0.00000000E+00  0.00000000E+00  0.00000000E+00
  0.00000000E+00  0.00000000E+00  0.00000000E+00
  0.00000000E+00  0.00000000E+00  0.00000000E+00
  0.00000000E+00  0.00000000E+00  0.00000000E+00
  0.00000000E+00  0.00000000E+00  0.00000000E+00
  0.00000000E+00  0.00000000E+00  0.00000000E+00
  0.00000000E+00  0.00000000E+00  0.00000000E+00
  0.00000000E+00  0.00000000E+00  0.00000000E+00
  0.00000000E+00  0.00000000E+00  0.00000000E+00
  0.00000000E+00  0.00000000E+00  0.00000000E+00
  0.00000000E+00  0.00000000E+00  0.00000000E+00
  0.00000000E+00  0.00000000E+00  0.00000000E+00
  0.00000000E+00  0.00000000E+00  0.00000000E+00
  0.00000000E+00  0.00000000E+00  0.00000000E+00
  0.00000000E+00  0.00000000E+00  0.00000000E+00
  0.00000000E+00  0.00000000E+00  0.00000000E+00
  0.00000000E+00  0.00000000E+00  0.00000000E+00
  0.00000000E+00  0.00000000E+00  0.00000000E+00
  0.00000000E+00  0.00000000E+00  0.00000000E+00
  0.00000000E+00  0.00000000E+00  0.00000000E+00
  0.00000000E+00  0.00000000E+00  0.00000000E+00
  0.00000000E+00  0.00000000E+00  0.00000000E+00
  0.00000000E+00  0.00000000E+00  0.00000000E+00
  0.00000000E+00  0.00000000E+00  0.00000000E+00
  0.00000000E+00  0.00000000E+00  0.00000000E+00
  0.00000000E+00  0.00000000E+00  0.00000000E+00
  0.00000000E+00  0.00000000E+00  0.00000000E+00
  0.00000000E+00  0.00000000E+00  0.00000000E+00
  0.00000000E+00  0.00000000E+00  0.00000000E+00
  0.00000000E+00  0.00000000E+00  0.00000000E+00
  0.00000000E+00  0.00000000E+00  0.00000000E+00
  0.00000000E+00  0.00000000E+00  0.00000000E+00
  0.00000000E+00  0.00000000E+00  0.00000000E+00
  0.00000000E+00  0.00000000E+00  0.00000000E+00
  0.00000000E+00  0.00000000E+00  0.00000000E+00
  0.00000000E+00  0.00000000E+00  0.00000000E+00
  0.00000000E+00  0.00000000E+00  0.00000000E+00
  0.00000000E+00  0.00000000E+00  0.00000000E+00
  0.00000000E+00  0.00000000E+00  0.00000000E+00
  0.00000000E+00  0.00000000E+00  0.00000000E+00
