Ir48 C6 F6                              
    1.000000000000000     
    10.9622130000000002    0.0000000000000000    0.0000000000000000
    -5.4811069999999997    9.4935550000000006    0.0000000000000000
     0.0000000000000000    0.0000000000000000   16.4753049999999988
   Ir   C    F 
    48     6     6
Selective dynamics
Direct
  0.0833330000000032  0.1666669999999968  0.3641810000000021   F   F   F
  0.0833330000000032  0.4166669999999968  0.3641810000000021   F   F   F
  0.0833330000000032  0.6666669999999968  0.3641810000000021   F   F   F
  0.0833330000000032  0.9166669999999968  0.3641810000000021   F   F   F
  0.3333330000000032  0.1666669999999968  0.3641810000000021   F   F   F
  0.3333330000000032  0.4166669999999968  0.3641810000000021   F   F   F
  0.3333330000000032  0.6666669999999968  0.3641810000000021   F   F   F
  0.3333330000000032  0.9166669999999968  0.3641810000000021   F   F   F
  0.5833330000000032  0.1666669999999968  0.3641810000000021   F   F   F
  0.5833330000000032  0.4166669999999968  0.3641810000000021   F   F   F
  0.5833330000000032  0.6666669999999968  0.3641810000000021   F   F   F
  0.5833330000000032  0.9166669999999968  0.3641810000000021   F   F   F
  0.8333330000000032  0.1666669999999968  0.3641810000000021   F   F   F
  0.8333330000000032  0.4166669999999968  0.3641810000000021   F   F   F
  0.8333330000000032  0.6666669999999968  0.3641810000000021   F   F   F
  0.8333330000000032  0.9166669999999968  0.3641810000000021   F   F   F
  0.9972889319779412  0.9968802147913749  0.6286229101012850   T   T   T
  0.9948431583511450  0.2480287254660354  0.6284865147584213   T   T   T
  0.0006750875344821  0.4995785416767617  0.6294916865361699   T   T   T
  0.0007362596056169  0.7492757889312642  0.6287876807542574   T   T   T
  0.2482533380356671  0.9940928935500750  0.6283704642299313   T   T   T
  0.2450013929326644  0.2434320902549061  0.6399529123230039   T   T   T
  0.2504609036883423  0.4995860347086492  0.6367180634414495   T   T   T
  0.2504321670268510  0.7493401984181816  0.6294921579498549   T   T   T
  0.5006101918053858  0.0004073171077437  0.6295339403160654   T   T   T
  0.5007088839011331  0.2493280339098334  0.6375667910021505   T   T   T
  0.5065931453787371  0.5050295468056660  0.6399688365334555   T   T   T
  0.5019872815232418  0.7551837856374704  0.6284789042164007   T   T   T
  0.7502884334157898  0.9997343276378459  0.6289999431008866   T   T   T
  0.7496029904591595  0.2493902109978023  0.6295369664837835   T   T   T
  0.7559263303966830  0.5017619326540981  0.6283635787392470   T   T   T
  0.7531647641143238  0.7527578850464920  0.6286217704715966   T   T   T
  0.1687594695789940  0.0869309107632432  0.4976046024079892   T   T   T
  0.1690480494275164  0.3344113057223765  0.4982044563581240   T   T   T
  0.1687524169440664  0.5812554463051640  0.4978992753040075   T   T   T
  0.1681444836146753  0.8336488118415062  0.4960505383469780   T   T   T
  0.4176062282813788  0.0864863373356428  0.4977468982446069   T   T   T
  0.4158692110307101  0.3341441278775648  0.4994169292206507   T   T   T
  0.4156006279789253  0.5809649372603758  0.4982009420522502   T   T   T
  0.4167845292077459  0.8332441667669812  0.4967223348068330   T   T   T
  0.6664148584262435  0.0835852312589935  0.4966112774969034   T   T   T
  0.6635302478231466  0.3324086060188236  0.4977474337078647   T   T   T
  0.6630866703805296  0.5812576541654124  0.4976067331527503   T   T   T
  0.6660480235477451  0.8321246245336056  0.4963800671904508   T   T   T
  0.9178952196152679  0.0839653038762336  0.4963829862408815   T   T   T
  0.9167665970217840  0.3332201804105992  0.4967236681492935   T   T   T
  0.9163635766745770  0.5818647037751106  0.4960531688235861   T   T   T
  0.9171372466809942  0.8328922113840704  0.4958026215659714   T   T   T
  0.3008357592595772  0.2240038400648885  0.7609131809331870   T   T   T
  0.2249161354536824  0.2999605862493269  0.7608828808743482   T   T   T
  0.2919220619754626  0.4581309282674084  0.7575918756778108   T   T   T
  0.4501001802477518  0.5251653570994321  0.7609191091261707   T   T   T
  0.5261262601347170  0.4492871227369761  0.7609433746016236   T   T   T
  0.4590656834347371  0.2910547453954777  0.7582289442259267   T   T   T
  0.2353516257326262  0.0935179188476098  0.7964295425005972   T   T   T
  0.0942448058889269  0.2345494178740921  0.7960405105317889   T   T   T
  0.2420994059297072  0.5075459612579394  0.8195723164156661   T   T   T
  0.5155903218534874  0.6558501168505941  0.7960336945391830   T   T   T
  0.6566889183860951  0.5149825800998116  0.7963793872496154   T   T   T
  0.5077139427968476  0.2420107391740274  0.8209309449543767   T   T   T
 
  0.00000000E+00  0.00000000E+00  0.00000000E+00
  0.00000000E+00  0.00000000E+00  0.00000000E+00
  0.00000000E+00  0.00000000E+00  0.00000000E+00
  0.00000000E+00  0.00000000E+00  0.00000000E+00
  0.00000000E+00  0.00000000E+00  0.00000000E+00
  0.00000000E+00  0.00000000E+00  0.00000000E+00
  0.00000000E+00  0.00000000E+00  0.00000000E+00
  0.00000000E+00  0.00000000E+00  0.00000000E+00
  0.00000000E+00  0.00000000E+00  0.00000000E+00
  0.00000000E+00  0.00000000E+00  0.00000000E+00
  0.00000000E+00  0.00000000E+00  0.00000000E+00
  0.00000000E+00  0.00000000E+00  0.00000000E+00
  0.00000000E+00  0.00000000E+00  0.00000000E+00
  0.00000000E+00  0.00000000E+00  0.00000000E+00
  0.00000000E+00  0.00000000E+00  0.00000000E+00
  0.00000000E+00  0.00000000E+00  0.00000000E+00
  0.00000000E+00  0.00000000E+00  0.00000000E+00
  0.00000000E+00  0.00000000E+00  0.00000000E+00
  0.00000000E+00  0.00000000E+00  0.00000000E+00
  0.00000000E+00  0.00000000E+00  0.00000000E+00
  0.00000000E+00  0.00000000E+00  0.00000000E+00
  0.00000000E+00  0.00000000E+00  0.00000000E+00
  0.00000000E+00  0.00000000E+00  0.00000000E+00
  0.00000000E+00  0.00000000E+00  0.00000000E+00
  0.00000000E+00  0.00000000E+00  0.00000000E+00
  0.00000000E+00  0.00000000E+00  0.00000000E+00
  0.00000000E+00  0.00000000E+00  0.00000000E+00
  0.00000000E+00  0.00000000E+00  0.00000000E+00
  0.00000000E+00  0.00000000E+00  0.00000000E+00
  0.00000000E+00  0.00000000E+00  0.00000000E+00
  0.00000000E+00  0.00000000E+00  0.00000000E+00
  0.00000000E+00  0.00000000E+00  0.00000000E+00
  0.00000000E+00  0.00000000E+00  0.00000000E+00
  0.00000000E+00  0.00000000E+00  0.00000000E+00
  0.00000000E+00  0.00000000E+00  0.00000000E+00
  0.00000000E+00  0.00000000E+00  0.00000000E+00
  0.00000000E+00  0.00000000E+00  0.00000000E+00
  0.00000000E+00  0.00000000E+00  0.00000000E+00
  0.00000000E+00  0.00000000E+00  0.00000000E+00
  0.00000000E+00  0.00000000E+00  0.00000000E+00
  0.00000000E+00  0.00000000E+00  0.00000000E+00
  0.00000000E+00  0.00000000E+00  0.00000000E+00
  0.00000000E+00  0.00000000E+00  0.00000000E+00
  0.00000000E+00  0.00000000E+00  0.00000000E+00
  0.00000000E+00  0.00000000E+00  0.00000000E+00
  0.00000000E+00  0.00000000E+00  0.00000000E+00
  0.00000000E+00  0.00000000E+00  0.00000000E+00
  0.00000000E+00  0.00000000E+00  0.00000000E+00
  0.00000000E+00  0.00000000E+00  0.00000000E+00
  0.00000000E+00  0.00000000E+00  0.00000000E+00
  0.00000000E+00  0.00000000E+00  0.00000000E+00
  0.00000000E+00  0.00000000E+00  0.00000000E+00
  0.00000000E+00  0.00000000E+00  0.00000000E+00
  0.00000000E+00  0.00000000E+00  0.00000000E+00
  0.00000000E+00  0.00000000E+00  0.00000000E+00
  0.00000000E+00  0.00000000E+00  0.00000000E+00
  0.00000000E+00  0.00000000E+00  0.00000000E+00
  0.00000000E+00  0.00000000E+00  0.00000000E+00
  0.00000000E+00  0.00000000E+00  0.00000000E+00
  0.00000000E+00  0.00000000E+00  0.00000000E+00
