Au48 C4 N2 Br4                          
    1.000000000000000     
    11.7981856999999994    0.0000000000000000    0.0000000000000000
     0.0000000000000000   11.7981856999999994    0.0000000000000000
     0.0000000000000000    0.0000000000000000   17.1712885600000007
   Au   C    N    Br
    48     4     2     4
Selective dynamics
Direct
  0.2498814675202325  0.0001506935653239  0.4126442342161312   T   T   T
  0.2498536420205468  0.2498561748069719  0.4127383009405250   T   T   T
  0.2493933788078948  0.4997949807774091  0.4124375661946473   T   T   T
  0.2497906120088729  0.7501916400164248  0.4123974069442440   T   T   T
  0.4999962813961147  0.0000154586951524  0.4127712516587039   T   T   T
  0.4998022832111175  0.2493914586631476  0.4124416082715427   T   T   T
  0.4999919101101611  0.5000010221232003  0.4121964465641526   T   T   T
  0.5001986706476913  0.7506018674787924  0.4124303339971789   T   T   T
  0.7501181268359431  0.9998630993030915  0.4126508586756970   T   T   T
  0.7501986093842348  0.2498011090649044  0.4124093510639426   T   T   T
  0.7506102668758174  0.5002104227992490  0.4124422173900228   T   T   T
  0.7501458988830407  0.7501408438600521  0.4127422040313107   T   T   T
  0.9999866160724480  0.0000016489303718  0.4126258382418371   T   T   T
  0.0001330393594330  0.2498843919594833  0.4126476702066313   T   T   T
  0.9999865322896184  0.4999995578099146  0.4127715265498253   T   T   T
  0.9998432142179610  0.7501141099927366  0.4126452979227864   T   T   T
  0.1250230808786057  0.1250279490988078  0.5343099441537404   T   T   T
  0.1248198618932364  0.3747203854766283  0.5345138045970259   T   T   T
  0.1243548125932392  0.6254521401921664  0.5337954956100290   T   T   T
  0.1246877512744717  0.8753039717327056  0.5342047630280788   T   T   T
  0.3747191809335604  0.1248276573446816  0.5345020088072374   T   T   T
  0.3745993972348245  0.3746117746910826  0.5335598258551499   T   T   T
  0.3751515803919787  0.6248472302770054  0.5318279069944225   T   T   T
  0.3745299585985578  0.8756266330588076  0.5337862121348138   T   T   T
  0.6254602151563162  0.1243667951201246  0.5338079176074828   T   T   T
  0.6248402997338047  0.3751642524657370  0.5318449455809073   T   T   T
  0.6253755176183660  0.6253944301438636  0.5335608183703329   T   T   T
  0.6252621035578088  0.8751792269661394  0.5345108265989182   T   T   T
  0.8753011415931198  0.1247008017865454  0.5342165276056221   T   T   T
  0.8756387465789217  0.3745409990494579  0.5338060333400207   T   T   T
  0.8751640810718868  0.6252791339136436  0.5345163396223782   T   T   T
  0.8749637808641921  0.8749741840630776  0.5343146916131118   T   T   T
  0.1249999997881019  0.1250000006356942  0.2911837386302736   F   F   F
  0.1250000006356942  0.3750000010594832  0.2911837386302736   F   F   F
  0.1250000006356942  0.6250000006356942  0.2911837386302736   F   F   F
  0.1250000006356942  0.8750000019070754  0.2911837386302736   F   F   F
  0.3750000010594832  0.1250000006356942  0.2911837386302736   F   F   F
  0.3750000010594832  0.3750000010594832  0.2911837386302736   F   F   F
  0.3750000010594832  0.6250000006356942  0.2911837386302736   F   F   F
  0.3750000010594832  0.8750000019070754  0.2911837386302736   F   F   F
  0.6250000006356942  0.1250000006356942  0.2911837386302736   F   F   F
  0.6250000014832793  0.3750000010594832  0.2911837386302736   F   F   F
  0.6250000014832793  0.6250000006356942  0.2911837386302736   F   F   F
  0.6250000014832793  0.8750000019070754  0.2911837386302736   F   F   F
  0.8750000019070754  0.1250000006356942  0.2911837386302736   F   F   F
  0.8750000019070754  0.3750000010594832  0.2911837386302736   F   F   F
  0.8750000019070754  0.6250000006356942  0.2911837386302736   F   F   F
  0.8750000019070754  0.8750000019070754  0.2911837386302736   F   F   F
  0.4736949806099204  0.6109604072017660  0.7207896259629010   T   T   T
  0.3889520676599219  0.5264463993671740  0.7207242745838514   T   T   T
  0.5263958890695832  0.3890098911691879  0.7207069524266814   T   T   T
  0.6111093239631771  0.4736119751233545  0.7207192409481209   T   T   T
  0.4179759044890830  0.4180714186661589  0.7204994965503886   T   T   T
  0.5819990009521874  0.5818731903394010  0.7205758834915628   T   T   T
  0.7678987037985650  0.4396024930397076  0.7207015982274498   T   T   T
  0.5602350728386298  0.2319836860612838  0.7207157672590441   T   T   T
  0.4397931066218845  0.7680003283712935  0.7209072615945189   T   T   T
  0.2321298213225305  0.5603855663075592  0.7207071374369249   T   T   T
 
  0.00000000E+00  0.00000000E+00  0.00000000E+00
  0.00000000E+00  0.00000000E+00  0.00000000E+00
  0.00000000E+00  0.00000000E+00  0.00000000E+00
  0.00000000E+00  0.00000000E+00  0.00000000E+00
  0.00000000E+00  0.00000000E+00  0.00000000E+00
  0.00000000E+00  0.00000000E+00  0.00000000E+00
  0.00000000E+00  0.00000000E+00  0.00000000E+00
  0.00000000E+00  0.00000000E+00  0.00000000E+00
  0.00000000E+00  0.00000000E+00  0.00000000E+00
  0.00000000E+00  0.00000000E+00  0.00000000E+00
  0.00000000E+00  0.00000000E+00  0.00000000E+00
  0.00000000E+00  0.00000000E+00  0.00000000E+00
  0.00000000E+00  0.00000000E+00  0.00000000E+00
  0.00000000E+00  0.00000000E+00  0.00000000E+00
  0.00000000E+00  0.00000000E+00  0.00000000E+00
  0.00000000E+00  0.00000000E+00  0.00000000E+00
  0.00000000E+00  0.00000000E+00  0.00000000E+00
  0.00000000E+00  0.00000000E+00  0.00000000E+00
  0.00000000E+00  0.00000000E+00  0.00000000E+00
  0.00000000E+00  0.00000000E+00  0.00000000E+00
  0.00000000E+00  0.00000000E+00  0.00000000E+00
  0.00000000E+00  0.00000000E+00  0.00000000E+00
  0.00000000E+00  0.00000000E+00  0.00000000E+00
  0.00000000E+00  0.00000000E+00  0.00000000E+00
  0.00000000E+00  0.00000000E+00  0.00000000E+00
  0.00000000E+00  0.00000000E+00  0.00000000E+00
  0.00000000E+00  0.00000000E+00  0.00000000E+00
  0.00000000E+00  0.00000000E+00  0.00000000E+00
  0.00000000E+00  0.00000000E+00  0.00000000E+00
  0.00000000E+00  0.00000000E+00  0.00000000E+00
  0.00000000E+00  0.00000000E+00  0.00000000E+00
  0.00000000E+00  0.00000000E+00  0.00000000E+00
  0.00000000E+00  0.00000000E+00  0.00000000E+00
  0.00000000E+00  0.00000000E+00  0.00000000E+00
  0.00000000E+00  0.00000000E+00  0.00000000E+00
  0.00000000E+00  0.00000000E+00  0.00000000E+00
  0.00000000E+00  0.00000000E+00  0.00000000E+00
  0.00000000E+00  0.00000000E+00  0.00000000E+00
  0.00000000E+00  0.00000000E+00  0.00000000E+00
  0.00000000E+00  0.00000000E+00  0.00000000E+00
  0.00000000E+00  0.00000000E+00  0.00000000E+00
  0.00000000E+00  0.00000000E+00  0.00000000E+00
  0.00000000E+00  0.00000000E+00  0.00000000E+00
  0.00000000E+00  0.00000000E+00  0.00000000E+00
  0.00000000E+00  0.00000000E+00  0.00000000E+00
  0.00000000E+00  0.00000000E+00  0.00000000E+00
  0.00000000E+00  0.00000000E+00  0.00000000E+00
  0.00000000E+00  0.00000000E+00  0.00000000E+00
  0.00000000E+00  0.00000000E+00  0.00000000E+00
  0.00000000E+00  0.00000000E+00  0.00000000E+00
  0.00000000E+00  0.00000000E+00  0.00000000E+00
  0.00000000E+00  0.00000000E+00  0.00000000E+00
  0.00000000E+00  0.00000000E+00  0.00000000E+00
  0.00000000E+00  0.00000000E+00  0.00000000E+00
  0.00000000E+00  0.00000000E+00  0.00000000E+00
  0.00000000E+00  0.00000000E+00  0.00000000E+00
  0.00000000E+00  0.00000000E+00  0.00000000E+00
  0.00000000E+00  0.00000000E+00  0.00000000E+00
