Cu  C  H  F                             
    1.000000000000000     
    10.2424774999999997    0.0000000000000000    0.0000000000000000
     0.0000000000000000   14.4850505999999992    0.0000000000000000
     0.0000000000000000    0.0000000000000000   21.8409290399999989
   Cu   C    H    F 
    64     6     4     2
Selective dynamics
Direct
  0.2499999995118358  0.2499999993096296  0.3433919860398049   F   F   F
  0.0000000000000000  0.7499999965481621  0.3433919860398049   F   F   F
  0.2499999995118358  0.4999999986192663  0.3433919860398049   F   F   F
  0.2499999995118358  0.7499999979288958  0.3433919860398049   F   F   F
  0.2499999995118358  0.0000000000000000  0.3433919860398049   F   F   F
  0.4999999990236716  0.2499999993096296  0.3433919860398049   F   F   F
  0.4999999990236716  0.4999999986192663  0.3433919860398049   F   F   F
  0.0000000000000000  0.0000000000000000  0.3433919860398049   F   F   F
  0.4999999990236716  0.7499999979288958  0.3433919860398049   F   F   F
  0.4999999990236716  0.0000000000000000  0.3433919860398049   F   F   F
  0.7499999985355075  0.2499999993096296  0.3433919860398049   F   F   F
  0.7499999985355075  0.4999999986192663  0.3433919860398049   F   F   F
  0.7499999985355075  0.7499999979288958  0.3433919860398049   F   F   F
  0.7499999985355075  0.0000000000000000  0.3433919860398049   F   F   F
  0.9999999980473504  0.2499999993096296  0.3433919860398049   F   F   F
  0.0000000000000000  0.4999999986192663  0.3433919860398049   F   F   F
  0.2500089042814269  0.2501367503257005  0.4617085369268908   T   T   T
  0.2498785562462776  0.5000196310993162  0.4616975218732346   T   T   T
  0.2502658140436298  0.7495679388436304  0.4620166927575178   T   T   T
  0.2500511488266804  0.0000240247998822  0.4617890844616960   T   T   T
  0.5001650036870741  0.2503431277334559  0.4618704638553288   T   T   T
  0.4999989254757340  0.4999921974974423  0.4610782491354545   T   T   T
  0.4998353912025489  0.7496555503864502  0.4618698226273972   T   T   T
  0.5000025479066762  0.0000101982764353  0.4617946810261206   T   T   T
  0.7497326215353595  0.2504439081227767  0.4620429852272282   T   T   T
  0.7501206288083234  0.4999690808104460  0.4616976068530175   T   T   T
  0.7499863782857513  0.7498591124058955  0.4617127132607203   T   T   T
  0.7499464489548863 -0.0000267336954438  0.4618422166793202   T   T   T
  0.9999095204605353  0.2501645701216860  0.4617986363389189   T   T   T
  0.0000008910230927  0.4999971972358744  0.4618427203184239   T   T   T
  0.0000993855941663  0.7498484794692423  0.4617726809199054   T   T   T
  0.0000073606963624 -0.0000034757463496  0.4618573848700832   T   T   T
  0.1250248921901804  0.1251732587086831  0.5165966061432814   T   T   T
  0.1247462888256444  0.3751398523242405  0.5166274436232998   T   T   T
  0.1250014953653431  0.6247968807305193  0.5167071157619939   T   T   T
  0.1251454466223404  0.8747669125457976  0.5166059664840786   T   T   T
  0.3751335996946556  0.1252486575101437  0.5165633028534431   T   T   T
  0.3748611992769492  0.3753495912810379  0.5164019529451247   T   T   T
  0.3751099051464814  0.6240771260663667  0.5172421970023605   T   T   T
  0.3750479846574938  0.8748362486091477  0.5165924602645284   T   T   T
  0.6249470664184620  0.1251716622440599  0.5166059270107323   T   T   T
  0.6248850405296635  0.3759127589135608  0.5172504640072496   T   T   T
  0.6251269972938988  0.6246390728585476  0.5163965142272448   T   T   T
  0.6248526266716250  0.8747554337009698  0.5165624396008797   T   T   T
  0.8748658340329051  0.1252447027955918  0.5166182321194109   T   T   T
  0.8750049823752563  0.3751991125193347  0.5167115983172221   T   T   T
  0.8752512687763667  0.6248536624182108  0.5166267526752593   T   T   T
  0.8749816491888524  0.8748278535808961  0.5166047361706104   T   T   T
  0.1250000002440785  0.1249999996548183  0.4020117305412967   F   F   F
  0.1250000002440785  0.3749999989644479  0.4020117305412967   F   F   F
  0.1250000002440785  0.6249999982740846  0.4020117305412967   F   F   F
  0.1250000002440785  0.8749999975837142  0.4020117305412967   F   F   F
  0.3749999997559215  0.1249999996548183  0.4020117305412967   F   F   F
  0.3749999997559215  0.3749999989644479  0.4020117305412967   F   F   F
  0.3749999997559215  0.6249999982740846  0.4020117305412967   F   F   F
  0.3749999997559215  0.8749999975837142  0.4020117305412967   F   F   F
  0.6249999982914289  0.1249999996548183  0.4020117305412967   F   F   F
  0.6249999992677573  0.3749999989644479  0.4020117305412967   F   F   F
  0.6249999992677573  0.6249999982740846  0.4020117305412967   F   F   F
  0.6249999992677573  0.8749999975837142  0.4020117305412967   F   F   F
  0.8749999987795931  0.1249999996548183  0.4020117305412967   F   F   F
  0.8749999978032648  0.3749999989644479  0.4020117305412967   F   F   F
  0.8749999987795931  0.6249999982740846  0.4020117305412967   F   F   F
  0.8749999987795931  0.8749999975837142  0.4020117305412967   F   F   F
  0.5772531927035368  0.5769244993773072  0.6509736829498601   T   T   T
  0.6367973321093011  0.4906783975056108  0.6506828117794914   T   T   T
  0.5579099133385523  0.4117666218498482  0.6503088501850506   T   T   T
  0.4227173026662218  0.4230502997123297  0.6510064107696867   T   T   T
  0.3631673732085401  0.5092939677842167  0.6506952408768645   T   T   T
  0.4420552621568742  0.5882086738340532  0.6502757154609838   T   T   T
  0.7429262616712219  0.4854074678044020  0.6511305130830055   T   T   T
  0.6000907961295784  0.3426881219297923  0.6517031284113760   T   T   T
  0.2570362470437690  0.5145603013852451  0.6511502999166544   T   T   T
  0.3998766454490378  0.6572840812810826  0.6516625293834856   T   T   T
  0.6542438034532847  0.6538435211643260  0.6528353290277419   T   T   T
  0.3457324909227850  0.3461356450381887  0.6529403149319745   T   T   T
 
  0.00000000E+00  0.00000000E+00  0.00000000E+00
  0.00000000E+00  0.00000000E+00  0.00000000E+00
  0.00000000E+00  0.00000000E+00  0.00000000E+00
  0.00000000E+00  0.00000000E+00  0.00000000E+00
  0.00000000E+00  0.00000000E+00  0.00000000E+00
  0.00000000E+00  0.00000000E+00  0.00000000E+00
  0.00000000E+00  0.00000000E+00  0.00000000E+00
  0.00000000E+00  0.00000000E+00  0.00000000E+00
  0.00000000E+00  0.00000000E+00  0.00000000E+00
  0.00000000E+00  0.00000000E+00  0.00000000E+00
  0.00000000E+00  0.00000000E+00  0.00000000E+00
  0.00000000E+00  0.00000000E+00  0.00000000E+00
  0.00000000E+00  0.00000000E+00  0.00000000E+00
  0.00000000E+00  0.00000000E+00  0.00000000E+00
  0.00000000E+00  0.00000000E+00  0.00000000E+00
  0.00000000E+00  0.00000000E+00  0.00000000E+00
  0.00000000E+00  0.00000000E+00  0.00000000E+00
  0.00000000E+00  0.00000000E+00  0.00000000E+00
  0.00000000E+00  0.00000000E+00  0.00000000E+00
  0.00000000E+00  0.00000000E+00  0.00000000E+00
  0.00000000E+00  0.00000000E+00  0.00000000E+00
  0.00000000E+00  0.00000000E+00  0.00000000E+00
  0.00000000E+00  0.00000000E+00  0.00000000E+00
  0.00000000E+00  0.00000000E+00  0.00000000E+00
  0.00000000E+00  0.00000000E+00  0.00000000E+00
  0.00000000E+00  0.00000000E+00  0.00000000E+00
  0.00000000E+00  0.00000000E+00  0.00000000E+00
  0.00000000E+00  0.00000000E+00  0.00000000E+00
  0.00000000E+00  0.00000000E+00  0.00000000E+00
  0.00000000E+00  0.00000000E+00  0.00000000E+00
  0.00000000E+00  0.00000000E+00  0.00000000E+00
  0.00000000E+00  0.00000000E+00  0.00000000E+00
  0.00000000E+00  0.00000000E+00  0.00000000E+00
  0.00000000E+00  0.00000000E+00  0.00000000E+00
  0.00000000E+00  0.00000000E+00  0.00000000E+00
  0.00000000E+00  0.00000000E+00  0.00000000E+00
  0.00000000E+00  0.00000000E+00  0.00000000E+00
  0.00000000E+00  0.00000000E+00  0.00000000E+00
  0.00000000E+00  0.00000000E+00  0.00000000E+00
  0.00000000E+00  0.00000000E+00  0.00000000E+00
  0.00000000E+00  0.00000000E+00  0.00000000E+00
  0.00000000E+00  0.00000000E+00  0.00000000E+00
  0.00000000E+00  0.00000000E+00  0.00000000E+00
  0.00000000E+00  0.00000000E+00  0.00000000E+00
  0.00000000E+00  0.00000000E+00  0.00000000E+00
  0.00000000E+00  0.00000000E+00  0.00000000E+00
  0.00000000E+00  0.00000000E+00  0.00000000E+00
  0.00000000E+00  0.00000000E+00  0.00000000E+00
  0.00000000E+00  0.00000000E+00  0.00000000E+00
  0.00000000E+00  0.00000000E+00  0.00000000E+00
  0.00000000E+00  0.00000000E+00  0.00000000E+00
  0.00000000E+00  0.00000000E+00  0.00000000E+00
  0.00000000E+00  0.00000000E+00  0.00000000E+00
  0.00000000E+00  0.00000000E+00  0.00000000E+00
  0.00000000E+00  0.00000000E+00  0.00000000E+00
  0.00000000E+00  0.00000000E+00  0.00000000E+00
  0.00000000E+00  0.00000000E+00  0.00000000E+00
  0.00000000E+00  0.00000000E+00  0.00000000E+00
  0.00000000E+00  0.00000000E+00  0.00000000E+00
  0.00000000E+00  0.00000000E+00  0.00000000E+00
  0.00000000E+00  0.00000000E+00  0.00000000E+00
  0.00000000E+00  0.00000000E+00  0.00000000E+00
  0.00000000E+00  0.00000000E+00  0.00000000E+00
  0.00000000E+00  0.00000000E+00  0.00000000E+00
  0.00000000E+00  0.00000000E+00  0.00000000E+00
  0.00000000E+00  0.00000000E+00  0.00000000E+00
  0.00000000E+00  0.00000000E+00  0.00000000E+00
  0.00000000E+00  0.00000000E+00  0.00000000E+00
  0.00000000E+00  0.00000000E+00  0.00000000E+00
  0.00000000E+00  0.00000000E+00  0.00000000E+00
  0.00000000E+00  0.00000000E+00  0.00000000E+00
  0.00000000E+00  0.00000000E+00  0.00000000E+00
  0.00000000E+00  0.00000000E+00  0.00000000E+00
  0.00000000E+00  0.00000000E+00  0.00000000E+00
  0.00000000E+00  0.00000000E+00  0.00000000E+00
  0.00000000E+00  0.00000000E+00  0.00000000E+00
