Pt  C  H  F                             
    1.000000000000000     
    11.2480068000000006    0.0000000000000000    0.0000000000000000
     0.0000000000000000   15.9070838000000006    0.0000000000000000
     0.0000000000000000    0.0000000000000000   22.2180025631249976
   Pt   C    H    F 
    64     6     2     4
Selective dynamics
Direct
  0.2500000008890453  0.2500000006286527  0.3375640982438100   F   F   F
  0.2500000008890453  0.5000000006286527  0.3375640982438100   F   F   F
  0.2500000008890453  0.7500000012572983  0.3375640982438100   F   F   F
  0.2500000008890453  0.0000000000000000  0.3375640982438100   F   F   F
  0.5000000017780906  0.5000000006286527  0.3375640982438100   F   F   F
  0.0000000035561882  0.0000000000000000  0.3375640982438100   F   F   F
  0.5000000017780906  0.7500000012572983  0.3375640982438100   F   F   F
  0.5000000017780906  0.0000000000000000  0.3375640982438100   F   F   F
  0.7500000026671358  0.0000000000000000  0.3375640982438100   F   F   F
  0.0000000035561882  0.7500000012572983  0.3375640982438100   F   F   F
  0.5000000017780906  0.2500000006286527  0.3375640982438100   F   F   F
  0.7500000026671358  0.2500000006286527  0.3375640982438100   F   F   F
  0.7500000026671358  0.5000000006286527  0.3375640982438100   F   F   F
  0.7500000026671358  0.7500000012572983  0.3375640982438100   F   F   F
  0.0000000035561882  0.2500000006286527  0.3375640982438100   F   F   F
  0.0000000035561882  0.5000000006286527  0.3375640982438100   F   F   F
  0.2484978945725085  0.2503893720293419  0.4675755456929037   T   T   T
  0.2468107661463299  0.4999744295428183  0.4662036313905761   T   T   T
  0.2530640599887018  0.7463072548087728  0.4694203973509278   T   T   T
  0.2499858320499647  0.0001955584040205  0.4680316695091784   T   T   T
  0.5007018131649034  0.2521479332378207  0.4684638506575178   T   T   T
  0.5000023614705924  0.4999957082563160  0.4635738260857345   T   T   T
  0.4992788866500711  0.7478446433563746  0.4684752313863569   T   T   T
  0.4999958117301460  0.0000002424752432  0.4678031496560731   T   T   T
  0.7469384044405292  0.2536859377668121  0.4694125162904433   T   T   T
  0.7531900996169707  0.5000191182118533  0.4662044611123522   T   T   T
  0.7515063625028905  0.7496143536802131  0.4675729927637509   T   T   T
  0.7500198955584791 -0.0002031845707623  0.4680331369065782   T   T   T
  0.9975744106100611  0.2504240292808213  0.4677284227165283   T   T   T
 -0.0000010902383794  0.4999990588578159  0.4682010999177953   T   T   T
  0.0024309623711352  0.7495730846765868  0.4677307233050978   T   T   T
 -0.0000041723867152 -0.0000014035555895  0.4683185373212190   T   T   T
  0.1240933718577185  0.1259786736290063  0.5254032986228330   T   T   T
  0.1215694497332600  0.3747510874186996  0.5260069665251237   T   T   T
  0.1273836302070023  0.6243862392104618  0.5264760564590311   T   T   T
  0.1277032816800860  0.8737739749536174  0.5251071496954220   T   T   T
  0.3751919196293004  0.1263338021658242  0.5251727053763616   T   T   T
  0.3691756568443277  0.3766225796480291  0.5254837593917140   T   T   T
  0.3809387164853228  0.6136919423203373  0.5327230358071038   T   T   T
  0.3761117288604888  0.8739856700924922  0.5254951782292304   T   T   T
  0.6238856677548801  0.1260088019430959  0.5254844536347109   T   T   T
  0.6190606838737205  0.3862957495348931  0.5327292722309117   T   T   T
  0.6308197078250478  0.6233691720232136  0.5254812599509432   T   T   T
  0.6247971639377687  0.8736710038538082  0.5251806765158892   T   T   T
  0.8722977722369271  0.1262270394133949  0.5251093523943798   T   T   T
  0.8726353156722768  0.3756079310360151  0.5264804095867001   T   T   T
  0.8784178230130627  0.6252520490538149  0.5260066237789842   T   T   T
  0.8759100633117703  0.8740144660607880  0.5254005424824053   T   T   T
  0.1250000000000000  0.1250000003143228  0.4008461529820977   F   F   F
  0.1250000000000000  0.3750000003143228  0.4008461529820977   F   F   F
  0.1250000008890453  0.6250000009429755  0.4008461529820977   F   F   F
  0.1250000008890453  0.8750000009429755  0.4008461529820977   F   F   F
  0.3750000008890453  0.1250000003143228  0.4008461529820977   F   F   F
  0.3750000008890453  0.3750000003143228  0.4008461529820977   F   F   F
  0.3750000008890453  0.6250000009429755  0.4008461529820977   F   F   F
  0.3750000008890453  0.8750000009429755  0.4008461529820977   F   F   F
  0.6250000017780906  0.1250000003143228  0.4008461529820977   F   F   F
  0.6250000017780906  0.3750000003143228  0.4008461529820977   F   F   F
  0.6250000017780906  0.6250000009429755  0.4008461529820977   F   F   F
  0.6250000026671358  0.8750000009429755  0.4008461529820977   F   F   F
  0.8750000026671358  0.1250000003143228  0.4008461529820977   F   F   F
  0.8750000026671358  0.3750000003143228  0.4008461529820977   F   F   F
  0.8750000035561882  0.6250000009429755  0.4008461529820977   F   F   F
  0.8750000026671358  0.8750000009429755  0.4008461529820977   F   F   F
  0.4006149633716822  0.4368648639462256  0.6061370052251286   T   T   T
  0.3761249349317986  0.5299676212698813  0.6084763671336337   T   T   T
  0.4736680281087625  0.5890238088572984  0.6152545117715598   T   T   T
  0.5994983934115004  0.5630746310367124  0.6061393513080066   T   T   T
  0.6238873840943322  0.4699912867501007  0.6084919953741841   T   T   T
  0.5263809576356737  0.4109706124931472  0.6152457084442579   T   T   T
  0.3426410138904095  0.4055914775121369  0.6391657148146245   T   T   T
  0.6573848503740886  0.5943982172382287  0.6391704739981365   T   T   T
  0.2763338657355996  0.5462907529050226  0.6423942490779724   T   T   T
  0.4593358565970889  0.6528269075484417  0.6559005847744480   T   T   T
  0.7236620221684978  0.4537022085040273  0.6423726205604120   T   T   T
  0.5406792338458377  0.3471963601085847  0.6558761408458034   T   T   T
 
  0.00000000E+00  0.00000000E+00  0.00000000E+00
  0.00000000E+00  0.00000000E+00  0.00000000E+00
  0.00000000E+00  0.00000000E+00  0.00000000E+00
  0.00000000E+00  0.00000000E+00  0.00000000E+00
  0.00000000E+00  0.00000000E+00  0.00000000E+00
  0.00000000E+00  0.00000000E+00  0.00000000E+00
  0.00000000E+00  0.00000000E+00  0.00000000E+00
  0.00000000E+00  0.00000000E+00  0.00000000E+00
  0.00000000E+00  0.00000000E+00  0.00000000E+00
  0.00000000E+00  0.00000000E+00  0.00000000E+00
  0.00000000E+00  0.00000000E+00  0.00000000E+00
  0.00000000E+00  0.00000000E+00  0.00000000E+00
  0.00000000E+00  0.00000000E+00  0.00000000E+00
  0.00000000E+00  0.00000000E+00  0.00000000E+00
  0.00000000E+00  0.00000000E+00  0.00000000E+00
  0.00000000E+00  0.00000000E+00  0.00000000E+00
  0.00000000E+00  0.00000000E+00  0.00000000E+00
  0.00000000E+00  0.00000000E+00  0.00000000E+00
  0.00000000E+00  0.00000000E+00  0.00000000E+00
  0.00000000E+00  0.00000000E+00  0.00000000E+00
  0.00000000E+00  0.00000000E+00  0.00000000E+00
  0.00000000E+00  0.00000000E+00  0.00000000E+00
  0.00000000E+00  0.00000000E+00  0.00000000E+00
  0.00000000E+00  0.00000000E+00  0.00000000E+00
  0.00000000E+00  0.00000000E+00  0.00000000E+00
  0.00000000E+00  0.00000000E+00  0.00000000E+00
  0.00000000E+00  0.00000000E+00  0.00000000E+00
  0.00000000E+00  0.00000000E+00  0.00000000E+00
  0.00000000E+00  0.00000000E+00  0.00000000E+00
  0.00000000E+00  0.00000000E+00  0.00000000E+00
  0.00000000E+00  0.00000000E+00  0.00000000E+00
  0.00000000E+00  0.00000000E+00  0.00000000E+00
  0.00000000E+00  0.00000000E+00  0.00000000E+00
  0.00000000E+00  0.00000000E+00  0.00000000E+00
  0.00000000E+00  0.00000000E+00  0.00000000E+00
  0.00000000E+00  0.00000000E+00  0.00000000E+00
  0.00000000E+00  0.00000000E+00  0.00000000E+00
  0.00000000E+00  0.00000000E+00  0.00000000E+00
  0.00000000E+00  0.00000000E+00  0.00000000E+00
  0.00000000E+00  0.00000000E+00  0.00000000E+00
  0.00000000E+00  0.00000000E+00  0.00000000E+00
  0.00000000E+00  0.00000000E+00  0.00000000E+00
  0.00000000E+00  0.00000000E+00  0.00000000E+00
  0.00000000E+00  0.00000000E+00  0.00000000E+00
  0.00000000E+00  0.00000000E+00  0.00000000E+00
  0.00000000E+00  0.00000000E+00  0.00000000E+00
  0.00000000E+00  0.00000000E+00  0.00000000E+00
  0.00000000E+00  0.00000000E+00  0.00000000E+00
  0.00000000E+00  0.00000000E+00  0.00000000E+00
  0.00000000E+00  0.00000000E+00  0.00000000E+00
  0.00000000E+00  0.00000000E+00  0.00000000E+00
  0.00000000E+00  0.00000000E+00  0.00000000E+00
  0.00000000E+00  0.00000000E+00  0.00000000E+00
  0.00000000E+00  0.00000000E+00  0.00000000E+00
  0.00000000E+00  0.00000000E+00  0.00000000E+00
  0.00000000E+00  0.00000000E+00  0.00000000E+00
  0.00000000E+00  0.00000000E+00  0.00000000E+00
  0.00000000E+00  0.00000000E+00  0.00000000E+00
  0.00000000E+00  0.00000000E+00  0.00000000E+00
  0.00000000E+00  0.00000000E+00  0.00000000E+00
  0.00000000E+00  0.00000000E+00  0.00000000E+00
  0.00000000E+00  0.00000000E+00  0.00000000E+00
  0.00000000E+00  0.00000000E+00  0.00000000E+00
  0.00000000E+00  0.00000000E+00  0.00000000E+00
  0.00000000E+00  0.00000000E+00  0.00000000E+00
  0.00000000E+00  0.00000000E+00  0.00000000E+00
  0.00000000E+00  0.00000000E+00  0.00000000E+00
  0.00000000E+00  0.00000000E+00  0.00000000E+00
  0.00000000E+00  0.00000000E+00  0.00000000E+00
  0.00000000E+00  0.00000000E+00  0.00000000E+00
  0.00000000E+00  0.00000000E+00  0.00000000E+00
  0.00000000E+00  0.00000000E+00  0.00000000E+00
  0.00000000E+00  0.00000000E+00  0.00000000E+00
  0.00000000E+00  0.00000000E+00  0.00000000E+00
  0.00000000E+00  0.00000000E+00  0.00000000E+00
  0.00000000E+00  0.00000000E+00  0.00000000E+00
