Ir  C  H  F                             
    1.000000000000000     
    10.9622135000000007    0.0000000000000000    0.0000000000000000
     0.0000000000000000   10.9622135000000007    0.0000000000000000
     0.0000000000000000    0.0000000000000000   23.8135916099999996
   Ir   C    H    F 
    64     6     4     2
Selective dynamics
Direct
  0.0000000000000000  0.2499999995438884  0.3149461921926360   F   F   F
  0.7499999986316652  0.7499999986316652  0.3149461921926360   F   F   F
  0.0000000000000000  0.4999999990877768  0.3149461921926360   F   F   F
  0.0000000000000000  0.7499999986316652  0.3149461921926360   F   F   F
  0.0000000000000000  0.0000000000000000  0.3149461921926360   F   F   F
  0.2499999995438884  0.2499999995438884  0.3149461921926360   F   F   F
  0.2499999995438884  0.4999999990877768  0.3149461921926360   F   F   F
  0.7499999986316652  0.0000000000000000  0.3149461921926360   F   F   F
  0.2499999995438884  0.7499999986316652  0.3149461921926360   F   F   F
  0.2499999995438884  0.0000000000000000  0.3149461921926360   F   F   F
  0.4999999990877768  0.2499999995438884  0.3149461921926360   F   F   F
  0.4999999990877768  0.4999999990877768  0.3149461921926360   F   F   F
  0.4999999990877768  0.7499999986316652  0.3149461921926360   F   F   F
  0.4999999990877768  0.0000000000000000  0.3149461921926360   F   F   F
  0.7499999986316652  0.2499999995438884  0.3149461921926360   F   F   F
  0.7499999986316652  0.4999999990877768  0.3149461921926360   F   F   F
  0.9988938809570455  0.2495677021998451  0.4780099564930784   T   T   T
  0.0000158646337795  0.4999954723434603  0.4780187652388769   T   T   T
  0.0011152591172270  0.7504499958698987  0.4780111279354397   T   T   T
 -0.0000113946262240  0.0000040763239212  0.4784095766663046   T   T   T
  0.2494357288503660  0.2494388452339841  0.4780884004295734   T   T   T
  0.2511999392139020  0.4994693507286996  0.4790247837643926   T   T   T
  0.2523626697834210  0.7476109795944383  0.4792373229934101   T   T   T
  0.2495752015797269  0.9988921657997580  0.4780008127968325   T   T   T
  0.4994789022543490  0.2511928112629225  0.4790207547304082   T   T   T
  0.4999521557208229  0.5000175894932869  0.4793600727744391   T   T   T
  0.5005208910276103  0.7487907731371301  0.4790417745652222   T   T   T
  0.5000023366902118 -0.0000109032200307  0.4780154906677792   T   T   T
  0.7476307608287538  0.2523752033928385  0.4792619450034526   T   T   T
  0.7488230805402676  0.5005323385588822  0.4790335264384043   T   T   T
  0.7505387456915430  0.7505590586102320  0.4780894740337987   T   T   T
  0.7504390950584953  0.0011089185822085  0.4779973304584790   T   T   T
  0.1249259593930832  0.1249045598455004  0.5563507101069263   T   T   T
  0.1229737744247583  0.3743994141055695  0.5563150511311087   T   T   T
  0.1230358795033016  0.6243388232111989  0.5565586124765333   T   T   T
  0.1254874391856360  0.8745180166302305  0.5564893726941044   T   T   T
  0.3743966650176787  0.1229588856661278  0.5563127330274436   T   T   T
  0.3721355301918756  0.3721496143220674  0.5580673099871712   T   T   T
  0.3723065640219509  0.6276489883241584  0.5627931213151597   T   T   T
  0.3756422107518916  0.8769555561232294  0.5565584425964927   T   T   T
  0.6243396250502350  0.1230492636292897  0.5565652955062563   T   T   T
  0.6276663239951354  0.3723185501817218  0.5627937241616806   T   T   T
  0.6278650747386547  0.6278707052313225  0.5580892684479688   T   T   T
  0.6256015873923888  0.8770381869438260  0.5563182544866400   T   T   T
  0.8745026839799026  0.1254922019030131  0.5565036461909525   T   T   T
  0.8769569297317308  0.3756477219450826  0.5565643099110844   T   T   T
  0.8770209925152244  0.6255929704713177  0.5563142914031317   T   T   T
  0.8750552818233720  0.8750633567978375  0.5563542895267134   T   T   T
  0.1250000002280558  0.1250000002280558  0.3963225717718615   F   F   F
  0.1250000002280558  0.3749999997719442  0.3963225717718615   F   F   F
  0.1250000002280558  0.6249999993158326  0.3963225717718615   F   F   F
  0.1250000002280558  0.8749999988597210  0.3963225717718615   F   F   F
  0.3749999997719442  0.1250000002280558  0.3963225717718615   F   F   F
  0.3749999997719442  0.3749999997719442  0.3963225717718615   F   F   F
  0.3749999997719442  0.6249999993158326  0.3963225717718615   F   F   F
  0.3749999997719442  0.8749999988597210  0.3963225717718615   F   F   F
  0.6249999993158326  0.1250000002280558  0.3963225717718615   F   F   F
  0.6249999993158326  0.3749999997719442  0.3963225717718615   F   F   F
  0.6249999993158326  0.6249999993158326  0.3963225717718615   F   F   F
  0.6249999993158326  0.8749999988597210  0.3963225717718615   F   F   F
  0.8749999988597210  0.1250000002280558  0.3963225717718615   F   F   F
  0.8749999988597210  0.3749999997719442  0.3963225717718615   F   F   F
  0.8749999988597210  0.6249999993158326  0.3963225717718615   F   F   F
  0.8749999988597210  0.8749999988597210  0.3963225717718615   F   F   F
  0.5951553477682439  0.5951991919913525  0.6428202750065516   T   T   T
  0.6283283584506448  0.4641626850847773  0.6460703284955437   T   T   T
  0.5358245668087354  0.3716575596033979  0.6460691693838517   T   T   T
  0.4047961766595903  0.4048494016871736  0.6428064387437281   T   T   T
  0.3716406684627193  0.5358008703704469  0.6460848866940920   T   T   T
  0.4641969999769366  0.6283299158666229  0.6460813859327228   T   T   T
  0.7168140855306867  0.4457664811810760  0.6652954481137153   T   T   T
  0.5542139547228170  0.2831641186042588  0.6652953907892680   T   T   T
  0.2831409072427834  0.5542331956600376  0.6653183514490398   T   T   T
  0.4457748625610833  0.7168332122073195  0.6653147953439945   T   T   T
  0.6664236392191768  0.6664167513020502  0.6788229791491818   T   T   T
  0.3335703207487328  0.3335713268943089  0.6788092689188412   T   T   T
 
  0.00000000E+00  0.00000000E+00  0.00000000E+00
  0.00000000E+00  0.00000000E+00  0.00000000E+00
  0.00000000E+00  0.00000000E+00  0.00000000E+00
  0.00000000E+00  0.00000000E+00  0.00000000E+00
  0.00000000E+00  0.00000000E+00  0.00000000E+00
  0.00000000E+00  0.00000000E+00  0.00000000E+00
  0.00000000E+00  0.00000000E+00  0.00000000E+00
  0.00000000E+00  0.00000000E+00  0.00000000E+00
  0.00000000E+00  0.00000000E+00  0.00000000E+00
  0.00000000E+00  0.00000000E+00  0.00000000E+00
  0.00000000E+00  0.00000000E+00  0.00000000E+00
  0.00000000E+00  0.00000000E+00  0.00000000E+00
  0.00000000E+00  0.00000000E+00  0.00000000E+00
  0.00000000E+00  0.00000000E+00  0.00000000E+00
  0.00000000E+00  0.00000000E+00  0.00000000E+00
  0.00000000E+00  0.00000000E+00  0.00000000E+00
  0.00000000E+00  0.00000000E+00  0.00000000E+00
  0.00000000E+00  0.00000000E+00  0.00000000E+00
  0.00000000E+00  0.00000000E+00  0.00000000E+00
  0.00000000E+00  0.00000000E+00  0.00000000E+00
  0.00000000E+00  0.00000000E+00  0.00000000E+00
  0.00000000E+00  0.00000000E+00  0.00000000E+00
  0.00000000E+00  0.00000000E+00  0.00000000E+00
  0.00000000E+00  0.00000000E+00  0.00000000E+00
  0.00000000E+00  0.00000000E+00  0.00000000E+00
  0.00000000E+00  0.00000000E+00  0.00000000E+00
  0.00000000E+00  0.00000000E+00  0.00000000E+00
  0.00000000E+00  0.00000000E+00  0.00000000E+00
  0.00000000E+00  0.00000000E+00  0.00000000E+00
  0.00000000E+00  0.00000000E+00  0.00000000E+00
  0.00000000E+00  0.00000000E+00  0.00000000E+00
  0.00000000E+00  0.00000000E+00  0.00000000E+00
  0.00000000E+00  0.00000000E+00  0.00000000E+00
  0.00000000E+00  0.00000000E+00  0.00000000E+00
  0.00000000E+00  0.00000000E+00  0.00000000E+00
  0.00000000E+00  0.00000000E+00  0.00000000E+00
  0.00000000E+00  0.00000000E+00  0.00000000E+00
  0.00000000E+00  0.00000000E+00  0.00000000E+00
  0.00000000E+00  0.00000000E+00  0.00000000E+00
  0.00000000E+00  0.00000000E+00  0.00000000E+00
  0.00000000E+00  0.00000000E+00  0.00000000E+00
  0.00000000E+00  0.00000000E+00  0.00000000E+00
  0.00000000E+00  0.00000000E+00  0.00000000E+00
  0.00000000E+00  0.00000000E+00  0.00000000E+00
  0.00000000E+00  0.00000000E+00  0.00000000E+00
  0.00000000E+00  0.00000000E+00  0.00000000E+00
  0.00000000E+00  0.00000000E+00  0.00000000E+00
  0.00000000E+00  0.00000000E+00  0.00000000E+00
  0.00000000E+00  0.00000000E+00  0.00000000E+00
  0.00000000E+00  0.00000000E+00  0.00000000E+00
  0.00000000E+00  0.00000000E+00  0.00000000E+00
  0.00000000E+00  0.00000000E+00  0.00000000E+00
  0.00000000E+00  0.00000000E+00  0.00000000E+00
  0.00000000E+00  0.00000000E+00  0.00000000E+00
  0.00000000E+00  0.00000000E+00  0.00000000E+00
  0.00000000E+00  0.00000000E+00  0.00000000E+00
  0.00000000E+00  0.00000000E+00  0.00000000E+00
  0.00000000E+00  0.00000000E+00  0.00000000E+00
  0.00000000E+00  0.00000000E+00  0.00000000E+00
  0.00000000E+00  0.00000000E+00  0.00000000E+00
  0.00000000E+00  0.00000000E+00  0.00000000E+00
  0.00000000E+00  0.00000000E+00  0.00000000E+00
  0.00000000E+00  0.00000000E+00  0.00000000E+00
  0.00000000E+00  0.00000000E+00  0.00000000E+00
  0.00000000E+00  0.00000000E+00  0.00000000E+00
  0.00000000E+00  0.00000000E+00  0.00000000E+00
  0.00000000E+00  0.00000000E+00  0.00000000E+00
  0.00000000E+00  0.00000000E+00  0.00000000E+00
  0.00000000E+00  0.00000000E+00  0.00000000E+00
  0.00000000E+00  0.00000000E+00  0.00000000E+00
  0.00000000E+00  0.00000000E+00  0.00000000E+00
  0.00000000E+00  0.00000000E+00  0.00000000E+00
  0.00000000E+00  0.00000000E+00  0.00000000E+00
  0.00000000E+00  0.00000000E+00  0.00000000E+00
  0.00000000E+00  0.00000000E+00  0.00000000E+00
  0.00000000E+00  0.00000000E+00  0.00000000E+00
