Ag48 C6 H2 F4                           
    1.000000000000000     
    11.7702790000000004    0.0000000000000000    0.0000000000000000
     0.0000000000000000   11.7702790000000004    0.0000000000000000
     0.0000000000000000    0.0000000000000000   16.7996172600000016
   Ag   C    H    F 
    48     6     2     4
Selective dynamics
Direct
  0.0000092513047960  0.2499076925451220  0.4104236621486876   T   T   T
  0.9999995894753582  0.4999991635668479  0.4104251991784196   T   T   T
  0.9999903220976663  0.7500922317895160  0.4104238639571491   T   T   T
  0.9999997586267142  0.0000006523720018  0.4104142344853585   T   T   T
  0.2498819900558615  0.2498817568869569  0.4104257191291723   T   T   T
  0.2495183761490907  0.4996815145391267  0.4101318458810894   T   T   T
  0.2494885586314908  0.7505099941026785  0.4101725696106087   T   T   T
  0.2499070118526419  0.0000112604150573  0.4104244113297568   T   T   T
  0.4996851285772976  0.2495199217419426  0.4101335113475670   T   T   T
  0.5000020246579524  0.4999976450542150  0.4099007185273109   T   T   T
  0.5003176115282884  0.7504801487498227  0.4101332146512391   T   T   T
  0.5000011250089287  0.0000019346121789  0.4104259712675358   T   T   T
  0.7505085665784250  0.2494911821467980  0.4101737052388970   T   T   T
  0.7504796446288040  0.5003139120409941  0.4101339456691377   T   T   T
  0.7501185102469350  0.7501177528028862  0.4104257920692618   T   T   T
  0.7500923911624469  0.9999920216748350  0.4104238680610450   T   T   T
  0.1249884513155664  0.1249884163068486  0.5233180582276660   T   T   T
  0.1250082386103699  0.3748518877812046  0.5231507301490410   T   T   T
  0.1248571377977186  0.6249664165380722  0.5230855341006659   T   T   T
  0.1248357430148062  0.8751643965196720  0.5232678119792880   T   T   T
  0.3748517416999348  0.1250081871429316  0.5231509147988760   T   T   T
  0.3749413140234523  0.3749405719404564  0.5227956487461825   T   T   T
  0.3747380729996479  0.6252593661530170  0.5210920943119461   T   T   T
  0.3750329151843417  0.8751428206854399  0.5230851649760027   T   T   T
  0.6249664583077461  0.1248577502789985  0.5230874673235419   T   T   T
  0.6252587364761055  0.3747401171455351  0.5211042990967272   T   T   T
  0.6250601685177131  0.6250587508617897  0.5227950281690212   T   T   T
  0.6251484650249921  0.8749914064058046  0.5231500719639470   T   T   T
  0.8751651752127856  0.1248356154506141  0.5232684916989641   T   T   T
  0.8751429770734234  0.3750336992780134  0.5230875999349465   T   T   T
  0.8749921340792000  0.6251479158353987  0.5231505719184497   T   T   T
  0.8750119467229780  0.8750111606785467  0.5233175247128301   T   T   T
  0.1249999995752020  0.1249999995752020  0.2976258281731816   F   F   F
  0.1249999995752020  0.3749999987256061  0.2976258281731816   F   F   F
  0.1249999995752020  0.6249999978760030  0.2976258281731816   F   F   F
  0.1249999995752020  0.8749999970264071  0.2976258281731816   F   F   F
  0.3749999987256061  0.1249999995752020  0.2976258281731816   F   F   F
  0.3749999987256061  0.3749999987256061  0.2976258281731816   F   F   F
  0.3749999987256061  0.6249999978760030  0.2976258281731816   F   F   F
  0.3749999987256061  0.8749999970264071  0.2976258281731816   F   F   F
  0.6249999978760030  0.1249999995752020  0.2976258281731816   F   F   F
  0.6249999978760030  0.3749999987256061  0.2976258281731816   F   F   F
  0.6249999978760030  0.6249999978760030  0.2976258281731816   F   F   F
  0.6249999978760030  0.8749999970264071  0.2976258281731816   F   F   F
  0.8749999970264071  0.1249999995752020  0.2976258281731816   F   F   F
  0.8749999970264071  0.3749999987256061  0.2976258281731816   F   F   F
  0.8749999970264071  0.6249999978760030  0.2976258281731816   F   F   F
  0.8749999970264071  0.8749999970264071  0.2976258281731816   F   F   F
  0.5846585631098051  0.5846576505875589  0.7015319924110628   T   T   T
  0.6139840846091857  0.4699933278241772  0.7020345332041842   T   T   T
  0.5300921417643352  0.3860764616005596  0.7020445569654825   T   T   T
  0.4154022759990710  0.4153784095511170  0.7015566767591395   T   T   T
  0.3860594435379809  0.5300691727987541  0.7019971747096889   T   T   T
  0.4699860336461725  0.6139729546464352  0.7019865649585810   T   T   T
  0.6500987957176605  0.6501103953255196  0.7028006232019877   T   T   T
  0.3499107679222888  0.3498972951978345  0.7028280156536582   T   T   T
  0.7246815183263067  0.4392840123246629  0.7035778672340953   T   T   T
  0.5607329986104546  0.2753152934713015  0.7035955144732782   T   T   T
  0.2752979203647854  0.5607222784788988  0.7035076531341815   T   T   T
  0.4392595733929667  0.7247079559797527  0.7034868705620738   T   T   T
 
  0.00000000E+00  0.00000000E+00  0.00000000E+00
  0.00000000E+00  0.00000000E+00  0.00000000E+00
  0.00000000E+00  0.00000000E+00  0.00000000E+00
  0.00000000E+00  0.00000000E+00  0.00000000E+00
  0.00000000E+00  0.00000000E+00  0.00000000E+00
  0.00000000E+00  0.00000000E+00  0.00000000E+00
  0.00000000E+00  0.00000000E+00  0.00000000E+00
  0.00000000E+00  0.00000000E+00  0.00000000E+00
  0.00000000E+00  0.00000000E+00  0.00000000E+00
  0.00000000E+00  0.00000000E+00  0.00000000E+00
  0.00000000E+00  0.00000000E+00  0.00000000E+00
  0.00000000E+00  0.00000000E+00  0.00000000E+00
  0.00000000E+00  0.00000000E+00  0.00000000E+00
  0.00000000E+00  0.00000000E+00  0.00000000E+00
  0.00000000E+00  0.00000000E+00  0.00000000E+00
  0.00000000E+00  0.00000000E+00  0.00000000E+00
  0.00000000E+00  0.00000000E+00  0.00000000E+00
  0.00000000E+00  0.00000000E+00  0.00000000E+00
  0.00000000E+00  0.00000000E+00  0.00000000E+00
  0.00000000E+00  0.00000000E+00  0.00000000E+00
  0.00000000E+00  0.00000000E+00  0.00000000E+00
  0.00000000E+00  0.00000000E+00  0.00000000E+00
  0.00000000E+00  0.00000000E+00  0.00000000E+00
  0.00000000E+00  0.00000000E+00  0.00000000E+00
  0.00000000E+00  0.00000000E+00  0.00000000E+00
  0.00000000E+00  0.00000000E+00  0.00000000E+00
  0.00000000E+00  0.00000000E+00  0.00000000E+00
  0.00000000E+00  0.00000000E+00  0.00000000E+00
  0.00000000E+00  0.00000000E+00  0.00000000E+00
  0.00000000E+00  0.00000000E+00  0.00000000E+00
  0.00000000E+00  0.00000000E+00  0.00000000E+00
  0.00000000E+00  0.00000000E+00  0.00000000E+00
  0.00000000E+00  0.00000000E+00  0.00000000E+00
  0.00000000E+00  0.00000000E+00  0.00000000E+00
  0.00000000E+00  0.00000000E+00  0.00000000E+00
  0.00000000E+00  0.00000000E+00  0.00000000E+00
  0.00000000E+00  0.00000000E+00  0.00000000E+00
  0.00000000E+00  0.00000000E+00  0.00000000E+00
  0.00000000E+00  0.00000000E+00  0.00000000E+00
  0.00000000E+00  0.00000000E+00  0.00000000E+00
  0.00000000E+00  0.00000000E+00  0.00000000E+00
  0.00000000E+00  0.00000000E+00  0.00000000E+00
  0.00000000E+00  0.00000000E+00  0.00000000E+00
  0.00000000E+00  0.00000000E+00  0.00000000E+00
  0.00000000E+00  0.00000000E+00  0.00000000E+00
  0.00000000E+00  0.00000000E+00  0.00000000E+00
  0.00000000E+00  0.00000000E+00  0.00000000E+00
  0.00000000E+00  0.00000000E+00  0.00000000E+00
  0.00000000E+00  0.00000000E+00  0.00000000E+00
  0.00000000E+00  0.00000000E+00  0.00000000E+00
  0.00000000E+00  0.00000000E+00  0.00000000E+00
  0.00000000E+00  0.00000000E+00  0.00000000E+00
  0.00000000E+00  0.00000000E+00  0.00000000E+00
  0.00000000E+00  0.00000000E+00  0.00000000E+00
  0.00000000E+00  0.00000000E+00  0.00000000E+00
  0.00000000E+00  0.00000000E+00  0.00000000E+00
  0.00000000E+00  0.00000000E+00  0.00000000E+00
  0.00000000E+00  0.00000000E+00  0.00000000E+00
  0.00000000E+00  0.00000000E+00  0.00000000E+00
  0.00000000E+00  0.00000000E+00  0.00000000E+00
