Cu48 C4 N2 Br4                          
    1.000000000000000     
    10.2424774999999997    0.0000000000000000    0.0000000000000000
     0.0000000000000000   10.2424774999999997    0.0000000000000000
     0.0000000000000000    0.0000000000000000   16.5484553599999984
   Cu   C    N    Br
    48     4     2     4
Selective dynamics
Direct
  0.2498912842550709  0.9999378189165782  0.4094007919143010   T   T   T
  0.2500290193650798  0.2500214757671841  0.4093839963047614   T   T   T
  0.2494659223164177  0.4997361545420489  0.4090947003978158   T   T   T
  0.2498810616193055  0.7501228292070365  0.4092495615172709   T   T   T
  0.4999979405302781  0.9999993448169633  0.4095225105681948   T   T   T
  0.4997329021830481  0.2494610937844115  0.4090906161782470   T   T   T
  0.5000003728595104  0.5000012880858478  0.4090196753790707   T   T   T
  0.5002656674920871  0.7505381694253259  0.4090897130955398   T   T   T
  0.7501078742088794  0.0000594217546706  0.4094034230570855   T   T   T
  0.7501168060946597  0.2498790590430673  0.4092528514027620   T   T   T
  0.7505340841732888  0.5002682425079144  0.4090938753881019   T   T   T
  0.7499721370210892  0.7499748884633988  0.4093825622935867   T   T   T
  0.0000028780717187  0.9999979127865757  0.4092280857926696   T   T   T
  0.9999396407582708  0.2498866598500200  0.4094086380526321   T   T   T
  0.9999997051440275  0.5000032107619958  0.4095315495277987   T   T   T
  0.0000627830435036  0.7501122469206294  0.4094047147103268   T   T   T
  0.1249739679018944  0.1249718337552110  0.5167687035621924   T   T   T
  0.1249891769356495  0.3745089100990597  0.5165994342553262   T   T   T
  0.1250646787749901  0.6252127686617683  0.5168258240597368   T   T   T
  0.1247008352455836  0.8753003535768471  0.5165246858900474   T   T   T
  0.3745115884009920  0.1249867808559202  0.5166005100938307   T   T   T
  0.3749213273007257  0.3749192903944376  0.5164727637730309   T   T   T
  0.3755449628662575  0.6244586363835296  0.5146709604103776   T   T   T
  0.3747897173813115  0.8749364760920031  0.5168208963830025   T   T   T
  0.6252118470567183  0.1250617501988316  0.5168193679503688   T   T   T
  0.6244567480887753  0.3755425781471047  0.5146687804160734   T   T   T
  0.6250804104917975  0.6250816061297968  0.5164727725200891   T   T   T
  0.6254896099404021  0.8750120631382714  0.5165973379926996   T   T   T
  0.8752979560169862  0.1246985784024517  0.5165251511373299   T   T   T
  0.8749340258568523  0.3747886738663198  0.5168242219573500   T   T   T
  0.8750097049624372  0.6254922508999456  0.5165983654760282   T   T   T
  0.8750249031302246  0.8750265079803725  0.5167683817231463   T   T   T
  0.1250000002440785  0.1249999992677573  0.3021430031521675   F   F   F
  0.1250000002440785  0.3749999997559215  0.3021430031521675   F   F   F
  0.1250000002440785  0.6249999982914289  0.3021430031521675   F   F   F
  0.1250000002440785  0.8749999987795931  0.3021430031521675   F   F   F
  0.3749999997559215  0.1249999992677573  0.3021430031521675   F   F   F
  0.3749999997559215  0.3749999997559215  0.3021430031521675   F   F   F
  0.3749999997559215  0.6249999982914289  0.3021430031521675   F   F   F
  0.3749999997559215  0.8749999987795931  0.3021430031521675   F   F   F
  0.6249999982914289  0.1249999992677573  0.3021430031521675   F   F   F
  0.6249999982914289  0.3749999997559215  0.3021430031521675   F   F   F
  0.6249999992677573  0.6249999982914289  0.3021430031521675   F   F   F
  0.6249999992677573  0.8749999987795931  0.3021430031521675   F   F   F
  0.8749999987795931  0.1249999992677573  0.3021430031521675   F   F   F
  0.8749999978032648  0.3749999997559215  0.3021430031521675   F   F   F
  0.8749999987795931  0.6249999982914289  0.3021430031521675   F   F   F
  0.8749999987795931  0.8749999987795931  0.3021430031521675   F   F   F
  0.5304365488935687  0.3722362062704292  0.6973261401992517   T   T   T
  0.6277595242274430  0.4695430903172948  0.6973250330148630   T   T   T
  0.4695687344919577  0.6277658471513092  0.6973255010977866   T   T   T
  0.3722451600284771  0.5304586287564206  0.6973251413756216   T   T   T
  0.5948663028119867  0.5948161527518394  0.6969968693861261   T   T   T
  0.4051390520726699  0.4051861581555940  0.6969976378840670   T   T   T
  0.1911551819790560  0.5702867808941292  0.6980957070735627   T   T   T
  0.4297887172963115  0.8088632679413834  0.6980941411831054   T   T   T
  0.5702182651775871  0.1911397250516487  0.6980957178524747   T   T   T
  0.8088493440106959  0.4297154632643370  0.6980952656985906   T   T   T
 
  0.00000000E+00  0.00000000E+00  0.00000000E+00
  0.00000000E+00  0.00000000E+00  0.00000000E+00
  0.00000000E+00  0.00000000E+00  0.00000000E+00
  0.00000000E+00  0.00000000E+00  0.00000000E+00
  0.00000000E+00  0.00000000E+00  0.00000000E+00
  0.00000000E+00  0.00000000E+00  0.00000000E+00
  0.00000000E+00  0.00000000E+00  0.00000000E+00
  0.00000000E+00  0.00000000E+00  0.00000000E+00
  0.00000000E+00  0.00000000E+00  0.00000000E+00
  0.00000000E+00  0.00000000E+00  0.00000000E+00
  0.00000000E+00  0.00000000E+00  0.00000000E+00
  0.00000000E+00  0.00000000E+00  0.00000000E+00
  0.00000000E+00  0.00000000E+00  0.00000000E+00
  0.00000000E+00  0.00000000E+00  0.00000000E+00
  0.00000000E+00  0.00000000E+00  0.00000000E+00
  0.00000000E+00  0.00000000E+00  0.00000000E+00
  0.00000000E+00  0.00000000E+00  0.00000000E+00
  0.00000000E+00  0.00000000E+00  0.00000000E+00
  0.00000000E+00  0.00000000E+00  0.00000000E+00
  0.00000000E+00  0.00000000E+00  0.00000000E+00
  0.00000000E+00  0.00000000E+00  0.00000000E+00
  0.00000000E+00  0.00000000E+00  0.00000000E+00
  0.00000000E+00  0.00000000E+00  0.00000000E+00
  0.00000000E+00  0.00000000E+00  0.00000000E+00
  0.00000000E+00  0.00000000E+00  0.00000000E+00
  0.00000000E+00  0.00000000E+00  0.00000000E+00
  0.00000000E+00  0.00000000E+00  0.00000000E+00
  0.00000000E+00  0.00000000E+00  0.00000000E+00
  0.00000000E+00  0.00000000E+00  0.00000000E+00
  0.00000000E+00  0.00000000E+00  0.00000000E+00
  0.00000000E+00  0.00000000E+00  0.00000000E+00
  0.00000000E+00  0.00000000E+00  0.00000000E+00
  0.00000000E+00  0.00000000E+00  0.00000000E+00
  0.00000000E+00  0.00000000E+00  0.00000000E+00
  0.00000000E+00  0.00000000E+00  0.00000000E+00
  0.00000000E+00  0.00000000E+00  0.00000000E+00
  0.00000000E+00  0.00000000E+00  0.00000000E+00
  0.00000000E+00  0.00000000E+00  0.00000000E+00
  0.00000000E+00  0.00000000E+00  0.00000000E+00
  0.00000000E+00  0.00000000E+00  0.00000000E+00
  0.00000000E+00  0.00000000E+00  0.00000000E+00
  0.00000000E+00  0.00000000E+00  0.00000000E+00
  0.00000000E+00  0.00000000E+00  0.00000000E+00
  0.00000000E+00  0.00000000E+00  0.00000000E+00
  0.00000000E+00  0.00000000E+00  0.00000000E+00
  0.00000000E+00  0.00000000E+00  0.00000000E+00
  0.00000000E+00  0.00000000E+00  0.00000000E+00
  0.00000000E+00  0.00000000E+00  0.00000000E+00
  0.00000000E+00  0.00000000E+00  0.00000000E+00
  0.00000000E+00  0.00000000E+00  0.00000000E+00
  0.00000000E+00  0.00000000E+00  0.00000000E+00
  0.00000000E+00  0.00000000E+00  0.00000000E+00
  0.00000000E+00  0.00000000E+00  0.00000000E+00
  0.00000000E+00  0.00000000E+00  0.00000000E+00
  0.00000000E+00  0.00000000E+00  0.00000000E+00
  0.00000000E+00  0.00000000E+00  0.00000000E+00
  0.00000000E+00  0.00000000E+00  0.00000000E+00
  0.00000000E+00  0.00000000E+00  0.00000000E+00
