Pt  C  H Br                             
   1.00000000000000     
    11.2480069999999994    0.0000000000000000    0.0000000000000000
    -5.6240030000000001    9.7410599999999992    0.0000000000000000
     0.0000000000000000    0.0000000000000000   24.8879693399999979
   Pt   C    H    Br
    64     6     2     4
Selective dynamics
Direct
  0.9999999587182344  0.7499999743354451  0.3013504194553178   F   F   F
  0.2499999964438118  0.0000000000000000  0.3013504194553178   F   F   F
  0.2499999825579735  0.2499999917873410  0.3013504194553178   F   F   F
  0.2499999690478916  0.4999999825481041  0.3013504194553178   F   F   F
  0.2499999551620533  0.7499999743354451  0.3013504194553178   F   F   F
  0.4999999928876306  0.0000000000000000  0.3013504194553178   F   F   F
  0.4999999790017924  0.2499999917873410  0.3013504194553178   F   F   F
  0.4999999654917033  0.4999999825481041  0.3013504194553178   F   F   F
  0.7499999893314424  0.0000000000000000  0.3013504194553178   F   F   F
  0.7499999754456042  0.2499999917873410  0.3013504194553178   F   F   F
  0.7499999619355222  0.4999999825481041  0.3013504194553178   F   F   F
  0.7499999480496840  0.7499999743354451  0.3013504194553178   F   F   F
  0.0000000000000000  0.0000000000000000  0.3013504194553178   F   F   F
  0.9999999861141617  0.2499999917873410  0.3013504194553178   F   F   F
  0.9999999583793340  0.4999999825481041  0.3013504194553178   F   F   F
  0.4999999516058651  0.7499999743354451  0.3013504194553178   F   F   F
  0.0833330000000032  0.1666669999999968  0.3936034172243978   F   F   F
  0.0833330000000032  0.4166669999999968  0.3936034172243978   F   F   F
  0.0833330000000032  0.6666669999999968  0.3936034172243978   F   F   F
  0.0833330000000032  0.9166669999999968  0.3936034172243978   F   F   F
  0.3333330000000032  0.1666669999999968  0.3936034172243978   F   F   F
  0.3333330000000032  0.4166669999999968  0.3936034172243978   F   F   F
  0.3333330000000032  0.6666669999999968  0.3936034172243978   F   F   F
  0.3333330000000032  0.9166669999999968  0.3936034172243978   F   F   F
  0.5833330000000032  0.1666669999999968  0.3936034172243978   F   F   F
  0.5833330000000032  0.4166669999999968  0.3936034172243978   F   F   F
  0.5833330000000032  0.6666669999999968  0.3936034172243978   F   F   F
  0.5833330000000032  0.9166669999999968  0.3936034172243978   F   F   F
  0.8333330000000032  0.1666669999999968  0.3936034172243978   F   F   F
  0.8333330000000032  0.4166669999999968  0.3936034172243978   F   F   F
  0.8333330000000032  0.6666669999999968  0.3936034172243978   F   F   F
  0.8333330000000032  0.9166669999999968  0.3936034172243978   F   F   F
  0.2495517782477323  0.2500785263523142  0.5786704673906580   T   T   T
  0.2495290159502707  0.5002354540610000  0.5794467239239554   T   T   T
  0.2500559216557932  0.7503023627573470  0.5790699409569415   T   T   T
  0.2499091344273820  0.0001425652169626  0.5788532184767762   T   T   T
  0.4997466565648062  0.2498685513879333  0.5793763125087109   T   T   T
  0.5000085638466657  0.5004735338878455  0.5774541774889096   T   T   T
  0.4997541712608227  0.7502731906457772  0.5788115191317721   T   T   T
  0.4997113678897338 -0.0000351257092173  0.5790694225562312   T   T   T
  0.7499580711204884  0.2505470083750331  0.5790511242489194   T   T   T
  0.7496178061054104  0.5003685719474893  0.5789451208958500   T   T   T
  0.7495127441533540  0.7499941891886373  0.5774168866284155   T   T   T
  0.7497847010148041  0.0005063302532530  0.5794378435293580   T   T   T
  0.9996218611684898  0.2504173770102219  0.5788256720838600   T   T   T
  0.9994896825339281  0.5000564259631836  0.5790488214514274   T   T   T
  0.0001313640039925  0.7502547311148418  0.5793935809266173   T   T   T
 -0.0000467760001895  0.0005005658361003  0.5786507162514481   T   T   T
  0.1666365769035159  0.0833993216358856  0.4854695951901641   T   T   T
  0.1666158434793537  0.3336795474336054  0.4854780145936168   T   T   T
  0.1665183247300826  0.5832461555275072  0.4857034522978940   T   T   T
  0.1664439659011439  0.8332252762120107  0.4855630817721158   T   T   T
  0.4167820824208514  0.0835560467778228  0.4855550191715611   T   T   T
  0.4164022000406951  0.3328353553305745  0.4853536879903845   T   T   T
  0.4161495295199556  0.5836291070949319  0.4853059488319193   T   T   T
  0.4163591616156795  0.8336412991014767  0.4855397941017560   T   T   T
  0.6667341974939138  0.0834769486777064  0.4857026383129353   T   T   T
  0.6663385121568034  0.3331764048942282  0.4856212947197434   T   T   T
  0.6668575393605162  0.5831128361518991  0.4849260820551045   T   T   T
  0.6663704958931608  0.8338648189888209  0.4852960480745203   T   T   T
  0.9163138253408161  0.0833810275777685  0.4854759293397663   T   T   T
  0.9164291744694575  0.3335606841569096  0.4855148491433164   T   T   T
  0.9168364848687721  0.5836761410048409  0.4856282946021240   T   T   T
  0.9171834061758170  0.8336069001579632  0.4853428379808401   T   T   T
  0.6966026582335313  0.5530122814739332  0.7082459587822012   T   T   T
  0.5531374305195714  0.4809847783417003  0.7083737211185098   T   T   T
  0.4811519588067895  0.5531048785168099  0.7083414642284733   T   T   T
  0.5533952802496008  0.6965905805895997  0.7083127861857723   T   T   T
  0.6968738443948239  0.7687482035711676  0.7082772766446749   T   T   T
  0.7687869981984051  0.6965169360235662  0.7081979586646958   T   T   T
  0.7525514179938002  0.4971492458428903  0.7080905361758926   T   T   T
  0.4973509603476872  0.7524816927150267  0.7081624473158165   T   T   T
  0.4621948347372203  0.2868446379314531  0.7067110171844883   T   T   T
  0.2871698957561865  0.4627762721454588  0.7063666747087645   T   T   T
  0.7872022731919835  0.9628145831804001  0.7063551995231255   T   T   T
  0.9629943716802555  0.7870054064823961  0.7060733344480697   T   T   T
 
  0.00000000E+00  0.00000000E+00  0.00000000E+00
  0.00000000E+00  0.00000000E+00  0.00000000E+00
  0.00000000E+00  0.00000000E+00  0.00000000E+00
  0.00000000E+00  0.00000000E+00  0.00000000E+00
  0.00000000E+00  0.00000000E+00  0.00000000E+00
  0.00000000E+00  0.00000000E+00  0.00000000E+00
  0.00000000E+00  0.00000000E+00  0.00000000E+00
  0.00000000E+00  0.00000000E+00  0.00000000E+00
  0.00000000E+00  0.00000000E+00  0.00000000E+00
  0.00000000E+00  0.00000000E+00  0.00000000E+00
  0.00000000E+00  0.00000000E+00  0.00000000E+00
  0.00000000E+00  0.00000000E+00  0.00000000E+00
  0.00000000E+00  0.00000000E+00  0.00000000E+00
  0.00000000E+00  0.00000000E+00  0.00000000E+00
  0.00000000E+00  0.00000000E+00  0.00000000E+00
  0.00000000E+00  0.00000000E+00  0.00000000E+00
  0.00000000E+00  0.00000000E+00  0.00000000E+00
  0.00000000E+00  0.00000000E+00  0.00000000E+00
  0.00000000E+00  0.00000000E+00  0.00000000E+00
  0.00000000E+00  0.00000000E+00  0.00000000E+00
  0.00000000E+00  0.00000000E+00  0.00000000E+00
  0.00000000E+00  0.00000000E+00  0.00000000E+00
  0.00000000E+00  0.00000000E+00  0.00000000E+00
  0.00000000E+00  0.00000000E+00  0.00000000E+00
  0.00000000E+00  0.00000000E+00  0.00000000E+00
  0.00000000E+00  0.00000000E+00  0.00000000E+00
  0.00000000E+00  0.00000000E+00  0.00000000E+00
  0.00000000E+00  0.00000000E+00  0.00000000E+00
  0.00000000E+00  0.00000000E+00  0.00000000E+00
  0.00000000E+00  0.00000000E+00  0.00000000E+00
  0.00000000E+00  0.00000000E+00  0.00000000E+00
  0.00000000E+00  0.00000000E+00  0.00000000E+00
  0.00000000E+00  0.00000000E+00  0.00000000E+00
  0.00000000E+00  0.00000000E+00  0.00000000E+00
  0.00000000E+00  0.00000000E+00  0.00000000E+00
  0.00000000E+00  0.00000000E+00  0.00000000E+00
  0.00000000E+00  0.00000000E+00  0.00000000E+00
  0.00000000E+00  0.00000000E+00  0.00000000E+00
  0.00000000E+00  0.00000000E+00  0.00000000E+00
  0.00000000E+00  0.00000000E+00  0.00000000E+00
  0.00000000E+00  0.00000000E+00  0.00000000E+00
  0.00000000E+00  0.00000000E+00  0.00000000E+00
  0.00000000E+00  0.00000000E+00  0.00000000E+00
  0.00000000E+00  0.00000000E+00  0.00000000E+00
  0.00000000E+00  0.00000000E+00  0.00000000E+00
  0.00000000E+00  0.00000000E+00  0.00000000E+00
  0.00000000E+00  0.00000000E+00  0.00000000E+00
  0.00000000E+00  0.00000000E+00  0.00000000E+00
  0.00000000E+00  0.00000000E+00  0.00000000E+00
  0.00000000E+00  0.00000000E+00  0.00000000E+00
  0.00000000E+00  0.00000000E+00  0.00000000E+00
  0.00000000E+00  0.00000000E+00  0.00000000E+00
  0.00000000E+00  0.00000000E+00  0.00000000E+00
  0.00000000E+00  0.00000000E+00  0.00000000E+00
  0.00000000E+00  0.00000000E+00  0.00000000E+00
  0.00000000E+00  0.00000000E+00  0.00000000E+00
  0.00000000E+00  0.00000000E+00  0.00000000E+00
  0.00000000E+00  0.00000000E+00  0.00000000E+00
  0.00000000E+00  0.00000000E+00  0.00000000E+00
  0.00000000E+00  0.00000000E+00  0.00000000E+00
  0.00000000E+00  0.00000000E+00  0.00000000E+00
  0.00000000E+00  0.00000000E+00  0.00000000E+00
  0.00000000E+00  0.00000000E+00  0.00000000E+00
  0.00000000E+00  0.00000000E+00  0.00000000E+00
  0.00000000E+00  0.00000000E+00  0.00000000E+00
  0.00000000E+00  0.00000000E+00  0.00000000E+00
  0.00000000E+00  0.00000000E+00  0.00000000E+00
  0.00000000E+00  0.00000000E+00  0.00000000E+00
  0.00000000E+00  0.00000000E+00  0.00000000E+00
  0.00000000E+00  0.00000000E+00  0.00000000E+00
  0.00000000E+00  0.00000000E+00  0.00000000E+00
  0.00000000E+00  0.00000000E+00  0.00000000E+00
  0.00000000E+00  0.00000000E+00  0.00000000E+00
  0.00000000E+00  0.00000000E+00  0.00000000E+00
  0.00000000E+00  0.00000000E+00  0.00000000E+00
  0.00000000E+00  0.00000000E+00  0.00000000E+00
