Cu48 C6 Br2 H4                          
    1.000000000000000     
    10.2424774999999997    0.0000000000000000    0.0000000000000000
     0.0000000000000000   10.2424774999999997    0.0000000000000000
     0.0000000000000000    0.0000000000000000   16.5517355200000011
   Cu   C    Br   H 
    48     6     2     4
Selective dynamics
Direct
  0.2499599464765296  0.9998424267665911  0.4090875429045511   T   T   T
  0.2498492329189688  0.2498613179765030  0.4088924219386740   T   T   T
  0.2499448162880995  0.5002651449346018  0.4091187798662617   T   T   T
  0.2499545251317201  0.7500443403392296  0.4091807386037303   T   T   T
  0.5000023650717580  0.9999980283853134  0.4091142049986587   T   T   T
  0.5002669787895755  0.2499482803559090  0.4091252653609772   T   T   T
  0.4999864795029509  0.4999912819947099  0.4089303213749389   T   T   T
  0.4997238747397219  0.7500662829298506  0.4091241352060848   T   T   T
  0.7500403838873524  0.0001623530432724  0.4090794773466939   T   T   T
  0.7500482490326235  0.2499480763776774  0.4091821984286881   T   T   T
  0.7500565833868151  0.4997171875069029  0.4091224615880691   T   T   T
  0.7501476704243117  0.7501664696277928  0.4088877342249546   T   T   T
  0.9999993855178957  0.0000056822984362  0.4090483895484525   T   T   T
  0.9998467393771477  0.2499610223083835  0.4090829462154773   T   T   T
  0.0000161017120561  0.4999891805508199  0.4091072343661608   T   T   T
  0.0001692355455134  0.7500471081109765  0.4090768108085427   T   T   T
  0.1246410777655100  0.1246404168847164  0.5158861737058942   T   T   T
  0.1245740407246387  0.3751177855689249  0.5161428818910636   T   T   T
  0.1249280144691696  0.6250683646714634  0.5162912582002619   T   T   T
  0.1252033046531835  0.8748258174776424  0.5165443436561006   T   T   T
  0.3751432473915060  0.1245642492402865  0.5161310955767675   T   T   T
  0.3751893429756024  0.3751665915563223  0.5146022307074105   T   T   T
  0.3745092246431980  0.6255153602640888  0.5166373220883287   T   T   T
  0.3749478750314950  0.8750997539811252  0.5162792194322847   T   T   T
  0.6250675239847254  0.1249124557562169  0.5162718972902240   T   T   T
  0.6255059958274956  0.3744802639224929  0.5166305792882753   T   T   T
  0.6247916536943734  0.6248081599078503  0.5145723177674810   T   T   T
  0.6248344984620431  0.8754733764221285  0.5161094842937644   T   T   T
  0.8747993050107254  0.1251944008576942  0.5165267391072987   T   T   T
  0.8750759347803339  0.3749122691836746  0.5162912406286893   T   T   T
  0.8754455029528430  0.6248428588896999  0.5161316572487635   T   T   T
  0.8753607597058561  0.8753974874271648  0.5158849668430605   T   T   T
  0.1250000002440785  0.1249999992677573  0.3020831256008378   F   F   F
  0.1250000002440785  0.3749999997559215  0.3020831256008378   F   F   F
  0.1250000002440785  0.6249999982914289  0.3020831256008378   F   F   F
  0.1250000002440785  0.8749999987795931  0.3020831256008378   F   F   F
  0.3749999997559215  0.1249999992677573  0.3020831256008378   F   F   F
  0.3749999997559215  0.3749999997559215  0.3020831256008378   F   F   F
  0.3749999997559215  0.6249999982914289  0.3020831256008378   F   F   F
  0.3749999997559215  0.8749999987795931  0.3020831256008378   F   F   F
  0.6249999982914289  0.1249999992677573  0.3020831256008378   F   F   F
  0.6249999982914289  0.3749999997559215  0.3020831256008378   F   F   F
  0.6249999992677573  0.6249999982914289  0.3020831256008378   F   F   F
  0.6249999992677573  0.8749999987795931  0.3020831256008378   F   F   F
  0.8749999987795931  0.1249999992677573  0.3020831256008378   F   F   F
  0.8749999978032648  0.3749999997559215  0.3020831256008378   F   F   F
  0.8749999987795931  0.6249999982914289  0.3020831256008378   F   F   F
  0.8749999987795931  0.8749999987795931  0.3020831256008378   F   F   F
  0.5956070361031536  0.5955778751218190  0.6852981693584255   T   T   T
  0.6326998676949529  0.4642187728252907  0.6830727789434761   T   T   T
  0.5358351764317604  0.3673054183603881  0.6830732133061517   T   T   T
  0.4044105457828380  0.4044429030292989  0.6852961239434308   T   T   T
  0.3672920235902737  0.5358489070396217  0.6830683262601980   T   T   T
  0.4642246353923198  0.6326896154107686  0.6830700070647779   T   T   T
  0.7269017458170381  0.7268531600952528  0.6912337509391264   T   T   T
  0.2730697085307554  0.2731200158810481  0.6911554437648491   T   T   T
  0.7354793592702933  0.4365819533293305  0.6831688997428458   T   T   T
  0.5634105454555041  0.2644786252229920  0.6831695863941647   T   T   T
  0.2645086036958659  0.5634249532534028  0.6831583390089122   T   T   T
  0.4365949153112254  0.7355063916392268  0.6831770745959034   T   T   T
 
  0.00000000E+00  0.00000000E+00  0.00000000E+00
  0.00000000E+00  0.00000000E+00  0.00000000E+00
  0.00000000E+00  0.00000000E+00  0.00000000E+00
  0.00000000E+00  0.00000000E+00  0.00000000E+00
  0.00000000E+00  0.00000000E+00  0.00000000E+00
  0.00000000E+00  0.00000000E+00  0.00000000E+00
  0.00000000E+00  0.00000000E+00  0.00000000E+00
  0.00000000E+00  0.00000000E+00  0.00000000E+00
  0.00000000E+00  0.00000000E+00  0.00000000E+00
  0.00000000E+00  0.00000000E+00  0.00000000E+00
  0.00000000E+00  0.00000000E+00  0.00000000E+00
  0.00000000E+00  0.00000000E+00  0.00000000E+00
  0.00000000E+00  0.00000000E+00  0.00000000E+00
  0.00000000E+00  0.00000000E+00  0.00000000E+00
  0.00000000E+00  0.00000000E+00  0.00000000E+00
  0.00000000E+00  0.00000000E+00  0.00000000E+00
  0.00000000E+00  0.00000000E+00  0.00000000E+00
  0.00000000E+00  0.00000000E+00  0.00000000E+00
  0.00000000E+00  0.00000000E+00  0.00000000E+00
  0.00000000E+00  0.00000000E+00  0.00000000E+00
  0.00000000E+00  0.00000000E+00  0.00000000E+00
  0.00000000E+00  0.00000000E+00  0.00000000E+00
  0.00000000E+00  0.00000000E+00  0.00000000E+00
  0.00000000E+00  0.00000000E+00  0.00000000E+00
  0.00000000E+00  0.00000000E+00  0.00000000E+00
  0.00000000E+00  0.00000000E+00  0.00000000E+00
  0.00000000E+00  0.00000000E+00  0.00000000E+00
  0.00000000E+00  0.00000000E+00  0.00000000E+00
  0.00000000E+00  0.00000000E+00  0.00000000E+00
  0.00000000E+00  0.00000000E+00  0.00000000E+00
  0.00000000E+00  0.00000000E+00  0.00000000E+00
  0.00000000E+00  0.00000000E+00  0.00000000E+00
  0.00000000E+00  0.00000000E+00  0.00000000E+00
  0.00000000E+00  0.00000000E+00  0.00000000E+00
  0.00000000E+00  0.00000000E+00  0.00000000E+00
  0.00000000E+00  0.00000000E+00  0.00000000E+00
  0.00000000E+00  0.00000000E+00  0.00000000E+00
  0.00000000E+00  0.00000000E+00  0.00000000E+00
  0.00000000E+00  0.00000000E+00  0.00000000E+00
  0.00000000E+00  0.00000000E+00  0.00000000E+00
  0.00000000E+00  0.00000000E+00  0.00000000E+00
  0.00000000E+00  0.00000000E+00  0.00000000E+00
  0.00000000E+00  0.00000000E+00  0.00000000E+00
  0.00000000E+00  0.00000000E+00  0.00000000E+00
  0.00000000E+00  0.00000000E+00  0.00000000E+00
  0.00000000E+00  0.00000000E+00  0.00000000E+00
  0.00000000E+00  0.00000000E+00  0.00000000E+00
  0.00000000E+00  0.00000000E+00  0.00000000E+00
  0.00000000E+00  0.00000000E+00  0.00000000E+00
  0.00000000E+00  0.00000000E+00  0.00000000E+00
  0.00000000E+00  0.00000000E+00  0.00000000E+00
  0.00000000E+00  0.00000000E+00  0.00000000E+00
  0.00000000E+00  0.00000000E+00  0.00000000E+00
  0.00000000E+00  0.00000000E+00  0.00000000E+00
  0.00000000E+00  0.00000000E+00  0.00000000E+00
  0.00000000E+00  0.00000000E+00  0.00000000E+00
  0.00000000E+00  0.00000000E+00  0.00000000E+00
  0.00000000E+00  0.00000000E+00  0.00000000E+00
  0.00000000E+00  0.00000000E+00  0.00000000E+00
  0.00000000E+00  0.00000000E+00  0.00000000E+00
