Cu48 C6 Br6                             
    1.000000000000000     
    10.2424769999999992    0.0000000000000000    0.0000000000000000
    -5.1212390000000001    8.8702459999999999    0.0000000000000000
     0.0000000000000000    0.0000000000000000   17.1828779999999988
   Cu   C    Br
    48     6     6
Selective dynamics
Direct
  0.0833330000000032  0.1666669999999968  0.3491849999999985   F   F   F
  0.0833330000000032  0.4166669999999968  0.3491849999999985   F   F   F
  0.0833330000000032  0.6666669999999968  0.3491849999999985   F   F   F
  0.0833330000000032  0.9166669999999968  0.3491849999999985   F   F   F
  0.3333330000000032  0.1666669999999968  0.3491849999999985   F   F   F
  0.3333330000000032  0.4166669999999968  0.3491849999999985   F   F   F
  0.3333330000000032  0.6666669999999968  0.3491849999999985   F   F   F
  0.3333330000000032  0.9166669999999968  0.3491849999999985   F   F   F
  0.5833330000000032  0.1666669999999968  0.3491849999999985   F   F   F
  0.5833330000000032  0.4166669999999968  0.3491849999999985   F   F   F
  0.5833330000000032  0.6666669999999968  0.3491849999999985   F   F   F
  0.5833330000000032  0.9166669999999968  0.3491849999999985   F   F   F
  0.8333330000000032  0.1666669999999968  0.3491849999999985   F   F   F
  0.8333330000000032  0.4166669999999968  0.3491849999999985   F   F   F
  0.8333330000000032  0.6666669999999968  0.3491849999999985   F   F   F
  0.8333330000000032  0.9166669999999968  0.3491849999999985   F   F   F
  0.9995389286817655  0.9996618245792277  0.5887062766584847   T   T   T
  0.9994719402237777  0.2496773937033794  0.5888364991800046   T   T   T
  0.0001376882804323  0.5000051799008531  0.5888723853830200   T   T   T
  0.0002628815309436  0.7497483223517207  0.5888985593043259   T   T   T
  0.2495768684370461  0.9994928412859494  0.5888792670133043   T   T   T
  0.2501631328532667  0.2503160436414689  0.5873307295878263   T   T   T
  0.2502042955407973  0.4997906964244123  0.5872803430211206   T   T   T
  0.2499944590364223  0.7498679526072110  0.5888648665571026   T   T   T
  0.4999967735322457  0.0003891606090747  0.5890409196414268   T   T   T
  0.4994477163512840  0.2505385905324360  0.5872269680026818   T   T   T
  0.4996733671279401  0.4998291608503393  0.5873363208578581   T   T   T
  0.5003190831396367  0.7505307452665022  0.5888318928069651   T   T   T
  0.7495969839740653  0.0004059572331983  0.5889560147386987   T   T   T
  0.7496113027395594  0.2499962128902879  0.5890490945919566   T   T   T
  0.7505092786101812  0.5004220854935681  0.5888952754397465   T   T   T
  0.7503451005110406  0.7504714954589033  0.5887135526008862   T   T   T
  0.1664500474434618  0.0827461239032985  0.4688607927674937   T   T   T
  0.1661098824352578  0.3330109291072461  0.4685894909802286   T   T   T
  0.1665064978548614  0.5834886687262539  0.4686371071005340   T   T   T
  0.1665872883666850  0.8332526626539547  0.4689847566099417   T   T   T
  0.4163639674977802  0.0828380658054684  0.4688914927033778   T   T   T
  0.4165608819292004  0.3334213261965431  0.4681085482238672   T   T   T
  0.4169881887167435  0.5838861316270396  0.4685918646879585   T   T   T
  0.4166475615872898  0.8332250935201344  0.4691941853198927   T   T   T
  0.6664628491176501  0.0835393092266798  0.4690216496105322   T   T   T
  0.6671650615526801  0.3336314306276194  0.4688989086680664   T   T   T
  0.6672571374383693  0.5835565087676500  0.4688701180593853   T   T   T
  0.6667555128870148  0.8334439626123284  0.4689676623670493   T   T   T
  0.9165581461857926  0.0832478950657105  0.4689647724748482   T   T   T
  0.9167809743144915  0.3333495534740649  0.4691896018450450   T   T   T
  0.9167498591921444  0.5834129324503223  0.4689877786409582   T   T   T
  0.9167828688713087  0.8332259262515294  0.4690186470141740   T   T   T
  0.2959160615282741  0.2167084063435141  0.7692921801207078   T   T   T
  0.2167695048308502  0.2958216838686383  0.7692339798762262   T   T   T
  0.2958967446257930  0.4541761214339033  0.7693060695544105   T   T   T
  0.4541921081238272  0.5332109664374798  0.7692405825323902   T   T   T
  0.5332918775146425  0.4540616240869539  0.7692895486341698   T   T   T
  0.4541756730544790  0.2957610497301459  0.7694159537051917   T   T   T
  0.1889703512202203  0.0028315386231057  0.7663192652069384   T   T   T
  0.0029346187335051  0.1890498401677689  0.7663443974190258   T   T   T
  0.1889179600787187  0.5611940441144654  0.7672336166370357   T   T   T
  0.5610471280399594  0.7470629461321394  0.7663786405920163   T   T   T
  0.7471688788853328  0.5609334127678238  0.7662894355736043   T   T   T
  0.5611809712537834  0.1887138925231753  0.7673462882042088   T   T   T
 
  0.00000000E+00  0.00000000E+00  0.00000000E+00
  0.00000000E+00  0.00000000E+00  0.00000000E+00
  0.00000000E+00  0.00000000E+00  0.00000000E+00
  0.00000000E+00  0.00000000E+00  0.00000000E+00
  0.00000000E+00  0.00000000E+00  0.00000000E+00
  0.00000000E+00  0.00000000E+00  0.00000000E+00
  0.00000000E+00  0.00000000E+00  0.00000000E+00
  0.00000000E+00  0.00000000E+00  0.00000000E+00
  0.00000000E+00  0.00000000E+00  0.00000000E+00
  0.00000000E+00  0.00000000E+00  0.00000000E+00
  0.00000000E+00  0.00000000E+00  0.00000000E+00
  0.00000000E+00  0.00000000E+00  0.00000000E+00
  0.00000000E+00  0.00000000E+00  0.00000000E+00
  0.00000000E+00  0.00000000E+00  0.00000000E+00
  0.00000000E+00  0.00000000E+00  0.00000000E+00
  0.00000000E+00  0.00000000E+00  0.00000000E+00
  0.00000000E+00  0.00000000E+00  0.00000000E+00
  0.00000000E+00  0.00000000E+00  0.00000000E+00
  0.00000000E+00  0.00000000E+00  0.00000000E+00
  0.00000000E+00  0.00000000E+00  0.00000000E+00
  0.00000000E+00  0.00000000E+00  0.00000000E+00
  0.00000000E+00  0.00000000E+00  0.00000000E+00
  0.00000000E+00  0.00000000E+00  0.00000000E+00
  0.00000000E+00  0.00000000E+00  0.00000000E+00
  0.00000000E+00  0.00000000E+00  0.00000000E+00
  0.00000000E+00  0.00000000E+00  0.00000000E+00
  0.00000000E+00  0.00000000E+00  0.00000000E+00
  0.00000000E+00  0.00000000E+00  0.00000000E+00
  0.00000000E+00  0.00000000E+00  0.00000000E+00
  0.00000000E+00  0.00000000E+00  0.00000000E+00
  0.00000000E+00  0.00000000E+00  0.00000000E+00
  0.00000000E+00  0.00000000E+00  0.00000000E+00
  0.00000000E+00  0.00000000E+00  0.00000000E+00
  0.00000000E+00  0.00000000E+00  0.00000000E+00
  0.00000000E+00  0.00000000E+00  0.00000000E+00
  0.00000000E+00  0.00000000E+00  0.00000000E+00
  0.00000000E+00  0.00000000E+00  0.00000000E+00
  0.00000000E+00  0.00000000E+00  0.00000000E+00
  0.00000000E+00  0.00000000E+00  0.00000000E+00
  0.00000000E+00  0.00000000E+00  0.00000000E+00
  0.00000000E+00  0.00000000E+00  0.00000000E+00
  0.00000000E+00  0.00000000E+00  0.00000000E+00
  0.00000000E+00  0.00000000E+00  0.00000000E+00
  0.00000000E+00  0.00000000E+00  0.00000000E+00
  0.00000000E+00  0.00000000E+00  0.00000000E+00
  0.00000000E+00  0.00000000E+00  0.00000000E+00
  0.00000000E+00  0.00000000E+00  0.00000000E+00
  0.00000000E+00  0.00000000E+00  0.00000000E+00
  0.00000000E+00  0.00000000E+00  0.00000000E+00
  0.00000000E+00  0.00000000E+00  0.00000000E+00
  0.00000000E+00  0.00000000E+00  0.00000000E+00
  0.00000000E+00  0.00000000E+00  0.00000000E+00
  0.00000000E+00  0.00000000E+00  0.00000000E+00
  0.00000000E+00  0.00000000E+00  0.00000000E+00
  0.00000000E+00  0.00000000E+00  0.00000000E+00
  0.00000000E+00  0.00000000E+00  0.00000000E+00
  0.00000000E+00  0.00000000E+00  0.00000000E+00
  0.00000000E+00  0.00000000E+00  0.00000000E+00
  0.00000000E+00  0.00000000E+00  0.00000000E+00
  0.00000000E+00  0.00000000E+00  0.00000000E+00
