Pd  C  F                                
    1.000000000000000     
    11.1817229999999999    0.0000000000000000    0.0000000000000000
     0.0000000000000000   11.1817229999999999    0.0000000000000000
     0.0000000000000000    0.0000000000000000   23.9300040900000006
   Pd   C    F 
    64     6     6
Selective dynamics
Direct
  0.0000000000000000  0.2499999991056825  0.3134140709626578   F   F   F
  0.7499999973170475  0.7499999973170475  0.3134140709626578   F   F   F
  0.0000000000000000  0.4999999982113650  0.3134140709626578   F   F   F
  0.0000000000000000  0.7499999973170475  0.3134140709626578   F   F   F
  0.0000000000000000  0.0000000000000000  0.3134140709626578   F   F   F
  0.2499999991056825  0.2499999991056825  0.3134140709626578   F   F   F
  0.2499999991056825  0.4999999982113650  0.3134140709626578   F   F   F
  0.7499999973170475  0.0000000000000000  0.3134140709626578   F   F   F
  0.2499999991056825  0.7499999973170475  0.3134140709626578   F   F   F
  0.2499999991056825  0.0000000000000000  0.3134140709626578   F   F   F
  0.4999999982113650  0.2499999991056825  0.3134140709626578   F   F   F
  0.4999999982113650  0.4999999982113650  0.3134140709626578   F   F   F
  0.4999999982113650  0.7499999973170475  0.3134140709626578   F   F   F
  0.4999999982113650  0.0000000000000000  0.3134140709626578   F   F   F
  0.7499999973170475  0.2499999991056825  0.3134140709626578   F   F   F
  0.7499999973170475  0.4999999982113650  0.3134140709626578   F   F   F
  0.9982930017168522  0.2499573004310196  0.4767671420762993   T   T   T
 -0.0000000000000000  0.4999999982113650  0.4760724389323422   T   T   T
  0.0017069982831478  0.7500426959917104  0.4767671420762993   T   T   T
 -0.0000000000000000 -0.0000000000000000  0.4766944502039283   T   T   T
  0.2500032334745020  0.2499978876624078  0.4767908428429272   T   T   T
  0.2527750139120307  0.5006525974239672  0.4781446874592379   T   T   T
  0.2530781380562792  0.7469190670886153  0.4785773329407684   T   T   T
  0.2499595314428120  0.9982943338324272  0.4767664871814524   T   T   T
  0.5006768330838640  0.2528403122780224  0.4781709757571359   T   T   T
  0.4999999982113650  0.4999999982113650  0.4776288742515388   T   T   T
  0.4993231633388659  0.7471596841447076  0.4781709757571359   T   T   T
  0.4999999982113650 -0.0000000000000000  0.4760722970092592   T   T   T
  0.7469218583664509  0.2530809293341148  0.4785773329407684   T   T   T
  0.7472249825106994  0.4993473989987630  0.4781446874592379   T   T   T
  0.7499967629482279  0.7500021087603220  0.4767908428429272   T   T   T
  0.7500404649799179  0.0017056661675727  0.4767664871814524   T   T   T
  0.1242232296351831  0.1242201368545977  0.5580654073126264   T   T   T
  0.1226686823712519  0.3736052074627745  0.5579757916513517   T   T   T
  0.1242316948274014  0.6243736717722786  0.5583746447983111   T   T   T
  0.1248242144015716  0.8751782245642554  0.5582499098544667   T   T   T
  0.3736112994970575  0.1226632997869759  0.5579773566948241   T   T   T
  0.3679598146902131  0.3679616344964453  0.5617619607246269   T   T   T
  0.3769165529152916  0.6230762594275212  0.5664879222906217   T   T   T
  0.3756256159237384  0.8757194175269658  0.5584003365414201   T   T   T
  0.6243743804989915  0.1242805788957641  0.5584003365414201   T   T   T
  0.6230834435074384  0.3769237369952085  0.5664879222906217   T   T   T
  0.6320401817325167  0.6320383619262848  0.5617619607246269   T   T   T
  0.6263886969256725  0.8773366966357541  0.5579773566948241   T   T   T
  0.8751757820211584  0.1248217718584746  0.5582499098544667   T   T   T
  0.8757683015953285  0.3756263246504512  0.5583746447983111   T   T   T
  0.8773313140514781  0.6263947889599554  0.5579757916513517   T   T   T
  0.8757767667875470  0.8757798595681322  0.5580654073126264   T   T   T
  0.1249999995528412  0.1249999995528412  0.3960161475258630   F   F   F
  0.1249999995528412  0.3749999986585237  0.3960161475258630   F   F   F
  0.1249999995528412  0.6249999977642062  0.3960161475258630   F   F   F
  0.1249999995528412  0.8749999968698887  0.3960161475258630   F   F   F
  0.3749999986585237  0.1249999995528412  0.3960161475258630   F   F   F
  0.3749999986585237  0.3749999986585237  0.3960161475258630   F   F   F
  0.3749999986585237  0.6249999977642062  0.3960161475258630   F   F   F
  0.3749999986585237  0.8749999968698887  0.3960161475258630   F   F   F
  0.6249999977642062  0.1249999995528412  0.3960161475258630   F   F   F
  0.6249999977642062  0.3749999986585237  0.3960161475258630   F   F   F
  0.6249999977642062  0.6249999977642062  0.3960161475258630   F   F   F
  0.6249999977642062  0.8749999968698887  0.3960161475258630   F   F   F
  0.8749999968698887  0.1249999995528412  0.3960161475258630   F   F   F
  0.8749999968698887  0.3749999986585237  0.3960161475258630   F   F   F
  0.8749999968698887  0.6249999977642062  0.3960161475258630   F   F   F
  0.8749999968698887  0.8749999968698887  0.3960161475258630   F   F   F
  0.3740220366017787  0.5345532650119565  0.6459377728429657   T   T   T
  0.4654437715291070  0.6259793887077667  0.6459361944068930   T   T   T
  0.5942478081778079  0.5942678993512766  0.6433343851216782   T   T   T
  0.6259779312028265  0.4654467179960251  0.6459377728429657   T   T   T
  0.5345562526174373  0.3740206211297188  0.6459361944068930   T   T   T
  0.4057521882449221  0.4057320970714534  0.6433343851216782   T   T   T
  0.2716683407984360  0.5578891359100552  0.6749118224344014   T   T   T
  0.4421087982152531  0.7283355146104784  0.6749129597722415   T   T   T
  0.6634443093857088  0.6634427990957340  0.6783963252409074   T   T   T
  0.7283316556243011  0.4421108605126821  0.6749118224344014   T   T   T
  0.5578912679641714  0.2716644996985874  0.6749129597722415   T   T   T
  0.3365557147608426  0.3365572107417515  0.6783963252409074   T   T   T
 
  0.00000000E+00  0.00000000E+00  0.00000000E+00
  0.00000000E+00  0.00000000E+00  0.00000000E+00
  0.00000000E+00  0.00000000E+00  0.00000000E+00
  0.00000000E+00  0.00000000E+00  0.00000000E+00
  0.00000000E+00  0.00000000E+00  0.00000000E+00
  0.00000000E+00  0.00000000E+00  0.00000000E+00
  0.00000000E+00  0.00000000E+00  0.00000000E+00
  0.00000000E+00  0.00000000E+00  0.00000000E+00
  0.00000000E+00  0.00000000E+00  0.00000000E+00
  0.00000000E+00  0.00000000E+00  0.00000000E+00
  0.00000000E+00  0.00000000E+00  0.00000000E+00
  0.00000000E+00  0.00000000E+00  0.00000000E+00
  0.00000000E+00  0.00000000E+00  0.00000000E+00
  0.00000000E+00  0.00000000E+00  0.00000000E+00
  0.00000000E+00  0.00000000E+00  0.00000000E+00
  0.00000000E+00  0.00000000E+00  0.00000000E+00
  0.00000000E+00  0.00000000E+00  0.00000000E+00
  0.00000000E+00  0.00000000E+00  0.00000000E+00
  0.00000000E+00  0.00000000E+00  0.00000000E+00
  0.00000000E+00  0.00000000E+00  0.00000000E+00
  0.00000000E+00  0.00000000E+00  0.00000000E+00
  0.00000000E+00  0.00000000E+00  0.00000000E+00
  0.00000000E+00  0.00000000E+00  0.00000000E+00
  0.00000000E+00  0.00000000E+00  0.00000000E+00
  0.00000000E+00  0.00000000E+00  0.00000000E+00
  0.00000000E+00  0.00000000E+00  0.00000000E+00
  0.00000000E+00  0.00000000E+00  0.00000000E+00
  0.00000000E+00  0.00000000E+00  0.00000000E+00
  0.00000000E+00  0.00000000E+00  0.00000000E+00
  0.00000000E+00  0.00000000E+00  0.00000000E+00
  0.00000000E+00  0.00000000E+00  0.00000000E+00
  0.00000000E+00  0.00000000E+00  0.00000000E+00
  0.00000000E+00  0.00000000E+00  0.00000000E+00
  0.00000000E+00  0.00000000E+00  0.00000000E+00
  0.00000000E+00  0.00000000E+00  0.00000000E+00
  0.00000000E+00  0.00000000E+00  0.00000000E+00
  0.00000000E+00  0.00000000E+00  0.00000000E+00
  0.00000000E+00  0.00000000E+00  0.00000000E+00
  0.00000000E+00  0.00000000E+00  0.00000000E+00
  0.00000000E+00  0.00000000E+00  0.00000000E+00
  0.00000000E+00  0.00000000E+00  0.00000000E+00
  0.00000000E+00  0.00000000E+00  0.00000000E+00
  0.00000000E+00  0.00000000E+00  0.00000000E+00
  0.00000000E+00  0.00000000E+00  0.00000000E+00
  0.00000000E+00  0.00000000E+00  0.00000000E+00
  0.00000000E+00  0.00000000E+00  0.00000000E+00
  0.00000000E+00  0.00000000E+00  0.00000000E+00
  0.00000000E+00  0.00000000E+00  0.00000000E+00
  0.00000000E+00  0.00000000E+00  0.00000000E+00
  0.00000000E+00  0.00000000E+00  0.00000000E+00
  0.00000000E+00  0.00000000E+00  0.00000000E+00
  0.00000000E+00  0.00000000E+00  0.00000000E+00
  0.00000000E+00  0.00000000E+00  0.00000000E+00
  0.00000000E+00  0.00000000E+00  0.00000000E+00
  0.00000000E+00  0.00000000E+00  0.00000000E+00
  0.00000000E+00  0.00000000E+00  0.00000000E+00
  0.00000000E+00  0.00000000E+00  0.00000000E+00
  0.00000000E+00  0.00000000E+00  0.00000000E+00
  0.00000000E+00  0.00000000E+00  0.00000000E+00
  0.00000000E+00  0.00000000E+00  0.00000000E+00
  0.00000000E+00  0.00000000E+00  0.00000000E+00
  0.00000000E+00  0.00000000E+00  0.00000000E+00
  0.00000000E+00  0.00000000E+00  0.00000000E+00
  0.00000000E+00  0.00000000E+00  0.00000000E+00
  0.00000000E+00  0.00000000E+00  0.00000000E+00
  0.00000000E+00  0.00000000E+00  0.00000000E+00
  0.00000000E+00  0.00000000E+00  0.00000000E+00
  0.00000000E+00  0.00000000E+00  0.00000000E+00
  0.00000000E+00  0.00000000E+00  0.00000000E+00
  0.00000000E+00  0.00000000E+00  0.00000000E+00
  0.00000000E+00  0.00000000E+00  0.00000000E+00
  0.00000000E+00  0.00000000E+00  0.00000000E+00
  0.00000000E+00  0.00000000E+00  0.00000000E+00
  0.00000000E+00  0.00000000E+00  0.00000000E+00
  0.00000000E+00  0.00000000E+00  0.00000000E+00
  0.00000000E+00  0.00000000E+00  0.00000000E+00
