H2 Ir48 C6 F4                           
    1.000000000000000     
    10.9622130000000002    0.0000000000000000    0.0000000000000000
    -5.4811069999999997    9.4935550000000006    0.0000000000000000
     0.0000000000000000    0.0000000000000000   16.6996110000000009
   H    Ir   C    F 
     2    48     6     4
Selective dynamics
Direct
  0.2496622764233010  0.5018167311256363  0.7898871577604467   T   T   T
  0.5009809270579453  0.2498465268427381  0.7915041303338270   T   T   T
  0.0833330000000032  0.1666669999999968  0.3592900000000014   F   F   F
  0.0833330000000032  0.4166669999999968  0.3592900000000014   F   F   F
  0.0833330000000032  0.6666669999999968  0.3592900000000014   F   F   F
  0.0833330000000032  0.9166669999999968  0.3592900000000014   F   F   F
  0.3333330000000032  0.1666669999999968  0.3592900000000014   F   F   F
  0.3333330000000032  0.4166669999999968  0.3592900000000014   F   F   F
  0.3333330000000032  0.6666669999999968  0.3592900000000014   F   F   F
  0.3333330000000032  0.9166669999999968  0.3592900000000014   F   F   F
  0.5833330000000032  0.1666669999999968  0.3592900000000014   F   F   F
  0.5833330000000032  0.4166669999999968  0.3592900000000014   F   F   F
  0.5833330000000032  0.6666669999999968  0.3592900000000014   F   F   F
  0.5833330000000032  0.9166669999999968  0.3592900000000014   F   F   F
  0.8333330000000032  0.1666669999999968  0.3592900000000014   F   F   F
  0.8333330000000032  0.4166669999999968  0.3592900000000014   F   F   F
  0.8333330000000032  0.6666669999999968  0.3592900000000014   F   F   F
  0.8333330000000032  0.9166669999999968  0.3592900000000014   F   F   F
  0.9965216321480028  0.9961793317118719  0.6176367316192284   T   T   T
  0.9937759426357573  0.2479207850199856  0.6177239253100453   T   T   T
  0.0002829717154214  0.4994495258190099  0.6185348203850012   T   T   T
  0.0009932968646424  0.7490064990472476  0.6177511546559842   T   T   T
  0.2478592537263538  0.9933322053196960  0.6176452120969174   T   T   T
  0.2425791928757945  0.2413265892022096  0.6295842517301651   T   T   T
  0.2514206907149159  0.4987263785113711  0.6252548576834869   T   T   T
  0.2505168862320488  0.7497343871638833  0.6185190769624498   T   T   T
  0.5006310234514970  0.0006199008830450  0.6186286170620150   T   T   T
  0.4993791679120250  0.2506906966068101  0.6261765502037093   T   T   T
  0.5088679790272224  0.5075611468949859  0.6293837437967937   T   T   T
  0.5020340214937349  0.7562443352592751  0.6176727811535230   T   T   T
  0.7501457498754505  0.9998329671552071  0.6179776917697808   T   T   T
  0.7493788968432540  0.2493097020292723  0.6186283241742316   T   T   T
  0.7567528901162177  0.5021415414555861  0.6176075181184615   T   T   T
  0.7539380839365748  0.7535601668855350  0.6175833762686480   T   T   T
  0.1688487507580803  0.0871503785172294  0.4897769073404703   T   T   T
  0.1693675554173169  0.3343357029066567  0.4903755495712048   T   T   T
  0.1691490077059683  0.5808581941210633  0.4903851035799534   T   T   T
  0.1681104306182277  0.8336452151261184  0.4879144970803040   T   T   T
  0.4174582501735813  0.0869595080073893  0.4900632544280441   T   T   T
  0.4157020289693065  0.3342555082988952  0.4910612203869675   T   T   T
  0.4156518474833177  0.5806330710991574  0.4903339464009235   T   T   T
  0.4165258874947639  0.8331875081649898  0.4887838477041768   T   T   T
  0.6661749705611086  0.0838235122314188  0.4886563160738717   T   T   T
  0.6630458203797502  0.3325040061112929  0.4900581699436017   T   T   T
  0.6629659419169442  0.5812126670466071  0.4897310573217695   T   T   T
  0.6659415751990636  0.8320279451988313  0.4883849277323336   T   T   T
  0.9179823829674092  0.0840937743807544  0.4883979040667441   T   T   T
  0.9167916228907771  0.3333964033110917  0.4888032645224243   T   T   T
  0.9163674754988520  0.5819020726363036  0.4879148613715074   T   T   T
  0.9171640266982948  0.8328668604930485  0.4878209078009448   T   T   T
  0.2934060522884963  0.4576549357920783  0.7469519002851328   T   T   T
  0.4489866228249255  0.5246269245527131  0.7504053815224765   T   T   T
  0.5248260513762872  0.4485725488101124  0.7502634302669264   T   T   T
  0.4578607668652879  0.2928819715264694  0.7474766785690861   T   T   T
  0.3021579522022719  0.2260198528083635  0.7504111144435370   T   T   T
  0.2262344204597113  0.3020507250131104  0.7505880597771650   T   T   T
  0.5155582914511569  0.6550577951948853  0.7861216244960758   T   T   T
  0.6551961427238666  0.5153300659223916  0.7863860854147475   T   T   T
  0.2355838005301791  0.0958880435039333  0.7867349215972297   T   T   T
  0.0960745508606706  0.2359079973943139  0.7865259083506970   T   T   T
 
  0.00000000E+00  0.00000000E+00  0.00000000E+00
  0.00000000E+00  0.00000000E+00  0.00000000E+00
  0.00000000E+00  0.00000000E+00  0.00000000E+00
  0.00000000E+00  0.00000000E+00  0.00000000E+00
  0.00000000E+00  0.00000000E+00  0.00000000E+00
  0.00000000E+00  0.00000000E+00  0.00000000E+00
  0.00000000E+00  0.00000000E+00  0.00000000E+00
  0.00000000E+00  0.00000000E+00  0.00000000E+00
  0.00000000E+00  0.00000000E+00  0.00000000E+00
  0.00000000E+00  0.00000000E+00  0.00000000E+00
  0.00000000E+00  0.00000000E+00  0.00000000E+00
  0.00000000E+00  0.00000000E+00  0.00000000E+00
  0.00000000E+00  0.00000000E+00  0.00000000E+00
  0.00000000E+00  0.00000000E+00  0.00000000E+00
  0.00000000E+00  0.00000000E+00  0.00000000E+00
  0.00000000E+00  0.00000000E+00  0.00000000E+00
  0.00000000E+00  0.00000000E+00  0.00000000E+00
  0.00000000E+00  0.00000000E+00  0.00000000E+00
  0.00000000E+00  0.00000000E+00  0.00000000E+00
  0.00000000E+00  0.00000000E+00  0.00000000E+00
  0.00000000E+00  0.00000000E+00  0.00000000E+00
  0.00000000E+00  0.00000000E+00  0.00000000E+00
  0.00000000E+00  0.00000000E+00  0.00000000E+00
  0.00000000E+00  0.00000000E+00  0.00000000E+00
  0.00000000E+00  0.00000000E+00  0.00000000E+00
  0.00000000E+00  0.00000000E+00  0.00000000E+00
  0.00000000E+00  0.00000000E+00  0.00000000E+00
  0.00000000E+00  0.00000000E+00  0.00000000E+00
  0.00000000E+00  0.00000000E+00  0.00000000E+00
  0.00000000E+00  0.00000000E+00  0.00000000E+00
  0.00000000E+00  0.00000000E+00  0.00000000E+00
  0.00000000E+00  0.00000000E+00  0.00000000E+00
  0.00000000E+00  0.00000000E+00  0.00000000E+00
  0.00000000E+00  0.00000000E+00  0.00000000E+00
  0.00000000E+00  0.00000000E+00  0.00000000E+00
  0.00000000E+00  0.00000000E+00  0.00000000E+00
  0.00000000E+00  0.00000000E+00  0.00000000E+00
  0.00000000E+00  0.00000000E+00  0.00000000E+00
  0.00000000E+00  0.00000000E+00  0.00000000E+00
  0.00000000E+00  0.00000000E+00  0.00000000E+00
  0.00000000E+00  0.00000000E+00  0.00000000E+00
  0.00000000E+00  0.00000000E+00  0.00000000E+00
  0.00000000E+00  0.00000000E+00  0.00000000E+00
  0.00000000E+00  0.00000000E+00  0.00000000E+00
  0.00000000E+00  0.00000000E+00  0.00000000E+00
  0.00000000E+00  0.00000000E+00  0.00000000E+00
  0.00000000E+00  0.00000000E+00  0.00000000E+00
  0.00000000E+00  0.00000000E+00  0.00000000E+00
  0.00000000E+00  0.00000000E+00  0.00000000E+00
  0.00000000E+00  0.00000000E+00  0.00000000E+00
  0.00000000E+00  0.00000000E+00  0.00000000E+00
  0.00000000E+00  0.00000000E+00  0.00000000E+00
  0.00000000E+00  0.00000000E+00  0.00000000E+00
  0.00000000E+00  0.00000000E+00  0.00000000E+00
  0.00000000E+00  0.00000000E+00  0.00000000E+00
  0.00000000E+00  0.00000000E+00  0.00000000E+00
  0.00000000E+00  0.00000000E+00  0.00000000E+00
  0.00000000E+00  0.00000000E+00  0.00000000E+00
  0.00000000E+00  0.00000000E+00  0.00000000E+00
  0.00000000E+00  0.00000000E+00  0.00000000E+00
