Ir48 C6 Br2 H4                          
    1.000000000000000     
    10.9622135000000007    0.0000000000000000    0.0000000000000000
     0.0000000000000000   15.5029109999999992    0.0000000000000000
     0.0000000000000000    0.0000000000000000   15.5445144099999997
   Ir   C    Br   H 
    48     6     2     4
Selective dynamics
Direct
  0.2503693886778251  0.0003097449307035  0.3945191825276595   T   T   T
  0.2483448894473383  0.2489022380225876  0.3928832679464449   T   T   T
  0.2480484856237339  0.5001604113113558  0.3944886373207268   T   T   T
  0.2525893284350644  0.7475173752484139  0.4022449884479187   T   T   T
  0.4999971509939556  0.9999963826388480  0.4106775965895153   T   T   T
  0.4978899765970937  0.2519756335548351  0.4092673527484081   T   T   T
  0.5000057736651939  0.4999894198640362  0.3939359855419511   T   T   T
  0.5021122007875221  0.7480226564177883  0.4092885807559057   T   T   T
  0.7496205000747125  0.9996874408655998  0.3945225153741276   T   T   T
  0.7473978465396272  0.2524651986240016  0.4022360791394561   T   T   T
  0.7519489620187798  0.4998399059176819  0.3944822470571978   T   T   T
  0.7516878918483485  0.7510698432290894  0.3929088188920034   T   T   T
  0.0000100558487119  0.9999828661664196  0.4065825259957805   T   T   T
  0.9980515537514378  0.2485762803544276  0.4119454837195420   T   T   T
  0.0000096403956391  0.5000069707584203  0.4113516419893486   T   T   T
  0.0019458060252333  0.7514047342107304  0.4119542056265928   T   T   T
  0.1226926041094742  0.1243771493869872  0.4877543895344445   T   T   T
  0.1208889837695111  0.3738720889262055  0.4841535977834610   T   T   T
  0.1246293949277444  0.6246540595822836  0.4853347118192914   T   T   T
  0.1300675984127935  0.8758968178976971  0.4845329071309905   T   T   T
  0.3771925985004216  0.1260676424539611  0.4874453861638557   T   T   T
  0.3598914792589269  0.3773887433002301  0.4890328163454427   T   T   T
  0.3765242401554545  0.6151406518314815  0.4917809564702296   T   T   T
  0.3726060607748778  0.8744481371771613  0.4838895742026281   T   T   T
  0.6274030431642643  0.1255501398335142  0.4838816792227476   T   T   T
  0.6234788254587258  0.3848452398043918  0.4917756864782845   T   T   T
  0.6401449644230226  0.6226108647415174  0.4890329848172641   T   T   T
  0.6228126660737914  0.8739452154806884  0.4874605061856201   T   T   T
  0.8699017724724030  0.1241086922933192  0.4845634722075332   T   T   T
  0.8753513984321515  0.3753352875799649  0.4853669127872564   T   T   T
  0.8791333136553661  0.6261143928244621  0.4841152595364804   T   T   T
  0.8773166292795196  0.8756410326474580  0.4877488912143164   T   T   T
  0.1249999993158326  0.1249999996774775  0.3216568795988550   F   F   F
  0.1249999993158326  0.3749999996774775  0.3216568795988550   F   F   F
  0.1250000002280558  0.6249999990324397  0.3216568795988550   F   F   F
  0.1250000002280558  0.8749999983874019  0.3216568795988550   F   F   F
  0.3749999988597210  0.1249999996774775  0.3216568795988550   F   F   F
  0.3749999997719442  0.3749999996774775  0.3216568795988550   F   F   F
  0.3749999997719442  0.6249999990324397  0.3216568795988550   F   F   F
  0.3749999997719442  0.8749999983874019  0.3216568795988550   F   F   F
  0.6249999993158326  0.1249999996774775  0.3216568795988550   F   F   F
  0.6249999984036094  0.3749999996774775  0.3216568795988550   F   F   F
  0.6249999993158326  0.6249999990324397  0.3216568795988550   F   F   F
  0.6249999993158326  0.8749999983874019  0.3216568795988550   F   F   F
  0.8749999979474978  0.1249999996774775  0.3216568795988550   F   F   F
  0.8749999988597210  0.3749999996774775  0.3216568795988550   F   F   F
  0.8749999988597210  0.6249999990324397  0.3216568795988550   F   F   F
  0.8749999988597210  0.8749999983874019  0.3216568795988550   F   F   F
  0.5904645125628036  0.5625431873775071  0.5903549416575373   T   T   T
  0.6282255383644753  0.4732471133070035  0.6082311931491020   T   T   T
  0.5334336077628379  0.4097957558961269  0.6150969486068476   T   T   T
  0.4095901951794829  0.4374322473915271  0.5903550960622539   T   T   T
  0.3718547210857253  0.5266840547395262  0.6082226974080740   T   T   T
  0.4666790518140971  0.5901640191760720  0.6150503623253840   T   T   T
  0.7495318698360833  0.8731904939017667  0.6208123910238612   T   T   T
  0.2504761996597793  0.1268719854353009  0.6208072103198958   T   T   T
  0.7183371847094406  0.4632221386119824  0.6366066640342964   T   T   T
  0.5435672216558771  0.3510742749422420  0.6534041229674799   T   T   T
  0.2817298354020110  0.5367187689559145  0.6365880137051292   T   T   T
  0.4564909688885521  0.6489013221713265  0.6533686660881486   T   T   T
 
  0.00000000E+00  0.00000000E+00  0.00000000E+00
  0.00000000E+00  0.00000000E+00  0.00000000E+00
  0.00000000E+00  0.00000000E+00  0.00000000E+00
  0.00000000E+00  0.00000000E+00  0.00000000E+00
  0.00000000E+00  0.00000000E+00  0.00000000E+00
  0.00000000E+00  0.00000000E+00  0.00000000E+00
  0.00000000E+00  0.00000000E+00  0.00000000E+00
  0.00000000E+00  0.00000000E+00  0.00000000E+00
  0.00000000E+00  0.00000000E+00  0.00000000E+00
  0.00000000E+00  0.00000000E+00  0.00000000E+00
  0.00000000E+00  0.00000000E+00  0.00000000E+00
  0.00000000E+00  0.00000000E+00  0.00000000E+00
  0.00000000E+00  0.00000000E+00  0.00000000E+00
  0.00000000E+00  0.00000000E+00  0.00000000E+00
  0.00000000E+00  0.00000000E+00  0.00000000E+00
  0.00000000E+00  0.00000000E+00  0.00000000E+00
  0.00000000E+00  0.00000000E+00  0.00000000E+00
  0.00000000E+00  0.00000000E+00  0.00000000E+00
  0.00000000E+00  0.00000000E+00  0.00000000E+00
  0.00000000E+00  0.00000000E+00  0.00000000E+00
  0.00000000E+00  0.00000000E+00  0.00000000E+00
  0.00000000E+00  0.00000000E+00  0.00000000E+00
  0.00000000E+00  0.00000000E+00  0.00000000E+00
  0.00000000E+00  0.00000000E+00  0.00000000E+00
  0.00000000E+00  0.00000000E+00  0.00000000E+00
  0.00000000E+00  0.00000000E+00  0.00000000E+00
  0.00000000E+00  0.00000000E+00  0.00000000E+00
  0.00000000E+00  0.00000000E+00  0.00000000E+00
  0.00000000E+00  0.00000000E+00  0.00000000E+00
  0.00000000E+00  0.00000000E+00  0.00000000E+00
  0.00000000E+00  0.00000000E+00  0.00000000E+00
  0.00000000E+00  0.00000000E+00  0.00000000E+00
  0.00000000E+00  0.00000000E+00  0.00000000E+00
  0.00000000E+00  0.00000000E+00  0.00000000E+00
  0.00000000E+00  0.00000000E+00  0.00000000E+00
  0.00000000E+00  0.00000000E+00  0.00000000E+00
  0.00000000E+00  0.00000000E+00  0.00000000E+00
  0.00000000E+00  0.00000000E+00  0.00000000E+00
  0.00000000E+00  0.00000000E+00  0.00000000E+00
  0.00000000E+00  0.00000000E+00  0.00000000E+00
  0.00000000E+00  0.00000000E+00  0.00000000E+00
  0.00000000E+00  0.00000000E+00  0.00000000E+00
  0.00000000E+00  0.00000000E+00  0.00000000E+00
  0.00000000E+00  0.00000000E+00  0.00000000E+00
  0.00000000E+00  0.00000000E+00  0.00000000E+00
  0.00000000E+00  0.00000000E+00  0.00000000E+00
  0.00000000E+00  0.00000000E+00  0.00000000E+00
  0.00000000E+00  0.00000000E+00  0.00000000E+00
  0.00000000E+00  0.00000000E+00  0.00000000E+00
  0.00000000E+00  0.00000000E+00  0.00000000E+00
  0.00000000E+00  0.00000000E+00  0.00000000E+00
  0.00000000E+00  0.00000000E+00  0.00000000E+00
  0.00000000E+00  0.00000000E+00  0.00000000E+00
  0.00000000E+00  0.00000000E+00  0.00000000E+00
  0.00000000E+00  0.00000000E+00  0.00000000E+00
  0.00000000E+00  0.00000000E+00  0.00000000E+00
  0.00000000E+00  0.00000000E+00  0.00000000E+00
  0.00000000E+00  0.00000000E+00  0.00000000E+00
  0.00000000E+00  0.00000000E+00  0.00000000E+00
  0.00000000E+00  0.00000000E+00  0.00000000E+00
