Cu48 C6 Br6                             
    1.000000000000000     
    10.2424774999999997    0.0000000000000000    0.0000000000000000
     0.0000000000000000   14.4850505999999992    0.0000000000000000
     0.0000000000000000    0.0000000000000000   15.4658551800000001
   Cu   C    Br
    48     6     6
Selective dynamics
Direct
  0.2498013084233932  0.2501250606140317  0.4024194284122302   T   T   T
  0.2497654281418917  0.5000473077869145  0.4024684039163944   T   T   T
  0.2498158515644562  0.7497796884528825  0.4025609231484353   T   T   T
  0.2499865742242307  0.9999856762122121  0.4027913172409754   T   T   T
  0.4999904646180298  0.2498350244225733  0.4021906388597429   T   T   T
  0.5000019231033335  0.5000004362419190  0.4027484719520160   T   T   T
  0.5000114580580117  0.7501610115344093  0.4021945470326287   T   T   T
  0.4999995054570121  0.0000036187830403  0.4028144739789852   T   T   T
  0.7501867752818541  0.2502197561794617  0.4025573263315749   T   T   T
  0.7502334196843989  0.4999497330106024  0.4024683080765996   T   T   T
  0.7501944735867241  0.7498713132899013  0.4024245755608717   T   T   T
  0.7500132982663388  0.0000218166896531  0.4027927056850231   T   T   T
  0.9999236598754564  0.2504613525515893  0.4031195921558179   T   T   T
  0.9999994798274088  0.4999964896284013  0.4027958225268904   T   T   T
  0.0000762121890148  0.7495386155807466  0.4031245066000864   T   T   T
  0.0000005790318696  0.0000038445510882  0.4027603274493430   T   T   T
  0.1250206534101324  0.1251980960924186  0.4822418479430439   T   T   T
  0.1249964612682817  0.3753061143847916  0.4830965713523199   T   T   T
  0.1250303834828301  0.6245554318116646  0.4833543488137835   T   T   T
  0.1250830395467801  0.8747947395997144  0.4823020647687599   T   T   T
  0.3749865320484673  0.1252085610236975  0.4823322705434236   T   T   T
  0.3749661985016104  0.3750800038039657  0.4818452045921973   T   T   T
  0.3751269602708405  0.6249524125585140  0.4819574588388775   T   T   T
  0.3750272390259184  0.8747999136165063  0.4823723372697870   T   T   T
  0.6249733002688060  0.1252020091193202  0.4823693194919088   T   T   T
  0.6248725918738103  0.3750457447468634  0.4819576956980143   T   T   T
  0.6250334150445269  0.6249171275045526  0.4818428999249349   T   T   T
  0.6250129480326834  0.8747942617619131  0.4823350730397280   T   T   T
  0.8749175901820649  0.1252075665331702  0.4822988720054582   T   T   T
  0.8749706036173990  0.3754429746434340  0.4833519225870546   T   T   T
  0.8750044398884711  0.6246912854945137  0.4830992363657032   T   T   T
  0.8749786266476534  0.8748047590441246  0.4822460567768019   T   T   T
  0.1250000002440785  0.1249999996548183  0.3232928242122597   F   F   F
  0.1250000002440785  0.3749999989644479  0.3232928242122597   F   F   F
  0.1250000002440785  0.6249999982740846  0.3232928242122597   F   F   F
  0.1250000002440785  0.8749999975837142  0.3232928242122597   F   F   F
  0.3749999997559215  0.1249999996548183  0.3232928242122597   F   F   F
  0.3749999997559215  0.3749999989644479  0.3232928242122597   F   F   F
  0.3749999997559215  0.6249999982740846  0.3232928242122597   F   F   F
  0.3749999997559215  0.8749999975837142  0.3232928242122597   F   F   F
  0.6249999982914289  0.1249999996548183  0.3232928242122597   F   F   F
  0.6249999992677573  0.3749999989644479  0.3232928242122597   F   F   F
  0.6249999992677573  0.6249999982740846  0.3232928242122597   F   F   F
  0.6249999992677573  0.8749999975837142  0.3232928242122597   F   F   F
  0.8749999987795931  0.1249999996548183  0.3232928242122597   F   F   F
  0.8749999978032648  0.3749999989644479  0.3232928242122597   F   F   F
  0.8749999987795931  0.6249999982740846  0.3232928242122597   F   F   F
  0.8749999987795931  0.8749999975837142  0.3232928242122597   F   F   F
  0.3633928532008213  0.5091185409695882  0.6774145095884379   T   T   T
  0.4428202732590663  0.5882946137260276  0.6772628819892290   T   T   T
  0.5795957209739981  0.5791091715500372  0.6772524290493465   T   T   T
  0.6366056576343837  0.4908903426281128  0.6774197050817534   T   T   T
  0.5571839829713028  0.4117107198023646  0.6772619062287646   T   T   T
  0.4204030535319490  0.4208962269952963  0.6772553431791337   T   T   T
  0.1801072336221239  0.5223186791143064  0.6746098243351639   T   T   T
  0.3654366317471087  0.7068668174315960  0.6759891660793755   T   T   T
  0.6862303853269225  0.6857420459034103  0.6755256698350252   T   T   T
  0.8198864793192371  0.4776776198049504  0.6746381502169143   T   T   T
  0.6345609812611883  0.2931327600129379  0.6759676018500116   T   T   T
  0.3137729449040663  0.3142554786389553  0.6755465564966059   T   T   T
 
  0.00000000E+00  0.00000000E+00  0.00000000E+00
  0.00000000E+00  0.00000000E+00  0.00000000E+00
  0.00000000E+00  0.00000000E+00  0.00000000E+00
  0.00000000E+00  0.00000000E+00  0.00000000E+00
  0.00000000E+00  0.00000000E+00  0.00000000E+00
  0.00000000E+00  0.00000000E+00  0.00000000E+00
  0.00000000E+00  0.00000000E+00  0.00000000E+00
  0.00000000E+00  0.00000000E+00  0.00000000E+00
  0.00000000E+00  0.00000000E+00  0.00000000E+00
  0.00000000E+00  0.00000000E+00  0.00000000E+00
  0.00000000E+00  0.00000000E+00  0.00000000E+00
  0.00000000E+00  0.00000000E+00  0.00000000E+00
  0.00000000E+00  0.00000000E+00  0.00000000E+00
  0.00000000E+00  0.00000000E+00  0.00000000E+00
  0.00000000E+00  0.00000000E+00  0.00000000E+00
  0.00000000E+00  0.00000000E+00  0.00000000E+00
  0.00000000E+00  0.00000000E+00  0.00000000E+00
  0.00000000E+00  0.00000000E+00  0.00000000E+00
  0.00000000E+00  0.00000000E+00  0.00000000E+00
  0.00000000E+00  0.00000000E+00  0.00000000E+00
  0.00000000E+00  0.00000000E+00  0.00000000E+00
  0.00000000E+00  0.00000000E+00  0.00000000E+00
  0.00000000E+00  0.00000000E+00  0.00000000E+00
  0.00000000E+00  0.00000000E+00  0.00000000E+00
  0.00000000E+00  0.00000000E+00  0.00000000E+00
  0.00000000E+00  0.00000000E+00  0.00000000E+00
  0.00000000E+00  0.00000000E+00  0.00000000E+00
  0.00000000E+00  0.00000000E+00  0.00000000E+00
  0.00000000E+00  0.00000000E+00  0.00000000E+00
  0.00000000E+00  0.00000000E+00  0.00000000E+00
  0.00000000E+00  0.00000000E+00  0.00000000E+00
  0.00000000E+00  0.00000000E+00  0.00000000E+00
  0.00000000E+00  0.00000000E+00  0.00000000E+00
  0.00000000E+00  0.00000000E+00  0.00000000E+00
  0.00000000E+00  0.00000000E+00  0.00000000E+00
  0.00000000E+00  0.00000000E+00  0.00000000E+00
  0.00000000E+00  0.00000000E+00  0.00000000E+00
  0.00000000E+00  0.00000000E+00  0.00000000E+00
  0.00000000E+00  0.00000000E+00  0.00000000E+00
  0.00000000E+00  0.00000000E+00  0.00000000E+00
  0.00000000E+00  0.00000000E+00  0.00000000E+00
  0.00000000E+00  0.00000000E+00  0.00000000E+00
  0.00000000E+00  0.00000000E+00  0.00000000E+00
  0.00000000E+00  0.00000000E+00  0.00000000E+00
  0.00000000E+00  0.00000000E+00  0.00000000E+00
  0.00000000E+00  0.00000000E+00  0.00000000E+00
  0.00000000E+00  0.00000000E+00  0.00000000E+00
  0.00000000E+00  0.00000000E+00  0.00000000E+00
  0.00000000E+00  0.00000000E+00  0.00000000E+00
  0.00000000E+00  0.00000000E+00  0.00000000E+00
  0.00000000E+00  0.00000000E+00  0.00000000E+00
  0.00000000E+00  0.00000000E+00  0.00000000E+00
  0.00000000E+00  0.00000000E+00  0.00000000E+00
  0.00000000E+00  0.00000000E+00  0.00000000E+00
  0.00000000E+00  0.00000000E+00  0.00000000E+00
  0.00000000E+00  0.00000000E+00  0.00000000E+00
  0.00000000E+00  0.00000000E+00  0.00000000E+00
  0.00000000E+00  0.00000000E+00  0.00000000E+00
  0.00000000E+00  0.00000000E+00  0.00000000E+00
  0.00000000E+00  0.00000000E+00  0.00000000E+00
