Ir  C  H Cl                             
   1.00000000000000     
    10.9622130000000002    0.0000000000000000    0.0000000000000000
    -5.4811069999999997    9.4935550000000006    0.0000000000000000
     0.0000000000000000    0.0000000000000000   24.7129573799999989
   Ir   C    H    Cl
    64     6     2     4
Selective dynamics
Direct
  0.7500000643925233  0.7500000284403470  0.3034845196661777   F   F   F
  0.0000000000000000  0.0000000000000000  0.3034845196661777   F   F   F
  0.0000000102134052  0.2500000094801180  0.3034845196661777   F   F   F
  0.0000000213390337  0.5000000189602289  0.3034845196661777   F   F   F
  0.0000000753392229  0.7500000284403470  0.3034845196661777   F   F   F
  0.2500000109466924  0.0000000000000000  0.3034845196661777   F   F   F
  0.2500000211600977  0.2500000094801180  0.3034845196661777   F   F   F
  0.2500000322857332  0.5000000189602289  0.3034845196661777   F   F   F
  0.5000000218933920  0.0000000000000000  0.3034845196661777   F   F   F
  0.5000000321067972  0.2500000094801180  0.3034845196661777   F   F   F
  0.5000000432324256  0.5000000189602289  0.3034845196661777   F   F   F
  0.5000000534458309  0.7500000284403470  0.3034845196661777   F   F   F
  0.7500000328400844  0.0000000000000000  0.3034845196661777   F   F   F
  0.7500000430534897  0.2500000094801180  0.3034845196661777   F   F   F
  0.7500000541791181  0.5000000189602289  0.3034845196661777   F   F   F
  0.2500000424991384  0.7500000284403470  0.3034845196661777   F   F   F
  0.0833330000000032  0.1666669999999968  0.3940302372665698   F   F   F
  0.0833330000000032  0.4166669999999968  0.3940302372665698   F   F   F
  0.0833330000000032  0.6666669999999968  0.3940302372665698   F   F   F
  0.0833330000000032  0.9166669999999968  0.3940302372665698   F   F   F
  0.3333330000000032  0.1666669999999968  0.3940302372665698   F   F   F
  0.3333330000000032  0.4166669999999968  0.3940302372665698   F   F   F
  0.3333330000000032  0.6666669999999968  0.3940302372665698   F   F   F
  0.3333330000000032  0.9166669999999968  0.3940302372665698   F   F   F
  0.5833330000000032  0.1666669999999968  0.3940302372665698   F   F   F
  0.5833330000000032  0.4166669999999968  0.3940302372665698   F   F   F
  0.5833330000000032  0.6666669999999968  0.3940302372665698   F   F   F
  0.5833330000000032  0.9166669999999968  0.3940302372665698   F   F   F
  0.8333330000000032  0.1666669999999968  0.3940302372665698   F   F   F
  0.8333330000000032  0.4166669999999968  0.3940302372665698   F   F   F
  0.8333330000000032  0.6666669999999968  0.3940302372665698   F   F   F
  0.8333330000000032  0.9166669999999968  0.3940302372665698   F   F   F
  0.9995002603520352  0.9994235041077731  0.5726231719531684   T   T   T
 -0.0000343221761174  0.2498369849994080  0.5730886782681794   T   T   T
  0.0002808034608440  0.5001746705879999  0.5730550561530053   T   T   T
 -0.0000376173928911  0.7500046188356901  0.5729970565373238   T   T   T
  0.2499076511219289 -0.0000643415404261  0.5731486277381058   T   T   T
  0.2502627456172686  0.2500453644098240  0.5723506856501757   T   T   T
  0.2498733885155066  0.4999768691152852  0.5729959911598232   T   T   T
  0.2499789821690727  0.7499046794970576  0.5730567814814784   T   T   T
  0.5002870049568962  0.0001855941370815  0.5730379009066273   T   T   T
  0.4999772144055080  0.2500696741958230  0.5729830784589328   T   T   T
  0.4995510139504324  0.4993639969977784  0.5722112061397062   T   T   T
  0.5000228282616274  0.7499922309433541  0.5730958017251730   T   T   T
  0.7498908844241641  0.0001344425697533  0.5729519576686142   T   T   T
  0.7499749425626834  0.2498830904790689  0.5730601160102613   T   T   T
  0.7501933469053774  0.5001879021646503  0.5732030000665218   T   T   T
  0.7500827739694409  0.7500587127918199  0.5729387764888030   T   T   T
  0.1665648687888988  0.0831479127377524  0.4832603151904445   T   T   T
  0.1664772800419969  0.3333662451579205  0.4834728778665507   T   T   T
  0.1667842523532016  0.5832802857061800  0.4835659258630573   T   T   T
  0.1668170666315616  0.8333013376912387  0.4836236806343800   T   T   T
  0.4165110369915307  0.0832002543672708  0.4835690197004610   T   T   T
  0.4167292832186819  0.3331753250382987  0.4830547651136625   T   T   T
  0.4166739438565515  0.5835021057082859  0.4833096445693992   T   T   T
  0.4167750134203261  0.8334849247674413  0.4836060021718821   T   T   T
  0.6666284363098797  0.0833533864062238  0.4834419226524105   T   T   T
  0.6668216621539564  0.3336111463256550  0.4837061301489847   T   T   T
  0.6667417265907030  0.5833387432951452  0.4832916573880227   T   T   T
  0.6667835795374419  0.8333338207344219  0.4836614423923494   T   T   T
  0.9166297922596115  0.0832810113827526  0.4833791308632457   T   T   T
  0.9166657426094024  0.3333456048062398  0.4836056739117646   T   T   T
  0.9168489094055052  0.5831807289252893  0.4834360636860519   T   T   T
  0.9167601304262455  0.8331735872344500  0.4833096116397334   T   T   T
  0.2999837417894192  0.4464514699966610  0.7004557229089363   T   T   T
  0.4472097352320398  0.5209468266558943  0.7018888116992499   T   T   T
  0.5213846405122078  0.4467324727393495  0.7020270413101941   T   T   T
  0.4472634423992423  0.2995154820812225  0.7008062511909536   T   T   T
  0.3000291972348823  0.2251020665650898  0.7018126314928729   T   T   T
  0.2257002242845463  0.2992303855398644  0.7016074674758925   T   T   T
  0.2428580471872252  0.5040911474127070  0.6997708362851561   T   T   T
  0.5048088722778068  0.2422686181084804  0.7003178793836150   T   T   T
  0.5335800524569251  0.7015713870385332  0.7042571699512175   T   T   T
  0.7018573005869309  0.5331594679457805  0.7045523392719057   T   T   T
  0.2144669378288247  0.0445224441151335  0.7041828805365321   T   T   T
  0.0450502890895728  0.2131522369113860  0.7036056911188383   T   T   T
 
  0.00000000E+00  0.00000000E+00  0.00000000E+00
  0.00000000E+00  0.00000000E+00  0.00000000E+00
  0.00000000E+00  0.00000000E+00  0.00000000E+00
  0.00000000E+00  0.00000000E+00  0.00000000E+00
  0.00000000E+00  0.00000000E+00  0.00000000E+00
  0.00000000E+00  0.00000000E+00  0.00000000E+00
  0.00000000E+00  0.00000000E+00  0.00000000E+00
  0.00000000E+00  0.00000000E+00  0.00000000E+00
  0.00000000E+00  0.00000000E+00  0.00000000E+00
  0.00000000E+00  0.00000000E+00  0.00000000E+00
  0.00000000E+00  0.00000000E+00  0.00000000E+00
  0.00000000E+00  0.00000000E+00  0.00000000E+00
  0.00000000E+00  0.00000000E+00  0.00000000E+00
  0.00000000E+00  0.00000000E+00  0.00000000E+00
  0.00000000E+00  0.00000000E+00  0.00000000E+00
  0.00000000E+00  0.00000000E+00  0.00000000E+00
  0.00000000E+00  0.00000000E+00  0.00000000E+00
  0.00000000E+00  0.00000000E+00  0.00000000E+00
  0.00000000E+00  0.00000000E+00  0.00000000E+00
  0.00000000E+00  0.00000000E+00  0.00000000E+00
  0.00000000E+00  0.00000000E+00  0.00000000E+00
  0.00000000E+00  0.00000000E+00  0.00000000E+00
  0.00000000E+00  0.00000000E+00  0.00000000E+00
  0.00000000E+00  0.00000000E+00  0.00000000E+00
  0.00000000E+00  0.00000000E+00  0.00000000E+00
  0.00000000E+00  0.00000000E+00  0.00000000E+00
  0.00000000E+00  0.00000000E+00  0.00000000E+00
  0.00000000E+00  0.00000000E+00  0.00000000E+00
  0.00000000E+00  0.00000000E+00  0.00000000E+00
  0.00000000E+00  0.00000000E+00  0.00000000E+00
  0.00000000E+00  0.00000000E+00  0.00000000E+00
  0.00000000E+00  0.00000000E+00  0.00000000E+00
  0.00000000E+00  0.00000000E+00  0.00000000E+00
  0.00000000E+00  0.00000000E+00  0.00000000E+00
  0.00000000E+00  0.00000000E+00  0.00000000E+00
  0.00000000E+00  0.00000000E+00  0.00000000E+00
  0.00000000E+00  0.00000000E+00  0.00000000E+00
  0.00000000E+00  0.00000000E+00  0.00000000E+00
  0.00000000E+00  0.00000000E+00  0.00000000E+00
  0.00000000E+00  0.00000000E+00  0.00000000E+00
  0.00000000E+00  0.00000000E+00  0.00000000E+00
  0.00000000E+00  0.00000000E+00  0.00000000E+00
  0.00000000E+00  0.00000000E+00  0.00000000E+00
  0.00000000E+00  0.00000000E+00  0.00000000E+00
  0.00000000E+00  0.00000000E+00  0.00000000E+00
  0.00000000E+00  0.00000000E+00  0.00000000E+00
  0.00000000E+00  0.00000000E+00  0.00000000E+00
  0.00000000E+00  0.00000000E+00  0.00000000E+00
  0.00000000E+00  0.00000000E+00  0.00000000E+00
  0.00000000E+00  0.00000000E+00  0.00000000E+00
  0.00000000E+00  0.00000000E+00  0.00000000E+00
  0.00000000E+00  0.00000000E+00  0.00000000E+00
  0.00000000E+00  0.00000000E+00  0.00000000E+00
  0.00000000E+00  0.00000000E+00  0.00000000E+00
  0.00000000E+00  0.00000000E+00  0.00000000E+00
  0.00000000E+00  0.00000000E+00  0.00000000E+00
  0.00000000E+00  0.00000000E+00  0.00000000E+00
  0.00000000E+00  0.00000000E+00  0.00000000E+00
  0.00000000E+00  0.00000000E+00  0.00000000E+00
  0.00000000E+00  0.00000000E+00  0.00000000E+00
  0.00000000E+00  0.00000000E+00  0.00000000E+00
  0.00000000E+00  0.00000000E+00  0.00000000E+00
  0.00000000E+00  0.00000000E+00  0.00000000E+00
  0.00000000E+00  0.00000000E+00  0.00000000E+00
  0.00000000E+00  0.00000000E+00  0.00000000E+00
  0.00000000E+00  0.00000000E+00  0.00000000E+00
  0.00000000E+00  0.00000000E+00  0.00000000E+00
  0.00000000E+00  0.00000000E+00  0.00000000E+00
  0.00000000E+00  0.00000000E+00  0.00000000E+00
  0.00000000E+00  0.00000000E+00  0.00000000E+00
  0.00000000E+00  0.00000000E+00  0.00000000E+00
  0.00000000E+00  0.00000000E+00  0.00000000E+00
  0.00000000E+00  0.00000000E+00  0.00000000E+00
  0.00000000E+00  0.00000000E+00  0.00000000E+00
  0.00000000E+00  0.00000000E+00  0.00000000E+00
  0.00000000E+00  0.00000000E+00  0.00000000E+00
