Au48 C6 H2 Br4                          
    1.000000000000000     
    11.7981856999999994    0.0000000000000000    0.0000000000000000
     0.0000000000000000   11.7981856999999994    0.0000000000000000
     0.0000000000000000    0.0000000000000000   17.1769998000000008
   Au   C    H    Br
    48     6     2     4
Selective dynamics
Direct
  0.2496247584024687  0.0002420244536125  0.4126211426650954   T   T   T
  0.2497151527779309  0.2497148875873805  0.4124881030465133   T   T   T
  0.2488840326047139  0.4997406866696323  0.4120673630160638   T   T   T
  0.2491411245738107  0.7508568463518728  0.4122144604811169   T   T   T
  0.5000003505728259  0.9999999314118853  0.4127177840726972   T   T   T
  0.4997408869560687  0.2488850188792071  0.4120685675145808   T   T   T
  0.5000005598930173  0.5000001809430898  0.4116616103927626   T   T   T
  0.5002595681038713  0.7511136759068506  0.4120663762150727   T   T   T
  0.7503767581097804  0.9997562847522445  0.4126192236961188   T   T   T
  0.7508599219763141  0.2491422166057760  0.4122137147213678   T   T   T
  0.7511166223222219  0.5002590078621481  0.4120687660290940   T   T   T
  0.7502862294811976  0.7502831477680374  0.4124871995206121   T   T   T
  0.0000012991372813  0.9999984512940898  0.4127237575307845   T   T   T
  0.0002435421017992  0.2496252724460462  0.4126203408524631   T   T   T
  0.0000007542709923  0.4999990757153725  0.4127189782754996   T   T   T
  0.9997589854437123  0.7503735529741604  0.4126215149265917   T   T   T
  0.1252179208887725  0.1252202152224200  0.5344651912000842   T   T   T
  0.1252985390520536  0.3747794772107582  0.5341992919175667   T   T   T
  0.1240379460157826  0.6254710569590287  0.5337856112477226   T   T   T
  0.1245985632869733  0.8754011819194290  0.5344363083292478   T   T   T
  0.3747810910315721  0.1253011360563505  0.5342001708342750   T   T   T
  0.3748385936889704  0.3748388237656570  0.5329145590649986   T   T   T
  0.3746983177357137  0.6252967181958411  0.5300011854576638   T   T   T
  0.3745243381818497  0.8759633241206899  0.5337794554985393   T   T   T
  0.6254786965315802  0.1240361992221750  0.5337838699663351   T   T   T
  0.6253026948197160  0.3747009861250916  0.5300021926042575   T   T   T
  0.6251610707505648  0.6251592593075159  0.5329132416080853   T   T   T
  0.6252209668388389  0.8746998168705602  0.5341958992627198   T   T   T
  0.8754034502376413  0.1245982732199806  0.5344354288647963   T   T   T
  0.8759643522136074  0.3745237309138858  0.5337919132658229   T   T   T
  0.8747018272845182  0.6252157225840875  0.5342034391102715   T   T   T
  0.8747842978914804  0.8747791207122475  0.5344647464466590   T   T   T
  0.1249999997881019  0.1250000006356942  0.2910869219431476   F   F   F
  0.1250000006356942  0.3750000010594832  0.2910869219431476   F   F   F
  0.1250000006356942  0.6250000006356942  0.2910869219431476   F   F   F
  0.1250000006356942  0.8750000019070754  0.2910869219431476   F   F   F
  0.3750000010594832  0.1250000006356942  0.2910869219431476   F   F   F
  0.3750000010594832  0.3750000010594832  0.2910869219431476   F   F   F
  0.3750000010594832  0.6250000006356942  0.2910869219431476   F   F   F
  0.3750000010594832  0.8750000019070754  0.2910869219431476   F   F   F
  0.6250000006356942  0.1250000006356942  0.2910869219431476   F   F   F
  0.6250000014832793  0.3750000010594832  0.2910869219431476   F   F   F
  0.6250000014832793  0.6250000006356942  0.2910869219431476   F   F   F
  0.6250000014832793  0.8750000019070754  0.2910869219431476   F   F   F
  0.8750000019070754  0.1250000006356942  0.2910869219431476   F   F   F
  0.8750000019070754  0.3750000010594832  0.2910869219431476   F   F   F
  0.8750000019070754  0.6250000006356942  0.2910869219431476   F   F   F
  0.8750000019070754  0.8750000019070754  0.2910869219431476   F   F   F
  0.4164449522250990  0.4164666292067096  0.7144897871169320   T   T   T
  0.3851443969871440  0.5307898601485803  0.7163458629846744   T   T   T
  0.4691975855417994  0.6148273149526915  0.7163478875793956   T   T   T
  0.5835324399810133  0.5835646290022964  0.7144817523824614   T   T   T
  0.6148146882548744  0.4692400946676969  0.7163614320293874   T   T   T
  0.5307879078622619  0.3851850693956891  0.7163511092196799   T   T   T
  0.3511804275659003  0.3511741393342263  0.7140161259234361   T   T   T
  0.6488148105969813  0.6488257268188775  0.7140129658587711   T   T   T
  0.2288905882118968  0.5658757223820956  0.7198594848845090   T   T   T
  0.4340993896780745  0.7711173506374820  0.7198158756100526   T   T   T
  0.7711434518186095  0.4341259956495875  0.7198865608393632   T   T   T
  0.5658976245503879  0.2288637134668932  0.7198314630447200   T   T   T
 
  0.00000000E+00  0.00000000E+00  0.00000000E+00
  0.00000000E+00  0.00000000E+00  0.00000000E+00
  0.00000000E+00  0.00000000E+00  0.00000000E+00
  0.00000000E+00  0.00000000E+00  0.00000000E+00
  0.00000000E+00  0.00000000E+00  0.00000000E+00
  0.00000000E+00  0.00000000E+00  0.00000000E+00
  0.00000000E+00  0.00000000E+00  0.00000000E+00
  0.00000000E+00  0.00000000E+00  0.00000000E+00
  0.00000000E+00  0.00000000E+00  0.00000000E+00
  0.00000000E+00  0.00000000E+00  0.00000000E+00
  0.00000000E+00  0.00000000E+00  0.00000000E+00
  0.00000000E+00  0.00000000E+00  0.00000000E+00
  0.00000000E+00  0.00000000E+00  0.00000000E+00
  0.00000000E+00  0.00000000E+00  0.00000000E+00
  0.00000000E+00  0.00000000E+00  0.00000000E+00
  0.00000000E+00  0.00000000E+00  0.00000000E+00
  0.00000000E+00  0.00000000E+00  0.00000000E+00
  0.00000000E+00  0.00000000E+00  0.00000000E+00
  0.00000000E+00  0.00000000E+00  0.00000000E+00
  0.00000000E+00  0.00000000E+00  0.00000000E+00
  0.00000000E+00  0.00000000E+00  0.00000000E+00
  0.00000000E+00  0.00000000E+00  0.00000000E+00
  0.00000000E+00  0.00000000E+00  0.00000000E+00
  0.00000000E+00  0.00000000E+00  0.00000000E+00
  0.00000000E+00  0.00000000E+00  0.00000000E+00
  0.00000000E+00  0.00000000E+00  0.00000000E+00
  0.00000000E+00  0.00000000E+00  0.00000000E+00
  0.00000000E+00  0.00000000E+00  0.00000000E+00
  0.00000000E+00  0.00000000E+00  0.00000000E+00
  0.00000000E+00  0.00000000E+00  0.00000000E+00
  0.00000000E+00  0.00000000E+00  0.00000000E+00
  0.00000000E+00  0.00000000E+00  0.00000000E+00
  0.00000000E+00  0.00000000E+00  0.00000000E+00
  0.00000000E+00  0.00000000E+00  0.00000000E+00
  0.00000000E+00  0.00000000E+00  0.00000000E+00
  0.00000000E+00  0.00000000E+00  0.00000000E+00
  0.00000000E+00  0.00000000E+00  0.00000000E+00
  0.00000000E+00  0.00000000E+00  0.00000000E+00
  0.00000000E+00  0.00000000E+00  0.00000000E+00
  0.00000000E+00  0.00000000E+00  0.00000000E+00
  0.00000000E+00  0.00000000E+00  0.00000000E+00
  0.00000000E+00  0.00000000E+00  0.00000000E+00
  0.00000000E+00  0.00000000E+00  0.00000000E+00
  0.00000000E+00  0.00000000E+00  0.00000000E+00
  0.00000000E+00  0.00000000E+00  0.00000000E+00
  0.00000000E+00  0.00000000E+00  0.00000000E+00
  0.00000000E+00  0.00000000E+00  0.00000000E+00
  0.00000000E+00  0.00000000E+00  0.00000000E+00
  0.00000000E+00  0.00000000E+00  0.00000000E+00
  0.00000000E+00  0.00000000E+00  0.00000000E+00
  0.00000000E+00  0.00000000E+00  0.00000000E+00
  0.00000000E+00  0.00000000E+00  0.00000000E+00
  0.00000000E+00  0.00000000E+00  0.00000000E+00
  0.00000000E+00  0.00000000E+00  0.00000000E+00
  0.00000000E+00  0.00000000E+00  0.00000000E+00
  0.00000000E+00  0.00000000E+00  0.00000000E+00
  0.00000000E+00  0.00000000E+00  0.00000000E+00
  0.00000000E+00  0.00000000E+00  0.00000000E+00
  0.00000000E+00  0.00000000E+00  0.00000000E+00
  0.00000000E+00  0.00000000E+00  0.00000000E+00
