Rh  C  N  F                             
    1.000000000000000     
    10.8856652999999994    0.0000000000000000    0.0000000000000000
     0.0000000000000000   10.8856652999999994    0.0000000000000000
     0.0000000000000000    0.0000000000000000   23.7729958199999984
   Rh   C    N    F 
    64     4     2     4
Selective dynamics
Direct
  0.0000000000000000  0.0000000000000000  0.3154840078544225   F   F   F
  0.7500000013779555  0.5000000009186394  0.3154840078544225   F   F   F
  0.0000000018372788  0.2500000004593161  0.3154840078544225   F   F   F
  0.0000000018372788  0.5000000009186394  0.3154840078544225   F   F   F
  0.0000000000000000  0.7500000013779555  0.3154840078544225   F   F   F
  0.2500000004593161  0.0000000000000000  0.3154840078544225   F   F   F
  0.2500000004593161  0.2500000004593161  0.3154840078544225   F   F   F
  0.7500000013779555  0.7500000013779555  0.3154840078544225   F   F   F
  0.2500000004593161  0.5000000009186394  0.3154840078544225   F   F   F
  0.2500000004593161  0.7500000013779555  0.3154840078544225   F   F   F
  0.5000000009186394  0.0000000000000000  0.3154840078544225   F   F   F
  0.5000000009186394  0.2500000004593161  0.3154840078544225   F   F   F
  0.5000000009186394  0.5000000009186394  0.3154840078544225   F   F   F
  0.5000000009186394  0.7500000013779555  0.3154840078544225   F   F   F
  0.7500000013779555  0.0000000000000000  0.3154840078544225   F   F   F
  0.7500000013779555  0.2500000004593161  0.3154840078544225   F   F   F
  0.0000151554955813  0.0000016793340031  0.4736583687536849   T   T   T
  0.9990244571594007  0.2496812261897187  0.4735517900492487   T   T   T
 -0.0000033738966937  0.4999972430387916  0.4733026703940096   T   T   T
  0.0009806501454923  0.7503090321430006  0.4735505669193399   T   T   T
  0.2496964639122125  0.9990205269961588  0.4735510805755596   T   T   T
  0.2499817342947039  0.2499858091882264  0.4736360626701822   T   T   T
  0.2500522053731644  0.4996666557258432  0.4737315256482158   T   T   T
  0.2522860796223936  0.7477004938822371  0.4741751899275015   T   T   T
  0.4999837628740085 -0.0000041934122497  0.4732994949387555   T   T   T
  0.4996665916568240  0.2500537822072428  0.4737434176318764   T   T   T
  0.4999881762751706  0.4999914808199232  0.4741079234981073   T   T   T
  0.5003442310891529  0.7499558562437749  0.4737280728875505   T   T   T
  0.7503018074267813  0.0009785963495523  0.4735508014504132   T   T   T
  0.7476963521435883  0.2522910231704371  0.4741663115326250   T   T   T
  0.7499311739121459  0.5003325526959269  0.4737294128901422   T   T   T
  0.7499959302923904  0.7500115248364130  0.4736446905080546   T   T   T
  0.1248197235302839  0.1248185380909647  0.5487920564428934   T   T   T
  0.1226900756172715  0.3741415088544319  0.5484237667162685   T   T   T
  0.1244525636069237  0.6248013989594022  0.5490641272179504   T   T   T
  0.1257010499316701  0.8743083539740033  0.5488895750831305   T   T   T
  0.3741198229675710  0.1226785483381676  0.5484292946777778   T   T   T
  0.3710958031238608  0.3711088215953203  0.5498712268676705   T   T   T
  0.3761083025493000  0.6238969113228762  0.5543086424395828   T   T   T
  0.3751931836222550  0.8755337494699474  0.5490765699846377   T   T   T
  0.6248000853135545  0.1244578129292669  0.5490713018473278   T   T   T
  0.6238838329364940  0.3761472731798916  0.5543047333510881   T   T   T
  0.6288935669921036  0.6288909623575444  0.5498617446926207   T   T   T
  0.6258400560225883  0.8773168169162784  0.5484221866431191   T   T   T
  0.8743028350594854  0.1257065785372461  0.5488787144680299   T   T   T
  0.8755487771292544  0.3751861365217213  0.5490640874524959   T   T   T
  0.8773153206052452  0.6258477069401382  0.5484256478838136   T   T   T
  0.8751833216728504  0.8751878073657900  0.5487927577721218   T   T   T
  0.1249999997703384  0.1249999997703384  0.3964301349042145   F   F   F
  0.1250000006889778  0.3750000002296616  0.3964301349042145   F   F   F
  0.1250000006889778  0.6250000006889778  0.3964301349042145   F   F   F
  0.1250000006889778  0.8750000011483010  0.3964301349042145   F   F   F
  0.3750000011483010  0.1249999997703384  0.3964301349042145   F   F   F
  0.3750000011483010  0.3750000002296616  0.3964301349042145   F   F   F
  0.3750000011483010  0.6250000006889778  0.3964301349042145   F   F   F
  0.3750000011483010  0.8750000011483010  0.3964301349042145   F   F   F
  0.6250000006889778  0.1249999997703384  0.3964301349042145   F   F   F
  0.6250000006889778  0.3750000002296616  0.3964301349042145   F   F   F
  0.6250000016076172  0.6250000006889778  0.3964301349042145   F   F   F
  0.6250000016076172  0.8750000011483010  0.3964301349042145   F   F   F
  0.8750000011483010  0.1249999997703384  0.3964301349042145   F   F   F
  0.8750000011483010  0.3750000002296616  0.3964301349042145   F   F   F
  0.8750000011483010  0.6250000006889778  0.3964301349042145   F   F   F
  0.8750000020669404  0.8750000011483010  0.3964301349042145   F   F   F
  0.4701168005726184  0.6239156752880357  0.6343839164594770   T   T   T
  0.3760845661607145  0.5299050065868490  0.6343826498725753   T   T   T
  0.5298421971760285  0.3760847234148025  0.6343800748727575   T   T   T
  0.6239392065689862  0.4701192099488696  0.6343840330971984   T   T   T
  0.4065056102259558  0.4064931634157605  0.6330397497275131   T   T   T
  0.5935628725288659  0.5935461786612353  0.6330299672823279   T   T   T
  0.7319136753401160  0.4467440487550478  0.6622236064872510   T   T   T
  0.5532623043035668  0.2681117042936729  0.6622208499078437   T   T   T
  0.4467660466891207  0.7319375538744378  0.6622313526923140   T   T   T
  0.2681066505931738  0.5532837670238463  0.6622402594409358   T   T   T
 
  0.00000000E+00  0.00000000E+00  0.00000000E+00
  0.00000000E+00  0.00000000E+00  0.00000000E+00
  0.00000000E+00  0.00000000E+00  0.00000000E+00
  0.00000000E+00  0.00000000E+00  0.00000000E+00
  0.00000000E+00  0.00000000E+00  0.00000000E+00
  0.00000000E+00  0.00000000E+00  0.00000000E+00
  0.00000000E+00  0.00000000E+00  0.00000000E+00
  0.00000000E+00  0.00000000E+00  0.00000000E+00
  0.00000000E+00  0.00000000E+00  0.00000000E+00
  0.00000000E+00  0.00000000E+00  0.00000000E+00
  0.00000000E+00  0.00000000E+00  0.00000000E+00
  0.00000000E+00  0.00000000E+00  0.00000000E+00
  0.00000000E+00  0.00000000E+00  0.00000000E+00
  0.00000000E+00  0.00000000E+00  0.00000000E+00
  0.00000000E+00  0.00000000E+00  0.00000000E+00
  0.00000000E+00  0.00000000E+00  0.00000000E+00
  0.00000000E+00  0.00000000E+00  0.00000000E+00
  0.00000000E+00  0.00000000E+00  0.00000000E+00
  0.00000000E+00  0.00000000E+00  0.00000000E+00
  0.00000000E+00  0.00000000E+00  0.00000000E+00
  0.00000000E+00  0.00000000E+00  0.00000000E+00
  0.00000000E+00  0.00000000E+00  0.00000000E+00
  0.00000000E+00  0.00000000E+00  0.00000000E+00
  0.00000000E+00  0.00000000E+00  0.00000000E+00
  0.00000000E+00  0.00000000E+00  0.00000000E+00
  0.00000000E+00  0.00000000E+00  0.00000000E+00
  0.00000000E+00  0.00000000E+00  0.00000000E+00
  0.00000000E+00  0.00000000E+00  0.00000000E+00
  0.00000000E+00  0.00000000E+00  0.00000000E+00
  0.00000000E+00  0.00000000E+00  0.00000000E+00
  0.00000000E+00  0.00000000E+00  0.00000000E+00
  0.00000000E+00  0.00000000E+00  0.00000000E+00
  0.00000000E+00  0.00000000E+00  0.00000000E+00
  0.00000000E+00  0.00000000E+00  0.00000000E+00
  0.00000000E+00  0.00000000E+00  0.00000000E+00
  0.00000000E+00  0.00000000E+00  0.00000000E+00
  0.00000000E+00  0.00000000E+00  0.00000000E+00
  0.00000000E+00  0.00000000E+00  0.00000000E+00
  0.00000000E+00  0.00000000E+00  0.00000000E+00
  0.00000000E+00  0.00000000E+00  0.00000000E+00
  0.00000000E+00  0.00000000E+00  0.00000000E+00
  0.00000000E+00  0.00000000E+00  0.00000000E+00
  0.00000000E+00  0.00000000E+00  0.00000000E+00
  0.00000000E+00  0.00000000E+00  0.00000000E+00
  0.00000000E+00  0.00000000E+00  0.00000000E+00
  0.00000000E+00  0.00000000E+00  0.00000000E+00
  0.00000000E+00  0.00000000E+00  0.00000000E+00
  0.00000000E+00  0.00000000E+00  0.00000000E+00
  0.00000000E+00  0.00000000E+00  0.00000000E+00
  0.00000000E+00  0.00000000E+00  0.00000000E+00
  0.00000000E+00  0.00000000E+00  0.00000000E+00
  0.00000000E+00  0.00000000E+00  0.00000000E+00
  0.00000000E+00  0.00000000E+00  0.00000000E+00
  0.00000000E+00  0.00000000E+00  0.00000000E+00
  0.00000000E+00  0.00000000E+00  0.00000000E+00
  0.00000000E+00  0.00000000E+00  0.00000000E+00
  0.00000000E+00  0.00000000E+00  0.00000000E+00
  0.00000000E+00  0.00000000E+00  0.00000000E+00
  0.00000000E+00  0.00000000E+00  0.00000000E+00
  0.00000000E+00  0.00000000E+00  0.00000000E+00
  0.00000000E+00  0.00000000E+00  0.00000000E+00
  0.00000000E+00  0.00000000E+00  0.00000000E+00
  0.00000000E+00  0.00000000E+00  0.00000000E+00
  0.00000000E+00  0.00000000E+00  0.00000000E+00
  0.00000000E+00  0.00000000E+00  0.00000000E+00
  0.00000000E+00  0.00000000E+00  0.00000000E+00
  0.00000000E+00  0.00000000E+00  0.00000000E+00
  0.00000000E+00  0.00000000E+00  0.00000000E+00
  0.00000000E+00  0.00000000E+00  0.00000000E+00
  0.00000000E+00  0.00000000E+00  0.00000000E+00
  0.00000000E+00  0.00000000E+00  0.00000000E+00
  0.00000000E+00  0.00000000E+00  0.00000000E+00
  0.00000000E+00  0.00000000E+00  0.00000000E+00
  0.00000000E+00  0.00000000E+00  0.00000000E+00
