Au48 C6 H2 Br4                          
    1.000000000000000     
    11.7981856999999994    0.0000000000000000    0.0000000000000000
     0.0000000000000000   16.6851543000000007    0.0000000000000000
     0.0000000000000000    0.0000000000000000   15.8950189099999992
   Au   C    H    Br
    48     6     2     4
Selective dynamics
Direct
  0.0000132174565195  0.2501696294028193  0.4055794180253756   T   T   T
  0.0000001893611525  0.4999981553097896  0.4054842143955142   T   T   T
  0.9999844741179160  0.7498324038381199  0.4055788540203267   T   T   T
  0.0000001440045168  0.0000002208534440  0.4054384156465289   T   T   T
  0.2499264744293370  0.2500515621424952  0.4057241324217031   T   T   T
  0.2498996194611678  0.5000755649473732  0.4052148841217615   T   T   T
  0.2495340705997080  0.7502451491153010  0.4049855422326800   T   T   T
  0.2499975204364233  0.0000473255318312  0.4054442843808630   T   T   T
  0.4997051926560871  0.2496930154154953  0.4050857916023958   T   T   T
  0.5000010567595368  0.4999997368183813  0.4059376879917522   T   T   T
  0.5002993162332388  0.7503030086347948  0.4050834163638015   T   T   T
  0.4999977013352179  0.0000070008966517  0.4053750593774339   T   T   T
  0.7504601954063261  0.2497583279864415  0.4049917238039029   T   T   T
  0.7501000742313124  0.4999215084128963  0.4052201388257330   T   T   T
  0.7500781220251369  0.7499441213289728  0.4057276708145068   T   T   T
  0.7500043557563316  0.9999599716003331  0.4054468182556619   T   T   T
  0.1250446898081705  0.1249463023404829  0.4963343842041823   T   T   T
  0.1250513719878654  0.3752815785369279  0.4971086395863225   T   T   T
  0.1236865366272255  0.6249166459792761  0.4968385100645634   T   T   T
  0.1253186972312150  0.8748827500076288  0.4963557385199167   T   T   T
  0.3752508295924244  0.1251455094432217  0.4964378955632540   T   T   T
  0.3740942560673730  0.3752520240901660  0.4957501829091129   T   T   T
  0.3740452690252241  0.6252326029666335  0.4938989402885809   T   T   T
  0.3750024031737809  0.8748260065837883  0.4965346994690520   T   T   T
  0.6249982198435404  0.1251726366927670  0.4965316398391337   T   T   T
  0.6259521328697062  0.3747718767734582  0.4939258691435739   T   T   T
  0.6259243478441689  0.6247451575251759  0.4957494545192986   T   T   T
  0.6247471056938352  0.8748546443212462  0.4964425430808959   T   T   T
  0.8746834688080867  0.1251171530101942  0.4963554354403499   T   T   T
  0.8762927786290362  0.3750919000043709  0.4968508981084696   T   T   T
  0.8749481801763608  0.6247162520539007  0.4971108245353832   T   T   T
  0.8749540048518512  0.8750540407162504  0.4963348909530367   T   T   T
  0.1250000006356942  0.1249999995504965  0.3145639541739911   F   F   F
  0.1250000006356942  0.3749999992508322  0.3145639541739911   F   F   F
  0.1250000006356942  0.6249999983518251  0.3145639541739911   F   F   F
  0.1250000006356942  0.8749999974528251  0.3145639541739911   F   F   F
  0.3750000002118981  0.1249999995504965  0.3145639541739911   F   F   F
  0.3750000002118981  0.3749999992508322  0.3145639541739911   F   F   F
  0.3750000010594832  0.6249999983518251  0.3145639541739911   F   F   F
  0.3750000010594832  0.8749999974528251  0.3145639541739911   F   F   F
  0.6250000006356942  0.1249999995504965  0.3145639541739911   F   F   F
  0.6250000006356942  0.3749999992508322  0.3145639541739911   F   F   F
  0.6250000014832793  0.6249999983518251  0.3145639541739911   F   F   F
  0.6250000006356942  0.8749999974528251  0.3145639541739911   F   F   F
  0.8750000010594832  0.1249999995504965  0.3145639541739911   F   F   F
  0.8750000010594832  0.3749999992508322  0.3145639541739911   F   F   F
  0.8750000019070754  0.6249999983518251  0.3145639541739911   F   F   F
  0.8750000010594832  0.8749999974528251  0.3145639541739911   F   F   F
  0.5683650018253701  0.5682223540268154  0.6852442218156511   T   T   T
  0.6185845672363897  0.4923935352670554  0.6857999046578414   T   T   T
  0.5496303645807004  0.4240454173613131  0.6862100159457682   T   T   T
  0.4316429125067529  0.4317737202149914  0.6852395850971789   T   T   T
  0.3814203354754540  0.5076033085841161  0.6856827340797906   T   T   T
  0.4503807947205374  0.5759444834051877  0.6860926476403151   T   T   T
  0.6214754734722092  0.6216628017055825  0.6854506283485904   T   T   T
  0.3785296152287358  0.3783322423172564  0.6854554918439604   T   T   T
  0.7786222875841347  0.4862826660003705  0.6840576254018487   T   T   T
  0.6112146678608852  0.3191544773478867  0.6855121362638883   T   T   T
  0.2213959732163104  0.5137107659665219  0.6837492122709108   T   T   T
  0.3887892757708968  0.6808343649284794  0.6852272141567326   T   T   T
 
  0.00000000E+00  0.00000000E+00  0.00000000E+00
  0.00000000E+00  0.00000000E+00  0.00000000E+00
  0.00000000E+00  0.00000000E+00  0.00000000E+00
  0.00000000E+00  0.00000000E+00  0.00000000E+00
  0.00000000E+00  0.00000000E+00  0.00000000E+00
  0.00000000E+00  0.00000000E+00  0.00000000E+00
  0.00000000E+00  0.00000000E+00  0.00000000E+00
  0.00000000E+00  0.00000000E+00  0.00000000E+00
  0.00000000E+00  0.00000000E+00  0.00000000E+00
  0.00000000E+00  0.00000000E+00  0.00000000E+00
  0.00000000E+00  0.00000000E+00  0.00000000E+00
  0.00000000E+00  0.00000000E+00  0.00000000E+00
  0.00000000E+00  0.00000000E+00  0.00000000E+00
  0.00000000E+00  0.00000000E+00  0.00000000E+00
  0.00000000E+00  0.00000000E+00  0.00000000E+00
  0.00000000E+00  0.00000000E+00  0.00000000E+00
  0.00000000E+00  0.00000000E+00  0.00000000E+00
  0.00000000E+00  0.00000000E+00  0.00000000E+00
  0.00000000E+00  0.00000000E+00  0.00000000E+00
  0.00000000E+00  0.00000000E+00  0.00000000E+00
  0.00000000E+00  0.00000000E+00  0.00000000E+00
  0.00000000E+00  0.00000000E+00  0.00000000E+00
  0.00000000E+00  0.00000000E+00  0.00000000E+00
  0.00000000E+00  0.00000000E+00  0.00000000E+00
  0.00000000E+00  0.00000000E+00  0.00000000E+00
  0.00000000E+00  0.00000000E+00  0.00000000E+00
  0.00000000E+00  0.00000000E+00  0.00000000E+00
  0.00000000E+00  0.00000000E+00  0.00000000E+00
  0.00000000E+00  0.00000000E+00  0.00000000E+00
  0.00000000E+00  0.00000000E+00  0.00000000E+00
  0.00000000E+00  0.00000000E+00  0.00000000E+00
  0.00000000E+00  0.00000000E+00  0.00000000E+00
  0.00000000E+00  0.00000000E+00  0.00000000E+00
  0.00000000E+00  0.00000000E+00  0.00000000E+00
  0.00000000E+00  0.00000000E+00  0.00000000E+00
  0.00000000E+00  0.00000000E+00  0.00000000E+00
  0.00000000E+00  0.00000000E+00  0.00000000E+00
  0.00000000E+00  0.00000000E+00  0.00000000E+00
  0.00000000E+00  0.00000000E+00  0.00000000E+00
  0.00000000E+00  0.00000000E+00  0.00000000E+00
  0.00000000E+00  0.00000000E+00  0.00000000E+00
  0.00000000E+00  0.00000000E+00  0.00000000E+00
  0.00000000E+00  0.00000000E+00  0.00000000E+00
  0.00000000E+00  0.00000000E+00  0.00000000E+00
  0.00000000E+00  0.00000000E+00  0.00000000E+00
  0.00000000E+00  0.00000000E+00  0.00000000E+00
  0.00000000E+00  0.00000000E+00  0.00000000E+00
  0.00000000E+00  0.00000000E+00  0.00000000E+00
  0.00000000E+00  0.00000000E+00  0.00000000E+00
  0.00000000E+00  0.00000000E+00  0.00000000E+00
  0.00000000E+00  0.00000000E+00  0.00000000E+00
  0.00000000E+00  0.00000000E+00  0.00000000E+00
  0.00000000E+00  0.00000000E+00  0.00000000E+00
  0.00000000E+00  0.00000000E+00  0.00000000E+00
  0.00000000E+00  0.00000000E+00  0.00000000E+00
  0.00000000E+00  0.00000000E+00  0.00000000E+00
  0.00000000E+00  0.00000000E+00  0.00000000E+00
  0.00000000E+00  0.00000000E+00  0.00000000E+00
  0.00000000E+00  0.00000000E+00  0.00000000E+00
  0.00000000E+00  0.00000000E+00  0.00000000E+00
