Rh  C  H Br                             
    1.000000000000000     
    10.8856652999999994    0.0000000000000000    0.0000000000000000
     0.0000000000000000   15.3946555000000007    0.0000000000000000
     0.0000000000000000    0.0000000000000000   22.0821244799999974
   Rh   C    H    Br
    64     6     2     4
Selective dynamics
Direct
  0.2500000004593161  0.2500000003247891  0.3396412336499992   F   F   F
  0.0000000018372788  0.7500000016239383  0.3396412336499992   F   F   F
  0.2500000004593161  0.5000000012991492  0.3396412336499992   F   F   F
  0.2500000004593161  0.7500000016239383  0.3396412336499992   F   F   F
  0.2500000004593161  0.0000000019487274  0.3396412336499992   F   F   F
  0.5000000009186394  0.2500000003247891  0.3396412336499992   F   F   F
  0.5000000009186394  0.5000000012991492  0.3396412336499992   F   F   F
  0.0000000018372788  0.0000000019487274  0.3396412336499992   F   F   F
  0.5000000009186394  0.7500000016239383  0.3396412336499992   F   F   F
  0.5000000009186394  0.0000000019487274  0.3396412336499992   F   F   F
  0.7500000013779555  0.2500000003247891  0.3396412336499992   F   F   F
  0.7500000013779555  0.5000000012991492  0.3396412336499992   F   F   F
  0.7500000013779555  0.7500000016239383  0.3396412336499992   F   F   F
  0.7500000013779555  0.0000000019487274  0.3396412336499992   F   F   F
  0.0000000018372788  0.2500000003247891  0.3396412336499992   F   F   F
  0.0000000018372788  0.5000000012991492  0.3396412336499992   F   F   F
  0.2500395746067096  0.2513832399506991  0.4584446806081550   T   T   T
  0.2492544608382059  0.4998967915884416  0.4575181058164672   T   T   T
  0.2499469923811011  0.7497544693705193  0.4579494314134735   T   T   T
  0.2500668611522524  0.9993144375225687  0.4581686752036835   T   T   T
  0.5003849931023754  0.2508203614653499  0.4585374759302561   T   T   T
  0.4998920392445543  0.4999965190908398  0.4555564222840243   T   T   T
  0.4996231261425709  0.7491432079006681  0.4585437129482899   T   T   T
  0.5000416798263286 -0.0000149479210355  0.4586966493775309   T   T   T
  0.7500856373268945  0.2502613550986027  0.4579574124517123   T   T   T
  0.7505616682062066  0.5000989919072300  0.4575500414512789   T   T   T
  0.7499359327168240  0.7485935150249010  0.4584660331623795   T   T   T
  0.7499964185126460  0.0006598416862472  0.4581821586842121   T   T   T
 -0.0002549779629039  0.2502488555919586  0.4576256461225008   T   T   T
  0.9999524114197602  0.5000040497528081  0.4565382702811919   T   T   T
  0.0002093778729550  0.7497222052371550  0.4576182973204259   T   T   T
  0.0000178979427538 -0.0000192000479686  0.4588299619324763   T   T   T
  0.1272684570175667  0.1256057649883575  0.5147759926416993   T   T   T
  0.1227735743356439  0.3742634517170663  0.5167895403527922   T   T   T
  0.1234271364111132  0.6252355296742309  0.5166077127424894   T   T   T
  0.1224780836779046  0.8746428585920687  0.5167993525604651   T   T   T
  0.3726919794371844  0.1258416033912250  0.5147726821299630   T   T   T
  0.3697102216776622  0.3762871126843622  0.5185845462019957   T   T   T
  0.3696550539572104  0.6236959352422258  0.5183060414636994   T   T   T
  0.3777005137561973  0.8745144916296370  0.5168385054492513   T   T   T
  0.6223653327353234  0.1254525094785124  0.5168399729017706   T   T   T
  0.6303134771980312  0.3763122124862279  0.5183086930284192   T   T   T
  0.6300831637651796  0.6235675615542129  0.5186170294164368   T   T   T
  0.6272934847719634  0.8741311431080380  0.5147838212384860   T   T   T
  0.8774847704615570  0.1253582495305592  0.5168304017547913   T   T   T
  0.8764359523441617  0.3748670679542789  0.5166226618441645   T   T   T
  0.8769484844623658  0.6255637340954535  0.5167778793385004   T   T   T
  0.8727566718619735  0.8743634869973572  0.5147923944540793   T   T   T
  0.1249999997703384  0.1250000001623945  0.4012615800633341   F   F   F
  0.1249999997703384  0.3750000004871836  0.4012615800633341   F   F   F
  0.1250000006889778  0.6250000014615438  0.4012615800633341   F   F   F
  0.1250000006889778  0.8750000017863329  0.4012615800633341   F   F   F
  0.3750000002296616  0.1250000001623945  0.4012615800633341   F   F   F
  0.3750000002296616  0.3750000004871836  0.4012615800633341   F   F   F
  0.3750000011483010  0.6250000014615438  0.4012615800633341   F   F   F
  0.3750000011483010  0.8750000017863329  0.4012615800633341   F   F   F
  0.6250000006889778  0.1250000001623945  0.4012615800633341   F   F   F
  0.6250000006889778  0.3750000004871836  0.4012615800633341   F   F   F
  0.6250000006889778  0.6250000014615438  0.4012615800633341   F   F   F
  0.6250000006889778  0.8750000017863329  0.4012615800633341   F   F   F
  0.8750000011483010  0.1250000001623945  0.4012615800633341   F   F   F
  0.8750000011483010  0.3750000004871836  0.4012615800633341   F   F   F
  0.8750000020669404  0.6250000014615438  0.4012615800633341   F   F   F
  0.8750000011483010  0.8750000017863329  0.4012615800633341   F   F   F
  0.4981975638031512  0.4044520343160529  0.5994713423536986   T   T   T
  0.3887312964341161  0.4562037829417128  0.5863275892824045   T   T   T
  0.3893426295989150  0.5445295085415660  0.5863196246433887   T   T   T
  0.4997981285846835  0.5953929269220701  0.5994309705095334   T   T   T
  0.6093571091999836  0.5436463318062195  0.5862114492515680   T   T   T
  0.6087430925070153  0.4552544857026817  0.5862224377231705   T   T   T
  0.4978690540416735  0.3471355104785602  0.6285129184738599   T   T   T
  0.5002919024832962  0.6526869158247240  0.6284785509354986   T   T   T
  0.9989334009198285  0.3687059857213895  0.6109275696928521   T   T   T
  0.2500448673825206  0.8768481159458094  0.6100136065500980   T   T   T
  0.0007445879301022  0.6319038472638165  0.6109179500159340   T   T   T
  0.7499157217831705  0.1230623929573181  0.6100724847502783   T   T   T
 
  0.00000000E+00  0.00000000E+00  0.00000000E+00
  0.00000000E+00  0.00000000E+00  0.00000000E+00
  0.00000000E+00  0.00000000E+00  0.00000000E+00
  0.00000000E+00  0.00000000E+00  0.00000000E+00
  0.00000000E+00  0.00000000E+00  0.00000000E+00
  0.00000000E+00  0.00000000E+00  0.00000000E+00
  0.00000000E+00  0.00000000E+00  0.00000000E+00
  0.00000000E+00  0.00000000E+00  0.00000000E+00
  0.00000000E+00  0.00000000E+00  0.00000000E+00
  0.00000000E+00  0.00000000E+00  0.00000000E+00
  0.00000000E+00  0.00000000E+00  0.00000000E+00
  0.00000000E+00  0.00000000E+00  0.00000000E+00
  0.00000000E+00  0.00000000E+00  0.00000000E+00
  0.00000000E+00  0.00000000E+00  0.00000000E+00
  0.00000000E+00  0.00000000E+00  0.00000000E+00
  0.00000000E+00  0.00000000E+00  0.00000000E+00
  0.00000000E+00  0.00000000E+00  0.00000000E+00
  0.00000000E+00  0.00000000E+00  0.00000000E+00
  0.00000000E+00  0.00000000E+00  0.00000000E+00
  0.00000000E+00  0.00000000E+00  0.00000000E+00
  0.00000000E+00  0.00000000E+00  0.00000000E+00
  0.00000000E+00  0.00000000E+00  0.00000000E+00
  0.00000000E+00  0.00000000E+00  0.00000000E+00
  0.00000000E+00  0.00000000E+00  0.00000000E+00
  0.00000000E+00  0.00000000E+00  0.00000000E+00
  0.00000000E+00  0.00000000E+00  0.00000000E+00
  0.00000000E+00  0.00000000E+00  0.00000000E+00
  0.00000000E+00  0.00000000E+00  0.00000000E+00
  0.00000000E+00  0.00000000E+00  0.00000000E+00
  0.00000000E+00  0.00000000E+00  0.00000000E+00
  0.00000000E+00  0.00000000E+00  0.00000000E+00
  0.00000000E+00  0.00000000E+00  0.00000000E+00
  0.00000000E+00  0.00000000E+00  0.00000000E+00
  0.00000000E+00  0.00000000E+00  0.00000000E+00
  0.00000000E+00  0.00000000E+00  0.00000000E+00
  0.00000000E+00  0.00000000E+00  0.00000000E+00
  0.00000000E+00  0.00000000E+00  0.00000000E+00
  0.00000000E+00  0.00000000E+00  0.00000000E+00
  0.00000000E+00  0.00000000E+00  0.00000000E+00
  0.00000000E+00  0.00000000E+00  0.00000000E+00
  0.00000000E+00  0.00000000E+00  0.00000000E+00
  0.00000000E+00  0.00000000E+00  0.00000000E+00
  0.00000000E+00  0.00000000E+00  0.00000000E+00
  0.00000000E+00  0.00000000E+00  0.00000000E+00
  0.00000000E+00  0.00000000E+00  0.00000000E+00
  0.00000000E+00  0.00000000E+00  0.00000000E+00
  0.00000000E+00  0.00000000E+00  0.00000000E+00
  0.00000000E+00  0.00000000E+00  0.00000000E+00
  0.00000000E+00  0.00000000E+00  0.00000000E+00
  0.00000000E+00  0.00000000E+00  0.00000000E+00
  0.00000000E+00  0.00000000E+00  0.00000000E+00
  0.00000000E+00  0.00000000E+00  0.00000000E+00
  0.00000000E+00  0.00000000E+00  0.00000000E+00
  0.00000000E+00  0.00000000E+00  0.00000000E+00
  0.00000000E+00  0.00000000E+00  0.00000000E+00
  0.00000000E+00  0.00000000E+00  0.00000000E+00
  0.00000000E+00  0.00000000E+00  0.00000000E+00
  0.00000000E+00  0.00000000E+00  0.00000000E+00
  0.00000000E+00  0.00000000E+00  0.00000000E+00
  0.00000000E+00  0.00000000E+00  0.00000000E+00
  0.00000000E+00  0.00000000E+00  0.00000000E+00
  0.00000000E+00  0.00000000E+00  0.00000000E+00
  0.00000000E+00  0.00000000E+00  0.00000000E+00
  0.00000000E+00  0.00000000E+00  0.00000000E+00
  0.00000000E+00  0.00000000E+00  0.00000000E+00
  0.00000000E+00  0.00000000E+00  0.00000000E+00
  0.00000000E+00  0.00000000E+00  0.00000000E+00
  0.00000000E+00  0.00000000E+00  0.00000000E+00
  0.00000000E+00  0.00000000E+00  0.00000000E+00
  0.00000000E+00  0.00000000E+00  0.00000000E+00
  0.00000000E+00  0.00000000E+00  0.00000000E+00
  0.00000000E+00  0.00000000E+00  0.00000000E+00
  0.00000000E+00  0.00000000E+00  0.00000000E+00
  0.00000000E+00  0.00000000E+00  0.00000000E+00
  0.00000000E+00  0.00000000E+00  0.00000000E+00
  0.00000000E+00  0.00000000E+00  0.00000000E+00
