H4 Ir48 C6 Br2                          
    1.000000000000000     
    10.9622130000000002    0.0000000000000000    0.0000000000000000
    -5.4811069999999997    9.4935550000000006    0.0000000000000000
     0.0000000000000000    0.0000000000000000   16.4785930000000000
   H    Ir   C    Br
     4    48     6     2
Selective dynamics
Direct
  0.5054460272365233  0.6336974580997321  0.7841640507254724   T   T   T
  0.6350053481286793  0.5043421752527379  0.7839817822758874   T   T   T
  0.2455390531244674  0.1148279154331959  0.7839426061454233   T   T   T
  0.1161132385384889  0.2443440785545334  0.7841298502494141   T   T   T
  0.0833330000000032  0.1666669999999968  0.3641089999999991   F   F   F
  0.0833330000000032  0.4166669999999968  0.3641089999999991   F   F   F
  0.0833330000000032  0.6666669999999968  0.3641089999999991   F   F   F
  0.0833330000000032  0.9166669999999968  0.3641089999999991   F   F   F
  0.3333330000000032  0.1666669999999968  0.3641089999999991   F   F   F
  0.3333330000000032  0.4166669999999968  0.3641089999999991   F   F   F
  0.3333330000000032  0.6666669999999968  0.3641089999999991   F   F   F
  0.3333330000000032  0.9166669999999968  0.3641089999999991   F   F   F
  0.5833330000000032  0.1666669999999968  0.3641089999999991   F   F   F
  0.5833330000000032  0.4166669999999968  0.3641089999999991   F   F   F
  0.5833330000000032  0.6666669999999968  0.3641089999999991   F   F   F
  0.5833330000000032  0.9166669999999968  0.3641089999999991   F   F   F
  0.8333330000000032  0.1666669999999968  0.3641089999999991   F   F   F
  0.8333330000000032  0.4166669999999968  0.3641089999999991   F   F   F
  0.8333330000000032  0.6666669999999968  0.3641089999999991   F   F   F
  0.8333330000000032  0.9166669999999968  0.3641089999999991   F   F   F
  0.9970364555951647  0.9966201709324096  0.6288090920549436   T   T   T
  0.9947716967575957  0.2477648223445641  0.6287923675974696   T   T   T
  0.0005970882833850  0.4991031318983872  0.6297969428935275   T   T   T
  0.0010193169679340  0.7489645761487296  0.6289541650622468   T   T   T
  0.2481438838614309  0.9940502257780963  0.6284445534098850   T   T   T
  0.2434747391264125  0.2421976583216150  0.6372161306701400   T   T   T
  0.2511332928426597  0.4988466378757579  0.6364025216013403   T   T   T
  0.2508944733347818  0.7493924473890416  0.6297958731909077   T   T   T
  0.5005398282033013  0.0006553084331955  0.6296871691027519   T   T   T
  0.4999072894539935  0.2500666880005511  0.6372730766579124   T   T   T
  0.5077808300520488  0.5065075023445047  0.6372331140625462   T   T   T
  0.5022218767556836  0.7552124706779040  0.6287934994477524   T   T   T
  0.7502207392051545  0.9997770450758168  0.6292642345739026   T   T   T
  0.7493269648581844  0.2494481947369849  0.6296923949163471   T   T   T
  0.7559229688492550  0.5018344504765864  0.6284540446990192   T   T   T
  0.7533733222457144  0.7529635799723380  0.6288123289918630   T   T   T
  0.1682243085776918  0.0861033419269575  0.4974191427972912   T   T   T
  0.1687196691741732  0.3344222463636726  0.4982690817016362   T   T   T
  0.1687175666693079  0.5812744837483592  0.4984610449778515   T   T   T
  0.1679775244311799  0.8333150822325806  0.4960684992950206   T   T   T
  0.4177352041399516  0.0864207219684587  0.4978635434237049   T   T   T
  0.4159672563557777  0.3340243056758041  0.4999034452857742   T   T   T
  0.4155647474460906  0.5812683549140019  0.4982722359317151   T   T   T
  0.4168203252908782  0.8332985059692248  0.4966000180642851   T   T   T
  0.6664360318192308  0.0835673448424288  0.4967440393381608   T   T   T
  0.6635756272531950  0.3322616356048727  0.4978668444580165   T   T   T
  0.6638854562520464  0.5817699698227727  0.4974245312925234   T   T   T
  0.6662411264388268  0.8323976487491720  0.4963922323770191   T   T   T
  0.9176021690938398  0.0837571352993436  0.4963908258387519   T   T   T
  0.9166932501072864  0.3331756522715636  0.4966046939529107   T   T   T
  0.9166798146722144  0.5820166634748958  0.4960731265155403   T   T   T
  0.9171959904387350  0.8327990000512813  0.4959044841339022   T   T   T
  0.2947039324210721  0.4551166162462437  0.7567249154974576   T   T   T
  0.4508603981411241  0.5251387686726261  0.7617021879718635   T   T   T
  0.5264200850024707  0.4495839620430644  0.7615572063068328   T   T   T
  0.4566240198131624  0.2932597514904813  0.7570051716614543   T   T   T
  0.3002479168466365  0.2234022309141821  0.7615353605909476   T   T   T
  0.2246899624487213  0.2989418191434581  0.7616807684930293   T   T   T
  0.2180369367098081  0.5317670090891440  0.8384458187812029   T   T   T
  0.5317770300151707  0.2180629422351714  0.8402881647262035   T   T   T
 
  0.00000000E+00  0.00000000E+00  0.00000000E+00
  0.00000000E+00  0.00000000E+00  0.00000000E+00
  0.00000000E+00  0.00000000E+00  0.00000000E+00
  0.00000000E+00  0.00000000E+00  0.00000000E+00
  0.00000000E+00  0.00000000E+00  0.00000000E+00
  0.00000000E+00  0.00000000E+00  0.00000000E+00
  0.00000000E+00  0.00000000E+00  0.00000000E+00
  0.00000000E+00  0.00000000E+00  0.00000000E+00
  0.00000000E+00  0.00000000E+00  0.00000000E+00
  0.00000000E+00  0.00000000E+00  0.00000000E+00
  0.00000000E+00  0.00000000E+00  0.00000000E+00
  0.00000000E+00  0.00000000E+00  0.00000000E+00
  0.00000000E+00  0.00000000E+00  0.00000000E+00
  0.00000000E+00  0.00000000E+00  0.00000000E+00
  0.00000000E+00  0.00000000E+00  0.00000000E+00
  0.00000000E+00  0.00000000E+00  0.00000000E+00
  0.00000000E+00  0.00000000E+00  0.00000000E+00
  0.00000000E+00  0.00000000E+00  0.00000000E+00
  0.00000000E+00  0.00000000E+00  0.00000000E+00
  0.00000000E+00  0.00000000E+00  0.00000000E+00
  0.00000000E+00  0.00000000E+00  0.00000000E+00
  0.00000000E+00  0.00000000E+00  0.00000000E+00
  0.00000000E+00  0.00000000E+00  0.00000000E+00
  0.00000000E+00  0.00000000E+00  0.00000000E+00
  0.00000000E+00  0.00000000E+00  0.00000000E+00
  0.00000000E+00  0.00000000E+00  0.00000000E+00
  0.00000000E+00  0.00000000E+00  0.00000000E+00
  0.00000000E+00  0.00000000E+00  0.00000000E+00
  0.00000000E+00  0.00000000E+00  0.00000000E+00
  0.00000000E+00  0.00000000E+00  0.00000000E+00
  0.00000000E+00  0.00000000E+00  0.00000000E+00
  0.00000000E+00  0.00000000E+00  0.00000000E+00
  0.00000000E+00  0.00000000E+00  0.00000000E+00
  0.00000000E+00  0.00000000E+00  0.00000000E+00
  0.00000000E+00  0.00000000E+00  0.00000000E+00
  0.00000000E+00  0.00000000E+00  0.00000000E+00
  0.00000000E+00  0.00000000E+00  0.00000000E+00
  0.00000000E+00  0.00000000E+00  0.00000000E+00
  0.00000000E+00  0.00000000E+00  0.00000000E+00
  0.00000000E+00  0.00000000E+00  0.00000000E+00
  0.00000000E+00  0.00000000E+00  0.00000000E+00
  0.00000000E+00  0.00000000E+00  0.00000000E+00
  0.00000000E+00  0.00000000E+00  0.00000000E+00
  0.00000000E+00  0.00000000E+00  0.00000000E+00
  0.00000000E+00  0.00000000E+00  0.00000000E+00
  0.00000000E+00  0.00000000E+00  0.00000000E+00
  0.00000000E+00  0.00000000E+00  0.00000000E+00
  0.00000000E+00  0.00000000E+00  0.00000000E+00
  0.00000000E+00  0.00000000E+00  0.00000000E+00
  0.00000000E+00  0.00000000E+00  0.00000000E+00
  0.00000000E+00  0.00000000E+00  0.00000000E+00
  0.00000000E+00  0.00000000E+00  0.00000000E+00
  0.00000000E+00  0.00000000E+00  0.00000000E+00
  0.00000000E+00  0.00000000E+00  0.00000000E+00
  0.00000000E+00  0.00000000E+00  0.00000000E+00
  0.00000000E+00  0.00000000E+00  0.00000000E+00
  0.00000000E+00  0.00000000E+00  0.00000000E+00
  0.00000000E+00  0.00000000E+00  0.00000000E+00
  0.00000000E+00  0.00000000E+00  0.00000000E+00
  0.00000000E+00  0.00000000E+00  0.00000000E+00
