Au48 C6 Br6                             
    1.000000000000000     
    11.7981856999999994    0.0000000000000000    0.0000000000000000
     0.0000000000000000   11.7981856999999994    0.0000000000000000
     0.0000000000000000    0.0000000000000000   17.1726987300000005
   Au   C    Br
    48     6     6
Selective dynamics
Direct
  0.2494589756723897  0.0001402527710823  0.4127659498909821   T   T   T
  0.2496575295486565  0.2496571370950988  0.4124152156895775   T   T   T
  0.2486075414827198  0.5001080500477570  0.4120710914564043   T   T   T
  0.2492979887437272  0.7507028163005529  0.4124708148340446   T   T   T
  0.4999998867954645  0.0000002398704311  0.4126314225600751   T   T   T
  0.5001084677053882  0.2486082204731304  0.4120716811691381   T   T   T
  0.5000006434613056  0.4999997019984903  0.4109399174986805   T   T   T
  0.4998914976910598  0.7513921300056907  0.4120715317296870   T   T   T
  0.7505404217176732  0.9998603935810308  0.4127658195212973   T   T   T
  0.7507017591672209  0.2492984317976550  0.4124710433271375   T   T   T
  0.7513916353613581  0.4998908136733249  0.4120713089483274   T   T   T
  0.7503420062153765  0.7503423121895594  0.4124148944503574   T   T   T
  0.0000003175378112  0.0000001713257376  0.4128314343752066   T   T   T
  0.0001404941074270  0.2494594639044507  0.4127664191074132   T   T   T
  0.9999998294478161  0.4999994028609152  0.4126317215857540   T   T   T
  0.9998596503102561  0.7505406264109808  0.4127659144928018   T   T   T
  0.1251288003993167  0.1251285592524880  0.5346400436635861   T   T   T
  0.1249265187496960  0.3749003955655539  0.5341825988345690   T   T   T
  0.1239382992685165  0.6254409012129472  0.5339992426943354   T   T   T
  0.1246313920543471  0.8753674832403533  0.5347862757146871   T   T   T
  0.3749011617655071  0.1249269916624414  0.5341831961613366   T   T   T
  0.3757494177197600  0.3757490368813023  0.5309035943830267   T   T   T
  0.3747557118961140  0.6252445621023952  0.5309898909700763   T   T   T
  0.3745593506108378  0.8760611398545208  0.5340014950603518   T   T   T
  0.6254416019277755  0.1239390603235861  0.5339997948429982   T   T   T
  0.6252445180366664  0.3747552982863169  0.5309898560442576   T   T   T
  0.6242508588942641  0.6242505837364476  0.5309025049222953   T   T   T
  0.6250987058277602  0.8750731682152093  0.5341825768102950   T   T   T
  0.8753675393386047  0.1246324508209185  0.5347859578933125   T   T   T
  0.8760607827118179  0.3745595776231596  0.5340003103870572   T   T   T
  0.8750724080543293  0.6250986153850775  0.5341819217377974   T   T   T
  0.8748705865889406  0.8748715749014409  0.5346389139554617   T   T   T
  0.1249999997881019  0.1250000006356942  0.2911598275037122   F   F   F
  0.1250000006356942  0.3750000010594832  0.2911598275037122   F   F   F
  0.1250000006356942  0.6250000006356942  0.2911598275037122   F   F   F
  0.1250000006356942  0.8750000019070754  0.2911598275037122   F   F   F
  0.3750000010594832  0.1250000006356942  0.2911598275037122   F   F   F
  0.3750000010594832  0.3750000010594832  0.2911598275037122   F   F   F
  0.3750000010594832  0.6250000006356942  0.2911598275037122   F   F   F
  0.3750000010594832  0.8750000019070754  0.2911598275037122   F   F   F
  0.6250000006356942  0.1250000006356942  0.2911598275037122   F   F   F
  0.6250000014832793  0.3750000010594832  0.2911598275037122   F   F   F
  0.6250000014832793  0.6250000006356942  0.2911598275037122   F   F   F
  0.6250000014832793  0.8750000019070754  0.2911598275037122   F   F   F
  0.8750000019070754  0.1250000006356942  0.2911598275037122   F   F   F
  0.8750000019070754  0.3750000010594832  0.2911598275037122   F   F   F
  0.8750000019070754  0.6250000006356942  0.2911598275037122   F   F   F
  0.8750000019070754  0.8750000019070754  0.2911598275037122   F   F   F
  0.6152595739215059  0.4690633761164520  0.7220358373400870   T   T   T
  0.5308907562468690  0.3847378935938863  0.7220351688563582   T   T   T
  0.4156616663009061  0.4156902738910659  0.7216307275578586   T   T   T
  0.3847544269268610  0.5309341960768492  0.7220348417357627   T   T   T
  0.4691099143840134  0.6152681319428694  0.7220367180807727   T   T   T
  0.5843287856858197  0.5842958448406748  0.7216314092775349   T   T   T
  0.7700726179421480  0.4279889418497191  0.7221392220241540   T   T   T
  0.5719533564670982  0.2299044056811539  0.7221316096277377   T   T   T
  0.3022399712997768  0.3023038324745499  0.7201961158713814   T   T   T
  0.2299258504609867  0.5720135970482829  0.7221270813876046   T   T   T
  0.4280526782960550  0.7700881401313922  0.7221439588882248   T   T   T
  0.6977599165426511  0.6976990881839669  0.7201849815517605   T   T   T
 
  0.00000000E+00  0.00000000E+00  0.00000000E+00
  0.00000000E+00  0.00000000E+00  0.00000000E+00
  0.00000000E+00  0.00000000E+00  0.00000000E+00
  0.00000000E+00  0.00000000E+00  0.00000000E+00
  0.00000000E+00  0.00000000E+00  0.00000000E+00
  0.00000000E+00  0.00000000E+00  0.00000000E+00
  0.00000000E+00  0.00000000E+00  0.00000000E+00
  0.00000000E+00  0.00000000E+00  0.00000000E+00
  0.00000000E+00  0.00000000E+00  0.00000000E+00
  0.00000000E+00  0.00000000E+00  0.00000000E+00
  0.00000000E+00  0.00000000E+00  0.00000000E+00
  0.00000000E+00  0.00000000E+00  0.00000000E+00
  0.00000000E+00  0.00000000E+00  0.00000000E+00
  0.00000000E+00  0.00000000E+00  0.00000000E+00
  0.00000000E+00  0.00000000E+00  0.00000000E+00
  0.00000000E+00  0.00000000E+00  0.00000000E+00
  0.00000000E+00  0.00000000E+00  0.00000000E+00
  0.00000000E+00  0.00000000E+00  0.00000000E+00
  0.00000000E+00  0.00000000E+00  0.00000000E+00
  0.00000000E+00  0.00000000E+00  0.00000000E+00
  0.00000000E+00  0.00000000E+00  0.00000000E+00
  0.00000000E+00  0.00000000E+00  0.00000000E+00
  0.00000000E+00  0.00000000E+00  0.00000000E+00
  0.00000000E+00  0.00000000E+00  0.00000000E+00
  0.00000000E+00  0.00000000E+00  0.00000000E+00
  0.00000000E+00  0.00000000E+00  0.00000000E+00
  0.00000000E+00  0.00000000E+00  0.00000000E+00
  0.00000000E+00  0.00000000E+00  0.00000000E+00
  0.00000000E+00  0.00000000E+00  0.00000000E+00
  0.00000000E+00  0.00000000E+00  0.00000000E+00
  0.00000000E+00  0.00000000E+00  0.00000000E+00
  0.00000000E+00  0.00000000E+00  0.00000000E+00
  0.00000000E+00  0.00000000E+00  0.00000000E+00
  0.00000000E+00  0.00000000E+00  0.00000000E+00
  0.00000000E+00  0.00000000E+00  0.00000000E+00
  0.00000000E+00  0.00000000E+00  0.00000000E+00
  0.00000000E+00  0.00000000E+00  0.00000000E+00
  0.00000000E+00  0.00000000E+00  0.00000000E+00
  0.00000000E+00  0.00000000E+00  0.00000000E+00
  0.00000000E+00  0.00000000E+00  0.00000000E+00
  0.00000000E+00  0.00000000E+00  0.00000000E+00
  0.00000000E+00  0.00000000E+00  0.00000000E+00
  0.00000000E+00  0.00000000E+00  0.00000000E+00
  0.00000000E+00  0.00000000E+00  0.00000000E+00
  0.00000000E+00  0.00000000E+00  0.00000000E+00
  0.00000000E+00  0.00000000E+00  0.00000000E+00
  0.00000000E+00  0.00000000E+00  0.00000000E+00
  0.00000000E+00  0.00000000E+00  0.00000000E+00
  0.00000000E+00  0.00000000E+00  0.00000000E+00
  0.00000000E+00  0.00000000E+00  0.00000000E+00
  0.00000000E+00  0.00000000E+00  0.00000000E+00
  0.00000000E+00  0.00000000E+00  0.00000000E+00
  0.00000000E+00  0.00000000E+00  0.00000000E+00
  0.00000000E+00  0.00000000E+00  0.00000000E+00
  0.00000000E+00  0.00000000E+00  0.00000000E+00
  0.00000000E+00  0.00000000E+00  0.00000000E+00
  0.00000000E+00  0.00000000E+00  0.00000000E+00
  0.00000000E+00  0.00000000E+00  0.00000000E+00
  0.00000000E+00  0.00000000E+00  0.00000000E+00
  0.00000000E+00  0.00000000E+00  0.00000000E+00
