H4 Ir48 C6 Br2                          
    1.000000000000000     
    10.9622130000000002    0.0000000000000000    0.0000000000000000
    -5.4811069999999997    9.4935550000000006    0.0000000000000000
     0.0000000000000000    0.0000000000000000   17.4785930000000000
   H    Ir   C    Br
     4    48     6     2
Selective dynamics
Direct
  0.5066977898518559  0.6378471920663173  0.7705026904670760   T   T   T
  0.6378810419220642  0.5066464859908848  0.7706265300239608   T   T   T
  0.2431778707388972  0.1119492997332756  0.7706183052708369   T   T   T
  0.1119639675715263  0.2431287193407385  0.7704935204852390   T   T   T
  0.0833330000000032  0.1666669999999968  0.3432770000000005   F   F   F
  0.0833330000000032  0.4166669999999968  0.3432770000000005   F   F   F
  0.0833330000000032  0.6666669999999968  0.3432770000000005   F   F   F
  0.0833330000000032  0.9166669999999968  0.3432770000000005   F   F   F
  0.3333330000000032  0.1666669999999968  0.3432770000000005   F   F   F
  0.3333330000000032  0.4166669999999968  0.3432770000000005   F   F   F
  0.3333330000000032  0.6666669999999968  0.3432770000000005   F   F   F
  0.3333330000000032  0.9166669999999968  0.3432770000000005   F   F   F
  0.5833330000000032  0.1666669999999968  0.3432770000000005   F   F   F
  0.5833330000000032  0.4166669999999968  0.3432770000000005   F   F   F
  0.5833330000000032  0.6666669999999968  0.3432770000000005   F   F   F
  0.5833330000000032  0.9166669999999968  0.3432770000000005   F   F   F
  0.8333330000000032  0.1666669999999968  0.3432770000000005   F   F   F
  0.8333330000000032  0.4166669999999968  0.3432770000000005   F   F   F
  0.8333330000000032  0.6666669999999968  0.3432770000000005   F   F   F
  0.8333330000000032  0.9166669999999968  0.3432770000000005   F   F   F
  0.9996456140238621  0.9999793036042774  0.5939820963266200   T   T   T
  0.9992315945295900  0.2496957203239418  0.5937808271199074   T   T   T
  0.9991567736359741  0.4999200000359139  0.5935694137354233   T   T   T
  0.9998515886950514  0.7501788531938303  0.5940347413844620   T   T   T
  0.2495518598836384  0.9995082799700299  0.5936808371906608   T   T   T
  0.2493110863090209  0.2495401170794835  0.5948762169233817   T   T   T
  0.2493407142130337  0.5006855273211954  0.5932248217904217   T   T   T
  0.2501154614088890  0.7508771844434392  0.5935704881640618   T   T   T
  0.5000420687949756  0.9997008735223787  0.5937731503340160   T   T   T
  0.5004599217964838  0.2495728422810615  0.5934219508763761   T   T   T
  0.5004822191143816  0.5007074880335480  0.5948768399606408   T   T   T
  0.5003338939254647  0.7508009024243165  0.5937808259050712   T   T   T
  0.7500655466998793  0.9999664878898429  0.5941173583644499   T   T   T
  0.7503314589462562  0.2499912228537937  0.5937750552261463   T   T   T
  0.7505233942649667  0.5004751008062769  0.5936810169010798   T   T   T
  0.7500496181806824  0.7503832081050277  0.5939829536514054   T   T   T
  0.1666009188223398  0.0834576863744729  0.4685719534464923   T   T   T
  0.1667586127677723  0.3332599726566841  0.4687716449735504   T   T   T
  0.1664581164395429  0.5835683150740891  0.4681309534705846   T   T   T
  0.1663639611605205  0.8332775365536591  0.4684416783342087   T   T   T
  0.4164756811689045  0.0831999706286766  0.4682374281131558   T   T   T
  0.4165448996699794  0.3334680028845156  0.4694675750467354   T   T   T
  0.4167540440043851  0.5832600235151659  0.4687755717455460   T   T   T
  0.4166501894835193  0.8332821049735344  0.4683416360897041   T   T   T
  0.6666505138150569  0.0833792398644064  0.4686196478273175   T   T   T
  0.6668241787702058  0.3335444175943749  0.4682385216175007   T   T   T
  0.6665630995978731  0.5834146734887895  0.4685769037366114   T   T   T
  0.6667473261855577  0.8334208300479986  0.4684384016126373   T   T   T
  0.9166040903555128  0.0832753535241721  0.4684356115898041   T   T   T
  0.9167340316343129  0.3333668847097826  0.4683394754121011   T   T   T
  0.9167424318991806  0.5836552187222495  0.4684433133077803   T   T   T
  0.9166175851707052  0.8334081423424706  0.4684370911859403   T   T   T
  0.3021476998804502  0.4476723914080054  0.7748675359908646   T   T   T
  0.4491080582126088  0.5228789062455306  0.7721430678316565   T   T   T
  0.5229321723562279  0.4490310592164022  0.7722233584440588   T   T   T
  0.4476745867167011  0.3020988104926801  0.7750486645130650   T   T   T
  0.3007887125383917  0.2268752545568589  0.7722201902338099   T   T   T
  0.2269409993047660  0.3007074699037489  0.7721388242651557   T   T   T
  0.2022281301379607  0.5476484454713884  0.7761492527143261   T   T   T
  0.5476832786889076  0.2021809713884366  0.7771388510913866   T   T   T
 
  0.00000000E+00  0.00000000E+00  0.00000000E+00
  0.00000000E+00  0.00000000E+00  0.00000000E+00
  0.00000000E+00  0.00000000E+00  0.00000000E+00
  0.00000000E+00  0.00000000E+00  0.00000000E+00
  0.00000000E+00  0.00000000E+00  0.00000000E+00
  0.00000000E+00  0.00000000E+00  0.00000000E+00
  0.00000000E+00  0.00000000E+00  0.00000000E+00
  0.00000000E+00  0.00000000E+00  0.00000000E+00
  0.00000000E+00  0.00000000E+00  0.00000000E+00
  0.00000000E+00  0.00000000E+00  0.00000000E+00
  0.00000000E+00  0.00000000E+00  0.00000000E+00
  0.00000000E+00  0.00000000E+00  0.00000000E+00
  0.00000000E+00  0.00000000E+00  0.00000000E+00
  0.00000000E+00  0.00000000E+00  0.00000000E+00
  0.00000000E+00  0.00000000E+00  0.00000000E+00
  0.00000000E+00  0.00000000E+00  0.00000000E+00
  0.00000000E+00  0.00000000E+00  0.00000000E+00
  0.00000000E+00  0.00000000E+00  0.00000000E+00
  0.00000000E+00  0.00000000E+00  0.00000000E+00
  0.00000000E+00  0.00000000E+00  0.00000000E+00
  0.00000000E+00  0.00000000E+00  0.00000000E+00
  0.00000000E+00  0.00000000E+00  0.00000000E+00
  0.00000000E+00  0.00000000E+00  0.00000000E+00
  0.00000000E+00  0.00000000E+00  0.00000000E+00
  0.00000000E+00  0.00000000E+00  0.00000000E+00
  0.00000000E+00  0.00000000E+00  0.00000000E+00
  0.00000000E+00  0.00000000E+00  0.00000000E+00
  0.00000000E+00  0.00000000E+00  0.00000000E+00
  0.00000000E+00  0.00000000E+00  0.00000000E+00
  0.00000000E+00  0.00000000E+00  0.00000000E+00
  0.00000000E+00  0.00000000E+00  0.00000000E+00
  0.00000000E+00  0.00000000E+00  0.00000000E+00
  0.00000000E+00  0.00000000E+00  0.00000000E+00
  0.00000000E+00  0.00000000E+00  0.00000000E+00
  0.00000000E+00  0.00000000E+00  0.00000000E+00
  0.00000000E+00  0.00000000E+00  0.00000000E+00
  0.00000000E+00  0.00000000E+00  0.00000000E+00
  0.00000000E+00  0.00000000E+00  0.00000000E+00
  0.00000000E+00  0.00000000E+00  0.00000000E+00
  0.00000000E+00  0.00000000E+00  0.00000000E+00
  0.00000000E+00  0.00000000E+00  0.00000000E+00
  0.00000000E+00  0.00000000E+00  0.00000000E+00
  0.00000000E+00  0.00000000E+00  0.00000000E+00
  0.00000000E+00  0.00000000E+00  0.00000000E+00
  0.00000000E+00  0.00000000E+00  0.00000000E+00
  0.00000000E+00  0.00000000E+00  0.00000000E+00
  0.00000000E+00  0.00000000E+00  0.00000000E+00
  0.00000000E+00  0.00000000E+00  0.00000000E+00
  0.00000000E+00  0.00000000E+00  0.00000000E+00
  0.00000000E+00  0.00000000E+00  0.00000000E+00
  0.00000000E+00  0.00000000E+00  0.00000000E+00
  0.00000000E+00  0.00000000E+00  0.00000000E+00
  0.00000000E+00  0.00000000E+00  0.00000000E+00
  0.00000000E+00  0.00000000E+00  0.00000000E+00
  0.00000000E+00  0.00000000E+00  0.00000000E+00
  0.00000000E+00  0.00000000E+00  0.00000000E+00
  0.00000000E+00  0.00000000E+00  0.00000000E+00
  0.00000000E+00  0.00000000E+00  0.00000000E+00
  0.00000000E+00  0.00000000E+00  0.00000000E+00
  0.00000000E+00  0.00000000E+00  0.00000000E+00
