Ir48 C6 Br6                             
    1.000000000000000     
    10.9622130000000002    0.0000000000000000    0.0000000000000000
    -5.4811069999999997    9.4935550000000006    0.0000000000000000
     0.0000000000000000    0.0000000000000000   16.4767089999999996
   Ir   C    Br
    48     6     6
Selective dynamics
Direct
  0.0833330000000032  0.1666669999999968  0.3641500000000022   F   F   F
  0.0833330000000032  0.4166669999999968  0.3641500000000022   F   F   F
  0.0833330000000032  0.6666669999999968  0.3641500000000022   F   F   F
  0.0833330000000032  0.9166669999999968  0.3641500000000022   F   F   F
  0.3333330000000032  0.1666669999999968  0.3641500000000022   F   F   F
  0.3333330000000032  0.4166669999999968  0.3641500000000022   F   F   F
  0.3333330000000032  0.6666669999999968  0.3641500000000022   F   F   F
  0.3333330000000032  0.9166669999999968  0.3641500000000022   F   F   F
  0.5833330000000032  0.1666669999999968  0.3641500000000022   F   F   F
  0.5833330000000032  0.4166669999999968  0.3641500000000022   F   F   F
  0.5833330000000032  0.6666669999999968  0.3641500000000022   F   F   F
  0.5833330000000032  0.9166669999999968  0.3641500000000022   F   F   F
  0.8333330000000032  0.1666669999999968  0.3641500000000022   F   F   F
  0.8333330000000032  0.4166669999999968  0.3641500000000022   F   F   F
  0.8333330000000032  0.6666669999999968  0.3641500000000022   F   F   F
  0.8333330000000032  0.9166669999999968  0.3641500000000022   F   F   F
  0.9964072672045603  0.9952647391460161  0.6270752893616134   T   T   T
  0.9964361850275196  0.2452467439725936  0.6316398964415413   T   T   T
  0.0003158546898590  0.4966625807237079  0.6299974584376145   T   T   T
  0.9988551558648808  0.7511272946093897  0.6275263261415489   T   T   T
  0.2479137676126371  0.9944437746865233  0.6316319733179157   T   T   T
  0.2452976907773774  0.2435709737272163  0.6375243520367064   T   T   T
  0.2493583645489537  0.5005996086310347  0.6344129012159314   T   T   T
  0.2533359374184130  0.7496661340907451  0.6300066725089479   T   T   T
  0.5025925838349679  0.9990849821133807  0.6315743113000849   T   T   T
  0.5029874410637802  0.2469489732878145  0.6351010185504009   T   T   T
  0.5064273980562888  0.5046546280465307  0.6375233776989546   T   T   T
  0.5047538964546163  0.7535413967966775  0.6316670106373650   T   T   T
  0.7522697002581964  0.9977466140020752  0.6264363559577006   T   T   T
  0.7508985936437185  0.2473991678111886  0.6315694953821520   T   T   T
  0.7555249979373926  0.5020617843802384  0.6316485662936486   T   T   T
  0.7547466474195588  0.7535867150190612  0.6270906476065790   T   T   T
  0.1699319787712312  0.0860362746840764  0.4978628907429865   T   T   T
  0.1682037166343093  0.3334226046784465  0.4975626643072673   T   T   T
  0.1683069554619223  0.5817019537867907  0.4961514221618231   T   T   T
  0.1688055549756911  0.8334336688783353  0.4961187712342792   T   T   T
  0.4168036422138641  0.0833204683155486  0.4988003795859797   T   T   T
  0.4171813944958203  0.3328126234708435  0.4971144189323553   T   T   T
  0.4165717760132281  0.5817929268010857  0.4975621316009011   T   T   T
  0.4163476610317076  0.8326040883081802  0.5002258286681496   T   T   T
  0.6665039045603223  0.0834937676392968  0.4948019713650922   T   T   T
  0.6666663450963171  0.3331915994403616  0.4988005539545028   T   T   T
  0.6639628041737780  0.5800651808340973  0.4978708059847250   T   T   T
  0.6657092089071028  0.8318032582653316  0.4954796265976569   T   T   T
  0.9181908921464483  0.0842856249948412  0.4954734337566222   T   T   T
  0.9173883840456014  0.3336593897200260  0.5002177517937412   T   T   T
  0.9165553350260609  0.5811927756932178  0.4961198474338460   T   T   T
  0.9182846858852898  0.8317144543198864  0.4956879120582656   T   T   T
  0.3034304512015282  0.2228090074584372  0.7589348006908239   T   T   T
  0.2269674954779077  0.2973743877862844  0.7586596063813928   T   T   T
  0.3025199033303352  0.4472295453528830  0.7392266071122364   T   T   T
  0.4524510024849278  0.5228257357782127  0.7586326990676753   T   T   T
  0.5269591744785487  0.4462933936897855  0.7589022035825721   T   T   T
  0.4533554529404356  0.2964470116890823  0.7427345626473070   T   T   T
  0.2244825467819282  0.0213728100343999  0.7896878277370405   T   T   T
  0.0287681037376188  0.2205998835405936  0.7926366616228080   T   T   T
  0.0901348250338927  0.6596212234275143  0.7589245355996894   T   T   T
  0.5292277292764140  0.7211147191927054  0.7925545296185987   T   T   T
  0.7283874779342767  0.5251694889833800  0.7897239851472619   T   T   T
  0.6483803659697358  0.1015056975909232  0.7669384882757697   T   T   T
 
  0.00000000E+00  0.00000000E+00  0.00000000E+00
  0.00000000E+00  0.00000000E+00  0.00000000E+00
  0.00000000E+00  0.00000000E+00  0.00000000E+00
  0.00000000E+00  0.00000000E+00  0.00000000E+00
  0.00000000E+00  0.00000000E+00  0.00000000E+00
  0.00000000E+00  0.00000000E+00  0.00000000E+00
  0.00000000E+00  0.00000000E+00  0.00000000E+00
  0.00000000E+00  0.00000000E+00  0.00000000E+00
  0.00000000E+00  0.00000000E+00  0.00000000E+00
  0.00000000E+00  0.00000000E+00  0.00000000E+00
  0.00000000E+00  0.00000000E+00  0.00000000E+00
  0.00000000E+00  0.00000000E+00  0.00000000E+00
  0.00000000E+00  0.00000000E+00  0.00000000E+00
  0.00000000E+00  0.00000000E+00  0.00000000E+00
  0.00000000E+00  0.00000000E+00  0.00000000E+00
  0.00000000E+00  0.00000000E+00  0.00000000E+00
  0.00000000E+00  0.00000000E+00  0.00000000E+00
  0.00000000E+00  0.00000000E+00  0.00000000E+00
  0.00000000E+00  0.00000000E+00  0.00000000E+00
  0.00000000E+00  0.00000000E+00  0.00000000E+00
  0.00000000E+00  0.00000000E+00  0.00000000E+00
  0.00000000E+00  0.00000000E+00  0.00000000E+00
  0.00000000E+00  0.00000000E+00  0.00000000E+00
  0.00000000E+00  0.00000000E+00  0.00000000E+00
  0.00000000E+00  0.00000000E+00  0.00000000E+00
  0.00000000E+00  0.00000000E+00  0.00000000E+00
  0.00000000E+00  0.00000000E+00  0.00000000E+00
  0.00000000E+00  0.00000000E+00  0.00000000E+00
  0.00000000E+00  0.00000000E+00  0.00000000E+00
  0.00000000E+00  0.00000000E+00  0.00000000E+00
  0.00000000E+00  0.00000000E+00  0.00000000E+00
  0.00000000E+00  0.00000000E+00  0.00000000E+00
  0.00000000E+00  0.00000000E+00  0.00000000E+00
  0.00000000E+00  0.00000000E+00  0.00000000E+00
  0.00000000E+00  0.00000000E+00  0.00000000E+00
  0.00000000E+00  0.00000000E+00  0.00000000E+00
  0.00000000E+00  0.00000000E+00  0.00000000E+00
  0.00000000E+00  0.00000000E+00  0.00000000E+00
  0.00000000E+00  0.00000000E+00  0.00000000E+00
  0.00000000E+00  0.00000000E+00  0.00000000E+00
  0.00000000E+00  0.00000000E+00  0.00000000E+00
  0.00000000E+00  0.00000000E+00  0.00000000E+00
  0.00000000E+00  0.00000000E+00  0.00000000E+00
  0.00000000E+00  0.00000000E+00  0.00000000E+00
  0.00000000E+00  0.00000000E+00  0.00000000E+00
  0.00000000E+00  0.00000000E+00  0.00000000E+00
  0.00000000E+00  0.00000000E+00  0.00000000E+00
  0.00000000E+00  0.00000000E+00  0.00000000E+00
  0.00000000E+00  0.00000000E+00  0.00000000E+00
  0.00000000E+00  0.00000000E+00  0.00000000E+00
  0.00000000E+00  0.00000000E+00  0.00000000E+00
  0.00000000E+00  0.00000000E+00  0.00000000E+00
  0.00000000E+00  0.00000000E+00  0.00000000E+00
  0.00000000E+00  0.00000000E+00  0.00000000E+00
  0.00000000E+00  0.00000000E+00  0.00000000E+00
  0.00000000E+00  0.00000000E+00  0.00000000E+00
  0.00000000E+00  0.00000000E+00  0.00000000E+00
  0.00000000E+00  0.00000000E+00  0.00000000E+00
  0.00000000E+00  0.00000000E+00  0.00000000E+00
  0.00000000E+00  0.00000000E+00  0.00000000E+00
