Pt48 C6 Br2 H4                          
    1.000000000000000     
    11.2480068000000006    0.0000000000000000    0.0000000000000000
     0.0000000000000000   11.2480068000000006    0.0000000000000000
     0.0000000000000000    0.0000000000000000   16.9169490799999984
   Pt   C    Br   H 
    48     6     2     4
Selective dynamics
Direct
  0.2494970770863034  0.9990095179535388  0.4104111667675099   T   T   T
  0.2506647253998082  0.2506507767018604  0.4110144065455401   T   T   T
  0.2531593841024247  0.5005496471111641  0.4127835008664533   T   T   T
  0.2530031967036876  0.7469941986078368  0.4129680651716185   T   T   T
  0.5000080301482939  0.0000021848466716  0.4099134636766024   T   T   T
  0.5005494531221615  0.2531489417125456  0.4127900077246949   T   T   T
  0.5000067712207539  0.4999934999656404  0.4143542680536427   T   T   T
  0.4994650656926751  0.7468500245854912  0.4127890308814983   T   T   T
  0.7505029419173397  0.0009768864698501  0.4104266149678182   T   T   T
  0.7469787624105280  0.2530015041065354  0.4129632250145647   T   T   T
  0.7468426086970368  0.4994608941626240  0.4127829228286188   T   T   T
  0.7493569314035184  0.7493575990659522  0.4110355607198244   T   T   T
  0.9999935964023479  0.9999845224162129  0.4104142374533950   T   T   T
  0.9990111051277921  0.2494918276735660  0.4104023717773586   T   T   T
  0.9999988574819128  0.5000173460169535  0.4099056857213199   T   T   T
  0.0009802489757789  0.7505105828377836  0.4104272287108870   T   T   T
  0.1240077209281125  0.1240069821523377  0.5260459982388639   T   T   T
  0.1227889330362331  0.3745301878896257  0.5260347045658023   T   T   T
  0.1235073053476086  0.6243209424381604  0.5263736874125655   T   T   T
  0.1252931624693332  0.8747175439085169  0.5263932450516364   T   T   T
  0.3745247117377772  0.1227876856462586  0.5260485172450302   T   T   T
  0.3684528048602402  0.3684542554446466  0.5315265935618712   T   T   T
  0.3726752841589231  0.6273246730882249  0.5387308240950688   T   T   T
  0.3756762872600063  0.8764992948236880  0.5263809475973389   T   T   T
  0.6243169712440988  0.1235024812399175  0.5263931291993131   T   T   T
  0.6273247474234296  0.3726637032914013  0.5387393798698525   T   T   T
  0.6315452174974041  0.6315394424382887  0.5315273022317655   T   T   T
  0.6254676536057033  0.8772142135187053  0.5260671953781610   T   T   T
  0.8747235401930595  0.1252902945421610  0.5264021198441924   T   T   T
  0.8765031326345039  0.3756803559076829  0.5263743074756135   T   T   T
  0.8772208239061143  0.6254683554188105  0.5260571584317617   T   T   T
  0.8760040125789956  0.8759973059923496  0.5260903992301635   T   T   T
  0.1250000008890453  0.1250000000000000  0.2955615682446648   F   F   F
  0.1250000008890453  0.3750000008890453  0.2955615682446648   F   F   F
  0.1250000008890453  0.6250000026671358  0.2955615682446648   F   F   F
  0.1250000008890453  0.8750000026671358  0.2955615682446648   F   F   F
  0.3750000017780906  0.1250000000000000  0.2955615682446648   F   F   F
  0.3750000017780906  0.3750000008890453  0.2955615682446648   F   F   F
  0.3750000017780906  0.6250000026671358  0.2955615682446648   F   F   F
  0.3750000017780906  0.8750000026671358  0.2955615682446648   F   F   F
  0.6250000026671358  0.1250000000000000  0.2955615682446648   F   F   F
  0.6250000026671358  0.3750000008890453  0.2955615682446648   F   F   F
  0.6250000026671358  0.6250000026671358  0.2955615682446648   F   F   F
  0.6250000026671358  0.8750000026671358  0.2955615682446648   F   F   F
  0.8750000035561882  0.1250000000000000  0.2955615682446648   F   F   F
  0.8750000026671358  0.3750000008890453  0.2955615682446648   F   F   F
  0.8750000035561882  0.6250000026671358  0.2955615682446648   F   F   F
  0.8750000035561882  0.8750000026671358  0.2955615682446648   F   F   F
  0.4072761394562789  0.4072933729232489  0.6469480612451406   T   T   T
  0.3749601989785134  0.5349910102886426  0.6530776082844980   T   T   T
  0.4650033420186901  0.6250819087304507  0.6530894430551726   T   T   T
  0.5927063059572646  0.5926830849493214  0.6469466643415842   T   T   T
  0.6250879788667021  0.4649555277445430  0.6530966361492716   T   T   T
  0.5349669750819928  0.3749571750648997  0.6530765103660556   T   T   T
  0.3071021921540833  0.3071491956769634  0.7149798205258620   T   T   T
  0.6928981810190535  0.6928400865287543  0.7149679625146206   T   T   T
  0.2883909872473183  0.5542209031127641  0.6793319032339795   T   T   T
  0.4458268938858510  0.7115753739771833  0.6793168434142345   T   T   T
  0.7115560783195463  0.4457736068631206  0.6793302248090498   T   T   T
  0.5541707481805673  0.2883640738229047  0.6793334535839861   T   T   T
 
  0.00000000E+00  0.00000000E+00  0.00000000E+00
  0.00000000E+00  0.00000000E+00  0.00000000E+00
  0.00000000E+00  0.00000000E+00  0.00000000E+00
  0.00000000E+00  0.00000000E+00  0.00000000E+00
  0.00000000E+00  0.00000000E+00  0.00000000E+00
  0.00000000E+00  0.00000000E+00  0.00000000E+00
  0.00000000E+00  0.00000000E+00  0.00000000E+00
  0.00000000E+00  0.00000000E+00  0.00000000E+00
  0.00000000E+00  0.00000000E+00  0.00000000E+00
  0.00000000E+00  0.00000000E+00  0.00000000E+00
  0.00000000E+00  0.00000000E+00  0.00000000E+00
  0.00000000E+00  0.00000000E+00  0.00000000E+00
  0.00000000E+00  0.00000000E+00  0.00000000E+00
  0.00000000E+00  0.00000000E+00  0.00000000E+00
  0.00000000E+00  0.00000000E+00  0.00000000E+00
  0.00000000E+00  0.00000000E+00  0.00000000E+00
  0.00000000E+00  0.00000000E+00  0.00000000E+00
  0.00000000E+00  0.00000000E+00  0.00000000E+00
  0.00000000E+00  0.00000000E+00  0.00000000E+00
  0.00000000E+00  0.00000000E+00  0.00000000E+00
  0.00000000E+00  0.00000000E+00  0.00000000E+00
  0.00000000E+00  0.00000000E+00  0.00000000E+00
  0.00000000E+00  0.00000000E+00  0.00000000E+00
  0.00000000E+00  0.00000000E+00  0.00000000E+00
  0.00000000E+00  0.00000000E+00  0.00000000E+00
  0.00000000E+00  0.00000000E+00  0.00000000E+00
  0.00000000E+00  0.00000000E+00  0.00000000E+00
  0.00000000E+00  0.00000000E+00  0.00000000E+00
  0.00000000E+00  0.00000000E+00  0.00000000E+00
  0.00000000E+00  0.00000000E+00  0.00000000E+00
  0.00000000E+00  0.00000000E+00  0.00000000E+00
  0.00000000E+00  0.00000000E+00  0.00000000E+00
  0.00000000E+00  0.00000000E+00  0.00000000E+00
  0.00000000E+00  0.00000000E+00  0.00000000E+00
  0.00000000E+00  0.00000000E+00  0.00000000E+00
  0.00000000E+00  0.00000000E+00  0.00000000E+00
  0.00000000E+00  0.00000000E+00  0.00000000E+00
  0.00000000E+00  0.00000000E+00  0.00000000E+00
  0.00000000E+00  0.00000000E+00  0.00000000E+00
  0.00000000E+00  0.00000000E+00  0.00000000E+00
  0.00000000E+00  0.00000000E+00  0.00000000E+00
  0.00000000E+00  0.00000000E+00  0.00000000E+00
  0.00000000E+00  0.00000000E+00  0.00000000E+00
  0.00000000E+00  0.00000000E+00  0.00000000E+00
  0.00000000E+00  0.00000000E+00  0.00000000E+00
  0.00000000E+00  0.00000000E+00  0.00000000E+00
  0.00000000E+00  0.00000000E+00  0.00000000E+00
  0.00000000E+00  0.00000000E+00  0.00000000E+00
  0.00000000E+00  0.00000000E+00  0.00000000E+00
  0.00000000E+00  0.00000000E+00  0.00000000E+00
  0.00000000E+00  0.00000000E+00  0.00000000E+00
  0.00000000E+00  0.00000000E+00  0.00000000E+00
  0.00000000E+00  0.00000000E+00  0.00000000E+00
  0.00000000E+00  0.00000000E+00  0.00000000E+00
  0.00000000E+00  0.00000000E+00  0.00000000E+00
  0.00000000E+00  0.00000000E+00  0.00000000E+00
  0.00000000E+00  0.00000000E+00  0.00000000E+00
  0.00000000E+00  0.00000000E+00  0.00000000E+00
  0.00000000E+00  0.00000000E+00  0.00000000E+00
  0.00000000E+00  0.00000000E+00  0.00000000E+00
