Au  C  H  F                             
    1.000000000000000     
    11.7981856999999994    0.0000000000000000    0.0000000000000000
     0.0000000000000000   11.7981856999999994    0.0000000000000000
     0.0000000000000000    0.0000000000000000   24.2569328400000011
   Au   C    H    F 
    64     6     4     2
Selective dynamics
Direct
  0.2500000004237961  0.0000000000000000  0.3091899561032889   F   F   F
  0.0000000000000000  0.5000000008475851  0.3091899561032889   F   F   F
  0.2500000004237961  0.2500000004237961  0.3091899561032889   F   F   F
  0.2500000004237961  0.5000000008475851  0.3091899561032889   F   F   F
  0.2500000004237961  0.7500000012713812  0.3091899561032889   F   F   F
  0.5000000008475851  0.0000000000000000  0.3091899561032889   F   F   F
  0.5000000008475851  0.2500000004237961  0.3091899561032889   F   F   F
  0.0000000000000000  0.7500000012713812  0.3091899561032889   F   F   F
  0.5000000008475851  0.5000000008475851  0.3091899561032889   F   F   F
  0.5000000008475851  0.7500000012713812  0.3091899561032889   F   F   F
  0.7500000012713812  0.0000000000000000  0.3091899561032889   F   F   F
  0.7500000012713812  0.2500000004237961  0.3091899561032889   F   F   F
  0.7500000012713812  0.5000000008475851  0.3091899561032889   F   F   F
  0.7500000012713812  0.7500000012713812  0.3091899561032889   F   F   F
  0.0000000000000000  0.0000000000000000  0.3091899561032889   F   F   F
  0.0000000000000000  0.2500000004237961  0.3091899561032889   F   F   F
  0.2491315382427954  0.9998710753089916  0.4805937179650339   T   T   T
  0.2497101606955875  0.2490268869282680  0.4805752507781342   T   T   T
  0.2492150608294613  0.5005010455971420  0.4806343487755558   T   T   T
  0.2490466576913941  0.7498537625314752  0.4806140553953919   T   T   T
  0.4999925395846837  0.0000049613515814  0.4810220345297628   T   T   T
  0.5006946432696723  0.2493149007498028  0.4806513404697901   T   T   T
  0.4999847707029465  0.5000128313447251  0.4804378814683082   T   T   T
  0.4993086964516961  0.7507131033588608  0.4806440639578718   T   T   T
  0.7508418831438051  0.0000406481354081  0.4805955279728467   T   T   T
  0.7506326611778092  0.2493567983689327  0.4806345315728416   T   T   T
  0.7506921461647266  0.4993263772015052  0.4806483172405790   T   T   T
  0.7506211726482585  0.7507165939056911  0.4806068706022809   T   T   T
 -0.0000048395233797  0.0000052288708104  0.4810345531279105   T   T   T
  0.9999326821029333  0.2491345581849665  0.4805939358051409   T   T   T
 -0.0000075599422160  0.5000027428688573  0.4810217612703195   T   T   T
 -0.0000846813492529  0.7508691054865750  0.4805912867736404   T   T   T
  0.1246994185194582  0.1247099744621528  0.5667178205635061   T   T   T
  0.1246191999957997  0.3747179092356311  0.5666832031016205   T   T   T
  0.1252954766632542  0.6253108851323363  0.5667174519301620   T   T   T
  0.1253201854159198  0.8746876837392680  0.5667257469943316   T   T   T
  0.3747300944118462  0.1246324037230164  0.5666910825810071   T   T   T
  0.3738079171321952  0.3740268186065541  0.5652489536750421   T   T   T
  0.3752495243808439  0.6252725501230744  0.5666721306014789   T   T   T
  0.3746660602897443  0.8746955256729981  0.5666977203403444   T   T   T
  0.6253129207462168  0.1253223125517893  0.5667080763058968   T   T   T
  0.6247419733511818  0.3752499298642452  0.5666682255865476   T   T   T
  0.6261209548582042  0.6261309671808493  0.5652658393961231   T   T   T
  0.6252674129766683  0.8753811735864313  0.5666915578169160   T   T   T
  0.8746852571146354  0.1253100608717642  0.5667341114544135   T   T   T
  0.8746867706136642  0.3746896074396018  0.5667100630564185   T   T   T
  0.8753693110635372  0.6253018360300791  0.5666857602812628   T   T   T
  0.8753002370702531  0.8753020102572915  0.5667199238568366   T   T   T
  0.1249999997881019  0.1250000006356942  0.3951713245539921   F   F   F
  0.1250000006356942  0.3750000010594832  0.3951713245539921   F   F   F
  0.1250000006356942  0.6250000006356942  0.3951713245539921   F   F   F
  0.1250000006356942  0.8750000019070754  0.3951713245539921   F   F   F
  0.3750000010594832  0.1250000006356942  0.3951713245539921   F   F   F
  0.3750000010594832  0.3750000010594832  0.3951713245539921   F   F   F
  0.3750000010594832  0.6250000006356942  0.3951713245539921   F   F   F
  0.3750000010594832  0.8750000019070754  0.3951713245539921   F   F   F
  0.6250000006356942  0.1250000006356942  0.3951713245539921   F   F   F
  0.6250000014832793  0.3750000010594832  0.3951713245539921   F   F   F
  0.6250000014832793  0.6250000006356942  0.3951713245539921   F   F   F
  0.6250000014832793  0.8750000019070754  0.3951713245539921   F   F   F
  0.8750000019070754  0.1250000006356942  0.3951713245539921   F   F   F
  0.8750000019070754  0.3750000010594832  0.3951713245539921   F   F   F
  0.8750000019070754  0.6250000006356942  0.3951713245539921   F   F   F
  0.8750000019070754  0.8750000019070754  0.3951713245539921   F   F   F
  0.4179933387245980  0.4179975150771855  0.6974597702723618   T   T   T
  0.3849422073808814  0.5313037341118927  0.6966680736831704   T   T   T
  0.4687857156200671  0.6151271028298573  0.6966485561588989   T   T   T
  0.5820856054570583  0.5820671217480807  0.6974429826511697   T   T   T
  0.6151083137005351  0.4687617058138441  0.6966420554098075   T   T   T
  0.5312805780606142  0.3849542380280613  0.6966613150700187   T   T   T
  0.2952236085981330  0.5531345652697283  0.6967798278903695   T   T   T
  0.4469870330399634  0.7048590025016085  0.6967640215024126   T   T   T
  0.7048579035466735  0.4469380896570807  0.6967456919874717   T   T   T
  0.5530921193539357  0.2952113579077596  0.6967700763992278   T   T   T
  0.3363294600899433  0.3363497645737281  0.6999897605320772   T   T   T
  0.6637331821843879  0.6637163029391965  0.6999495623483625   T   T   T
 
  0.00000000E+00  0.00000000E+00  0.00000000E+00
  0.00000000E+00  0.00000000E+00  0.00000000E+00
  0.00000000E+00  0.00000000E+00  0.00000000E+00
  0.00000000E+00  0.00000000E+00  0.00000000E+00
  0.00000000E+00  0.00000000E+00  0.00000000E+00
  0.00000000E+00  0.00000000E+00  0.00000000E+00
  0.00000000E+00  0.00000000E+00  0.00000000E+00
  0.00000000E+00  0.00000000E+00  0.00000000E+00
  0.00000000E+00  0.00000000E+00  0.00000000E+00
  0.00000000E+00  0.00000000E+00  0.00000000E+00
  0.00000000E+00  0.00000000E+00  0.00000000E+00
  0.00000000E+00  0.00000000E+00  0.00000000E+00
  0.00000000E+00  0.00000000E+00  0.00000000E+00
  0.00000000E+00  0.00000000E+00  0.00000000E+00
  0.00000000E+00  0.00000000E+00  0.00000000E+00
  0.00000000E+00  0.00000000E+00  0.00000000E+00
  0.00000000E+00  0.00000000E+00  0.00000000E+00
  0.00000000E+00  0.00000000E+00  0.00000000E+00
  0.00000000E+00  0.00000000E+00  0.00000000E+00
  0.00000000E+00  0.00000000E+00  0.00000000E+00
  0.00000000E+00  0.00000000E+00  0.00000000E+00
  0.00000000E+00  0.00000000E+00  0.00000000E+00
  0.00000000E+00  0.00000000E+00  0.00000000E+00
  0.00000000E+00  0.00000000E+00  0.00000000E+00
  0.00000000E+00  0.00000000E+00  0.00000000E+00
  0.00000000E+00  0.00000000E+00  0.00000000E+00
  0.00000000E+00  0.00000000E+00  0.00000000E+00
  0.00000000E+00  0.00000000E+00  0.00000000E+00
  0.00000000E+00  0.00000000E+00  0.00000000E+00
  0.00000000E+00  0.00000000E+00  0.00000000E+00
  0.00000000E+00  0.00000000E+00  0.00000000E+00
  0.00000000E+00  0.00000000E+00  0.00000000E+00
  0.00000000E+00  0.00000000E+00  0.00000000E+00
  0.00000000E+00  0.00000000E+00  0.00000000E+00
  0.00000000E+00  0.00000000E+00  0.00000000E+00
  0.00000000E+00  0.00000000E+00  0.00000000E+00
  0.00000000E+00  0.00000000E+00  0.00000000E+00
  0.00000000E+00  0.00000000E+00  0.00000000E+00
  0.00000000E+00  0.00000000E+00  0.00000000E+00
  0.00000000E+00  0.00000000E+00  0.00000000E+00
  0.00000000E+00  0.00000000E+00  0.00000000E+00
  0.00000000E+00  0.00000000E+00  0.00000000E+00
  0.00000000E+00  0.00000000E+00  0.00000000E+00
  0.00000000E+00  0.00000000E+00  0.00000000E+00
  0.00000000E+00  0.00000000E+00  0.00000000E+00
  0.00000000E+00  0.00000000E+00  0.00000000E+00
  0.00000000E+00  0.00000000E+00  0.00000000E+00
  0.00000000E+00  0.00000000E+00  0.00000000E+00
  0.00000000E+00  0.00000000E+00  0.00000000E+00
  0.00000000E+00  0.00000000E+00  0.00000000E+00
  0.00000000E+00  0.00000000E+00  0.00000000E+00
  0.00000000E+00  0.00000000E+00  0.00000000E+00
  0.00000000E+00  0.00000000E+00  0.00000000E+00
  0.00000000E+00  0.00000000E+00  0.00000000E+00
  0.00000000E+00  0.00000000E+00  0.00000000E+00
  0.00000000E+00  0.00000000E+00  0.00000000E+00
  0.00000000E+00  0.00000000E+00  0.00000000E+00
  0.00000000E+00  0.00000000E+00  0.00000000E+00
  0.00000000E+00  0.00000000E+00  0.00000000E+00
  0.00000000E+00  0.00000000E+00  0.00000000E+00
  0.00000000E+00  0.00000000E+00  0.00000000E+00
  0.00000000E+00  0.00000000E+00  0.00000000E+00
  0.00000000E+00  0.00000000E+00  0.00000000E+00
  0.00000000E+00  0.00000000E+00  0.00000000E+00
  0.00000000E+00  0.00000000E+00  0.00000000E+00
  0.00000000E+00  0.00000000E+00  0.00000000E+00
  0.00000000E+00  0.00000000E+00  0.00000000E+00
  0.00000000E+00  0.00000000E+00  0.00000000E+00
  0.00000000E+00  0.00000000E+00  0.00000000E+00
  0.00000000E+00  0.00000000E+00  0.00000000E+00
  0.00000000E+00  0.00000000E+00  0.00000000E+00
  0.00000000E+00  0.00000000E+00  0.00000000E+00
  0.00000000E+00  0.00000000E+00  0.00000000E+00
  0.00000000E+00  0.00000000E+00  0.00000000E+00
  0.00000000E+00  0.00000000E+00  0.00000000E+00
  0.00000000E+00  0.00000000E+00  0.00000000E+00
