Cu48 H4 C6 Cl2                          
    1.000000000000000     
    10.2424769999999992    0.0000000000000000    0.0000000000000000
    -5.1212390000000001    8.8702459999999999    0.0000000000000000
     0.0000000000000000    0.0000000000000000   17.1832680000000018
   Cu   H    C    Cl
    48     4     6     2
Selective dynamics
Direct
  0.0833330000000032  0.1666669999999968  0.3491769999999974   F   F   F
  0.0833330000000032  0.4166669999999968  0.3491769999999974   F   F   F
  0.0833330000000032  0.6666669999999968  0.3491769999999974   F   F   F
  0.0833330000000032  0.9166669999999968  0.3491769999999974   F   F   F
  0.3333330000000032  0.1666669999999968  0.3491769999999974   F   F   F
  0.3333330000000032  0.4166669999999968  0.3491769999999974   F   F   F
  0.3333330000000032  0.6666669999999968  0.3491769999999974   F   F   F
  0.3333330000000032  0.9166669999999968  0.3491769999999974   F   F   F
  0.5833330000000032  0.1666669999999968  0.3491769999999974   F   F   F
  0.5833330000000032  0.4166669999999968  0.3491769999999974   F   F   F
  0.5833330000000032  0.6666669999999968  0.3491769999999974   F   F   F
  0.5833330000000032  0.9166669999999968  0.3491769999999974   F   F   F
  0.8333330000000032  0.1666669999999968  0.3491769999999974   F   F   F
  0.8333330000000032  0.4166669999999968  0.3491769999999974   F   F   F
  0.8333330000000032  0.6666669999999968  0.3491769999999974   F   F   F
  0.8333330000000032  0.9166669999999968  0.3491769999999974   F   F   F
  0.9993484624119731  0.9997014710432879  0.5886607251809437   T   T   T
  0.9993396906602143  0.2496353520182311  0.5883132270032547   T   T   T
  0.9997115481146110  0.4999128818126195  0.5884011748938462   T   T   T
  0.9998280540510081  0.7501719157437208  0.5885398315984034   T   T   T
  0.2493153717741947  0.9997442451881327  0.5882444607927155   T   T   T
  0.2484628449997217  0.2488633551101742  0.5886251550408588   T   T   T
  0.2501617513011425  0.4998558784046452  0.5877105627599093   T   T   T
  0.2501079667320028  0.7502989666390505  0.5883772725297334   T   T   T
  0.4996336918066646  0.0000353883634503  0.5885659914877692   T   T   T
  0.4995856478124097  0.2504094040745670  0.5878193437969301   T   T   T
  0.5011438309180178  0.5015488257338845  0.5886096443919726   T   T   T
  0.5003736558515612  0.7506804329741783  0.5882753524864626   T   T   T
  0.7498520788036700  0.0001036892268829  0.5887164591119216   T   T   T
  0.7499433935714137  0.2503587687772963  0.5885744037957608   T   T   T
  0.7502513074023796  0.5006927735329540  0.5882442236184389   T   T   T
  0.7502861177774705  0.7506547511424628  0.5886406607795536   T   T   T
  0.1664761261808891  0.0833256406112071  0.4688319665702352   T   T   T
  0.1666009616292072  0.3330981962839914  0.4688393189763644   T   T   T
  0.1666501990726843  0.5833894187657762  0.4687326654240849   T   T   T
  0.1664394127824806  0.8331562258152303  0.4687458734593974   T   T   T
  0.4163716247514060  0.0832972858855499  0.4688071245301799   T   T   T
  0.4163668328987029  0.3336646439551529  0.4692522437801898   T   T   T
  0.4169141088336872  0.5834021625696266  0.4688937901736168   T   T   T
  0.4165907987904234  0.8333214124958062  0.4687515949807377   T   T   T
  0.6664978344112313  0.0835154724896299  0.4688507378330655   T   T   T
  0.6666927097886628  0.3336190240909147  0.4687854066681254   T   T   T
  0.6666537316864662  0.5835246372044764  0.4688650344582257   T   T   T
  0.6667919909720439  0.8335386985540936  0.4687836496024076   T   T   T
  0.9164454956840657  0.0832049804940027  0.4687231582615752   T   T   T
  0.9166559331034918  0.3333776231129022  0.4686714437211208   T   T   T
  0.9168434158993009  0.5835804426357711  0.4687250186499838   T   T   T
  0.9166254902124393  0.8333661698949371  0.4687718557628813   T   T   T
  0.5158999420181587  0.6562585445922622  0.7534912132319533   T   T   T
  0.6566628282309139  0.5155509525273416  0.7536068019985152   T   T   T
  0.2344504721688878  0.0933635075359120  0.7536096506007226   T   T   T
  0.0936959748150770  0.2340890735244301  0.7534912974762804   T   T   T
  0.2968721855224103  0.4531733514576928  0.7600332757228117   T   T   T
  0.4545235489354127  0.5331193036533008  0.7555208924131378   T   T   T
  0.5334855954396716  0.4541524717104934  0.7555933478239112   T   T   T
  0.4534601302655830  0.2964898637869808  0.7601533365451303   T   T   T
  0.2958697423480459  0.2164982776085935  0.7555961243673011   T   T   T
  0.2169084797194927  0.2954609526995000  0.7555223490061991   T   T   T
  0.1999827024589180  0.5500089982976988  0.7706788569254712   T   T   T
  0.5503766966953947  0.1996315041632855  0.7709640199309646   T   T   T
 
  0.00000000E+00  0.00000000E+00  0.00000000E+00
  0.00000000E+00  0.00000000E+00  0.00000000E+00
  0.00000000E+00  0.00000000E+00  0.00000000E+00
  0.00000000E+00  0.00000000E+00  0.00000000E+00
  0.00000000E+00  0.00000000E+00  0.00000000E+00
  0.00000000E+00  0.00000000E+00  0.00000000E+00
  0.00000000E+00  0.00000000E+00  0.00000000E+00
  0.00000000E+00  0.00000000E+00  0.00000000E+00
  0.00000000E+00  0.00000000E+00  0.00000000E+00
  0.00000000E+00  0.00000000E+00  0.00000000E+00
  0.00000000E+00  0.00000000E+00  0.00000000E+00
  0.00000000E+00  0.00000000E+00  0.00000000E+00
  0.00000000E+00  0.00000000E+00  0.00000000E+00
  0.00000000E+00  0.00000000E+00  0.00000000E+00
  0.00000000E+00  0.00000000E+00  0.00000000E+00
  0.00000000E+00  0.00000000E+00  0.00000000E+00
  0.00000000E+00  0.00000000E+00  0.00000000E+00
  0.00000000E+00  0.00000000E+00  0.00000000E+00
  0.00000000E+00  0.00000000E+00  0.00000000E+00
  0.00000000E+00  0.00000000E+00  0.00000000E+00
  0.00000000E+00  0.00000000E+00  0.00000000E+00
  0.00000000E+00  0.00000000E+00  0.00000000E+00
  0.00000000E+00  0.00000000E+00  0.00000000E+00
  0.00000000E+00  0.00000000E+00  0.00000000E+00
  0.00000000E+00  0.00000000E+00  0.00000000E+00
  0.00000000E+00  0.00000000E+00  0.00000000E+00
  0.00000000E+00  0.00000000E+00  0.00000000E+00
  0.00000000E+00  0.00000000E+00  0.00000000E+00
  0.00000000E+00  0.00000000E+00  0.00000000E+00
  0.00000000E+00  0.00000000E+00  0.00000000E+00
  0.00000000E+00  0.00000000E+00  0.00000000E+00
  0.00000000E+00  0.00000000E+00  0.00000000E+00
  0.00000000E+00  0.00000000E+00  0.00000000E+00
  0.00000000E+00  0.00000000E+00  0.00000000E+00
  0.00000000E+00  0.00000000E+00  0.00000000E+00
  0.00000000E+00  0.00000000E+00  0.00000000E+00
  0.00000000E+00  0.00000000E+00  0.00000000E+00
  0.00000000E+00  0.00000000E+00  0.00000000E+00
  0.00000000E+00  0.00000000E+00  0.00000000E+00
  0.00000000E+00  0.00000000E+00  0.00000000E+00
  0.00000000E+00  0.00000000E+00  0.00000000E+00
  0.00000000E+00  0.00000000E+00  0.00000000E+00
  0.00000000E+00  0.00000000E+00  0.00000000E+00
  0.00000000E+00  0.00000000E+00  0.00000000E+00
  0.00000000E+00  0.00000000E+00  0.00000000E+00
  0.00000000E+00  0.00000000E+00  0.00000000E+00
  0.00000000E+00  0.00000000E+00  0.00000000E+00
  0.00000000E+00  0.00000000E+00  0.00000000E+00
  0.00000000E+00  0.00000000E+00  0.00000000E+00
  0.00000000E+00  0.00000000E+00  0.00000000E+00
  0.00000000E+00  0.00000000E+00  0.00000000E+00
  0.00000000E+00  0.00000000E+00  0.00000000E+00
  0.00000000E+00  0.00000000E+00  0.00000000E+00
  0.00000000E+00  0.00000000E+00  0.00000000E+00
  0.00000000E+00  0.00000000E+00  0.00000000E+00
  0.00000000E+00  0.00000000E+00  0.00000000E+00
  0.00000000E+00  0.00000000E+00  0.00000000E+00
  0.00000000E+00  0.00000000E+00  0.00000000E+00
  0.00000000E+00  0.00000000E+00  0.00000000E+00
  0.00000000E+00  0.00000000E+00  0.00000000E+00
