Ir48 C4 N2 F4                           
    1.000000000000000     
    10.9622135000000007    0.0000000000000000    0.0000000000000000
     0.0000000000000000   10.9622135000000007    0.0000000000000000
     0.0000000000000000    0.0000000000000000   16.7325000400000015
   Ir   C    N    F 
    48     4     2     4
Selective dynamics
Direct
 -0.0008812741111837  0.2494277829609749  0.4094605992469869   T   T   T
 -0.0000005992115909  0.4999964959316202  0.4094428345349254   T   T   T
  0.0008803094141940  0.7505711157628573  0.4094573557535424   T   T   T
 -0.0000000516608224  0.0000001547376988  0.4094404503969659   T   T   T
  0.2505766660769228  0.2505796331348724  0.4102768715363516   T   T   T
  0.2507720789958445  0.4998261966514570  0.4102979867818469   T   T   T
  0.2527624003477065  0.7472392231299410  0.4119251938611592   T   T   T
  0.2494270640879172 -0.0008806485643926  0.4094556143540597   T   T   T
  0.4998296231426940  0.2507731423602144  0.4102966710647564   T   T   T
  0.5000033285121273  0.4999994504154003  0.4111261713426959   T   T   T
  0.5001750407197918  0.7492272228041275  0.4102988948348215   T   T   T
  0.5000003636212105 -0.0000027898107218  0.4094393912639319   T   T   T
  0.7472442711082546  0.2527602331495125  0.4119265452550377   T   T   T
  0.7492295277892395  0.5001697070965661  0.4102987748973905   T   T   T
  0.7494215514918883  0.7494195166802692  0.4102779486415530   T   T   T
  0.7505762258053092  0.0008801584254723  0.4094582110170175   T   T   T
  0.1249319564984811  0.1249265887770452  0.5211259875625559   T   T   T
  0.1226031928995452  0.3745307359248787  0.5210145690692213   T   T   T
  0.1233704446024673  0.6246966143707450  0.5219103852726632   T   T   T
  0.1248775971361503  0.8751229997468329  0.5212221063557381   T   T   T
  0.3745294647009797  0.1226020778440381  0.5210164749007895   T   T   T
  0.3719428293153377  0.3719405850279661  0.5228992210915953   T   T   T
  0.3740978377695072  0.6259053979926381  0.5313464976785840   T   T   T
  0.3753026418893476  0.8766280331486402  0.5219112771935727   T   T   T
  0.6246968124457928  0.1233680237550774  0.5219121968088880   T   T   T
  0.6259025746399545  0.3740990499215988  0.5313501517332623   T   T   T
  0.6280648786750639  0.6280626702058713  0.5228953247787146   T   T   T
  0.6254692654503455  0.8773966511850656  0.5210133206478427   T   T   T
  0.8751273006896931  0.1248735474285696  0.5212217193353527   T   T   T
  0.8766322479492550  0.3753038455800500  0.5219099275428325   T   T   T
  0.8774005059265811  0.6254674841250980  0.5210173028444480   T   T   T
  0.8750740184284586  0.8750668539571680  0.5211258240875931   T   T   T
  0.1250000002280558  0.1250000002280558  0.2988196616194330   F   F   F
  0.1250000002280558  0.3749999997719442  0.2988196616194330   F   F   F
  0.1250000002280558  0.6249999993158326  0.2988196616194330   F   F   F
  0.1250000002280558  0.8749999988597210  0.2988196616194330   F   F   F
  0.3749999997719442  0.1250000002280558  0.2988196616194330   F   F   F
  0.3749999997719442  0.3749999997719442  0.2988196616194330   F   F   F
  0.3749999997719442  0.6249999993158326  0.2988196616194330   F   F   F
  0.3749999997719442  0.8749999988597210  0.2988196616194330   F   F   F
  0.6249999993158326  0.1250000002280558  0.2988196616194330   F   F   F
  0.6249999993158326  0.3749999997719442  0.2988196616194330   F   F   F
  0.6249999993158326  0.6249999993158326  0.2988196616194330   F   F   F
  0.6249999993158326  0.8749999988597210  0.2988196616194330   F   F   F
  0.8749999988597210  0.1250000002280558  0.2988196616194330   F   F   F
  0.8749999988597210  0.3749999997719442  0.2988196616194330   F   F   F
  0.8749999988597210  0.6249999993158326  0.2988196616194330   F   F   F
  0.8749999988597210  0.8749999988597210  0.2988196616194330   F   F   F
  0.5300998702888952  0.3764348538952039  0.6471381663619121   T   T   T
  0.6235797536732798  0.4698949713029815  0.6471421486021958   T   T   T
  0.4699291111950419  0.6235926972200351  0.6471389479907727   T   T   T
  0.3764086110641098  0.5300959188296005  0.6471395213784463   T   T   T
  0.5936768431481476  0.5936598356521406  0.6425417929803273   T   T   T
  0.4063238940662989  0.4063406058854561  0.6425273435488311   T   T   T
  0.2727526497175642  0.5512016155451260  0.6906625031969800   T   T   T
  0.4488238538745396  0.7272726710204955  0.6906629941619905   T   T   T
  0.5511675912964222  0.2727492368054050  0.6906521361064176   T   T   T
  0.7272337510529922  0.4488080088235460  0.6906604533967003   T   T   T
 
  0.00000000E+00  0.00000000E+00  0.00000000E+00
  0.00000000E+00  0.00000000E+00  0.00000000E+00
  0.00000000E+00  0.00000000E+00  0.00000000E+00
  0.00000000E+00  0.00000000E+00  0.00000000E+00
  0.00000000E+00  0.00000000E+00  0.00000000E+00
  0.00000000E+00  0.00000000E+00  0.00000000E+00
  0.00000000E+00  0.00000000E+00  0.00000000E+00
  0.00000000E+00  0.00000000E+00  0.00000000E+00
  0.00000000E+00  0.00000000E+00  0.00000000E+00
  0.00000000E+00  0.00000000E+00  0.00000000E+00
  0.00000000E+00  0.00000000E+00  0.00000000E+00
  0.00000000E+00  0.00000000E+00  0.00000000E+00
  0.00000000E+00  0.00000000E+00  0.00000000E+00
  0.00000000E+00  0.00000000E+00  0.00000000E+00
  0.00000000E+00  0.00000000E+00  0.00000000E+00
  0.00000000E+00  0.00000000E+00  0.00000000E+00
  0.00000000E+00  0.00000000E+00  0.00000000E+00
  0.00000000E+00  0.00000000E+00  0.00000000E+00
  0.00000000E+00  0.00000000E+00  0.00000000E+00
  0.00000000E+00  0.00000000E+00  0.00000000E+00
  0.00000000E+00  0.00000000E+00  0.00000000E+00
  0.00000000E+00  0.00000000E+00  0.00000000E+00
  0.00000000E+00  0.00000000E+00  0.00000000E+00
  0.00000000E+00  0.00000000E+00  0.00000000E+00
  0.00000000E+00  0.00000000E+00  0.00000000E+00
  0.00000000E+00  0.00000000E+00  0.00000000E+00
  0.00000000E+00  0.00000000E+00  0.00000000E+00
  0.00000000E+00  0.00000000E+00  0.00000000E+00
  0.00000000E+00  0.00000000E+00  0.00000000E+00
  0.00000000E+00  0.00000000E+00  0.00000000E+00
  0.00000000E+00  0.00000000E+00  0.00000000E+00
  0.00000000E+00  0.00000000E+00  0.00000000E+00
  0.00000000E+00  0.00000000E+00  0.00000000E+00
  0.00000000E+00  0.00000000E+00  0.00000000E+00
  0.00000000E+00  0.00000000E+00  0.00000000E+00
  0.00000000E+00  0.00000000E+00  0.00000000E+00
  0.00000000E+00  0.00000000E+00  0.00000000E+00
  0.00000000E+00  0.00000000E+00  0.00000000E+00
  0.00000000E+00  0.00000000E+00  0.00000000E+00
  0.00000000E+00  0.00000000E+00  0.00000000E+00
  0.00000000E+00  0.00000000E+00  0.00000000E+00
  0.00000000E+00  0.00000000E+00  0.00000000E+00
  0.00000000E+00  0.00000000E+00  0.00000000E+00
  0.00000000E+00  0.00000000E+00  0.00000000E+00
  0.00000000E+00  0.00000000E+00  0.00000000E+00
  0.00000000E+00  0.00000000E+00  0.00000000E+00
  0.00000000E+00  0.00000000E+00  0.00000000E+00
  0.00000000E+00  0.00000000E+00  0.00000000E+00
  0.00000000E+00  0.00000000E+00  0.00000000E+00
  0.00000000E+00  0.00000000E+00  0.00000000E+00
  0.00000000E+00  0.00000000E+00  0.00000000E+00
  0.00000000E+00  0.00000000E+00  0.00000000E+00
  0.00000000E+00  0.00000000E+00  0.00000000E+00
  0.00000000E+00  0.00000000E+00  0.00000000E+00
  0.00000000E+00  0.00000000E+00  0.00000000E+00
  0.00000000E+00  0.00000000E+00  0.00000000E+00
  0.00000000E+00  0.00000000E+00  0.00000000E+00
  0.00000000E+00  0.00000000E+00  0.00000000E+00
