Ag  C  H Br                             
    1.000000000000000     
    11.7702790000000004    0.0000000000000000    0.0000000000000000
     0.0000000000000000   16.6456881000000010    0.0000000000000000
     0.0000000000000000    0.0000000000000000   22.4138546100000013
   Ag   C    H    Br
    64     6     2     4
Selective dynamics
Direct
  0.0000000000000000  0.2500000003003748  0.3346144663869595   F   F   F
  0.7499999974512050  0.7500000015018884  0.3346144663869595   F   F   F
  0.0000000000000000  0.5000000012015136  0.3346144663869595   F   F   F
  0.0000000000000000  0.7500000015018884  0.3346144663869595   F   F   F
  0.0000000000000000  0.0000000000000000  0.3346144663869595   F   F   F
  0.2499999991504041  0.2500000003003748  0.3346144663869595   F   F   F
  0.2499999991504041  0.5000000012015136  0.3346144663869595   F   F   F
  0.7499999974512050  0.0000000000000000  0.3346144663869595   F   F   F
  0.2499999991504041  0.7500000015018884  0.3346144663869595   F   F   F
  0.2499999991504041  0.0000000000000000  0.3346144663869595   F   F   F
  0.4999999983008081  0.2500000003003748  0.3346144663869595   F   F   F
  0.4999999983008081  0.5000000012015136  0.3346144663869595   F   F   F
  0.4999999983008081  0.7500000015018884  0.3346144663869595   F   F   F
  0.4999999983008081  0.0000000000000000  0.3346144663869595   F   F   F
  0.7499999974512050  0.2500000003003748  0.3346144663869595   F   F   F
  0.7499999974512050  0.5000000012015136  0.3346144663869595   F   F   F
  0.0002872735132915  0.2501396548871675  0.4628564871964888   T   T   T
 -0.0000154517274477  0.4999944832658265  0.4625910927428490   T   T   T
 -0.0002989178741653  0.7498737515504449  0.4628615856460335   T   T   T
 -0.0000007238706556  0.0000138746419435  0.4626370266976610   T   T   T
  0.2500981951932122  0.2502186300583432  0.4628831085786115   T   T   T
  0.2503278383803919  0.5000897126215775  0.4621655803025458   T   T   T
  0.2492620838573736  0.7502327246205088  0.4623492584074882   T   T   T
  0.2499522708205038  0.0000273139895508  0.4626408187193637   T   T   T
  0.4996815294004056  0.2497015089521874  0.4623596397871471   T   T   T
  0.4999924402988307  0.5000047329006353  0.4625950894847705   T   T   T
  0.5003052525288502  0.7503132496161410  0.4623594626755442   T   T   T
  0.5000059295695761  0.0000095819574822  0.4626262937040431   T   T   T
  0.7507207465765144  0.2497870249965608  0.4623478164189968   T   T   T
  0.7496382081258985  0.4999036134290388  0.4621772133615069   T   T   T
  0.7499193279085956  0.7497978684175406  0.4628886815999421   T   T   T
  0.7500550911535219  0.9999916311624432  0.4626391726378281   T   T   T
  0.1250272669671999  0.1249719214003213  0.5213257875269924   T   T   T
  0.1255686303446286  0.3755744524124805  0.5215978938091013   T   T   T
  0.1241492828592612  0.6245988972638210  0.5214425992196994   T   T   T
  0.1248802689885354  0.8750293750446504  0.5213998871338952   T   T   T
  0.3750765396586641  0.1249930461976385  0.5213361789684944   T   T   T
  0.3752478145951589  0.3752743090181647  0.5213787839316548   T   T   T
  0.3746235189336131  0.6256431937584832  0.5202448425138710   T   T   T
  0.3748166075116919  0.8750013792606302  0.5212773164048718   T   T   T
  0.6252012942189948  0.1250117491725087  0.5212786842918198   T   T   T
  0.6253187849442500  0.3743608661353588  0.5202593584846263   T   T   T
  0.6247399343443640  0.6247446801322897  0.5213555182217398   T   T   T
  0.6249292315482464  0.8750194181911535  0.5213364501671851   T   T   T
  0.8751171039687843  0.1249937608714878  0.5214001451213504   T   T   T
  0.8758206785385521  0.3753990675155039  0.5214476396931450   T   T   T
  0.8744384121870307  0.6243883563942836  0.5215993208014387   T   T   T
  0.8749741939558634  0.8750514579366263  0.5213274393531693   T   T   T
  0.1249999995752020  0.1250000004505694  0.4002562266107219   F   F   F
  0.1249999995752020  0.3750000007509442  0.4002562266107219   F   F   F
  0.1249999995752020  0.6250000016520829  0.4002562266107219   F   F   F
  0.1249999995752020  0.8750000019524578  0.4002562266107219   F   F   F
  0.3749999987256061  0.1250000004505694  0.4002562266107219   F   F   F
  0.3749999987256061  0.3750000007509442  0.4002562266107219   F   F   F
  0.3749999987256061  0.6250000016520829  0.4002562266107219   F   F   F
  0.3749999987256061  0.8750000019524578  0.4002562266107219   F   F   F
  0.6249999978760030  0.1250000004505694  0.4002562266107219   F   F   F
  0.6249999978760030  0.3750000007509442  0.4002562266107219   F   F   F
  0.6249999978760030  0.6250000016520829  0.4002562266107219   F   F   F
  0.6249999978760030  0.8750000019524578  0.4002562266107219   F   F   F
  0.8749999970264071  0.1250000004505694  0.4002562266107219   F   F   F
  0.8749999970264071  0.3750000007509442  0.4002562266107219   F   F   F
  0.8749999970264071  0.6250000016520829  0.4002562266107219   F   F   F
  0.8749999970264071  0.8750000019524578  0.4002562266107219   F   F   F
  0.4319343809515980  0.4314084063203986  0.6523715145057345   T   T   T
  0.3812530245649525  0.5073714597252110  0.6523118504255994   T   T   T
  0.4495972292564611  0.5761431458557434  0.6530432055267396   T   T   T
  0.5680536394023052  0.5688893567112053  0.6521980169023397   T   T   T
  0.6187482380849323  0.4929179382881864  0.6523001118793779   T   T   T
  0.5503637534936010  0.4241404934933130  0.6531548554693000   T   T   T
  0.3788827225951925  0.3778040673847654  0.6537967234260451   T   T   T
  0.6208292084378956  0.6226770770013957  0.6532447906338816   T   T   T
  0.2207849151629317  0.5125971473143122  0.6482431543560940   T   T   T
  0.3870443849094071  0.6811158881641890  0.6538274002633653   T   T   T
  0.7791645937173303  0.4875028765859103  0.6483421682889166   T   T   T
  0.6129011018325002  0.3190644090252612  0.6537763565497205   T   T   T
 
  0.00000000E+00  0.00000000E+00  0.00000000E+00
  0.00000000E+00  0.00000000E+00  0.00000000E+00
  0.00000000E+00  0.00000000E+00  0.00000000E+00
  0.00000000E+00  0.00000000E+00  0.00000000E+00
  0.00000000E+00  0.00000000E+00  0.00000000E+00
  0.00000000E+00  0.00000000E+00  0.00000000E+00
  0.00000000E+00  0.00000000E+00  0.00000000E+00
  0.00000000E+00  0.00000000E+00  0.00000000E+00
  0.00000000E+00  0.00000000E+00  0.00000000E+00
  0.00000000E+00  0.00000000E+00  0.00000000E+00
  0.00000000E+00  0.00000000E+00  0.00000000E+00
  0.00000000E+00  0.00000000E+00  0.00000000E+00
  0.00000000E+00  0.00000000E+00  0.00000000E+00
  0.00000000E+00  0.00000000E+00  0.00000000E+00
  0.00000000E+00  0.00000000E+00  0.00000000E+00
  0.00000000E+00  0.00000000E+00  0.00000000E+00
  0.00000000E+00  0.00000000E+00  0.00000000E+00
  0.00000000E+00  0.00000000E+00  0.00000000E+00
  0.00000000E+00  0.00000000E+00  0.00000000E+00
  0.00000000E+00  0.00000000E+00  0.00000000E+00
  0.00000000E+00  0.00000000E+00  0.00000000E+00
  0.00000000E+00  0.00000000E+00  0.00000000E+00
  0.00000000E+00  0.00000000E+00  0.00000000E+00
  0.00000000E+00  0.00000000E+00  0.00000000E+00
  0.00000000E+00  0.00000000E+00  0.00000000E+00
  0.00000000E+00  0.00000000E+00  0.00000000E+00
  0.00000000E+00  0.00000000E+00  0.00000000E+00
  0.00000000E+00  0.00000000E+00  0.00000000E+00
  0.00000000E+00  0.00000000E+00  0.00000000E+00
  0.00000000E+00  0.00000000E+00  0.00000000E+00
  0.00000000E+00  0.00000000E+00  0.00000000E+00
  0.00000000E+00  0.00000000E+00  0.00000000E+00
  0.00000000E+00  0.00000000E+00  0.00000000E+00
  0.00000000E+00  0.00000000E+00  0.00000000E+00
  0.00000000E+00  0.00000000E+00  0.00000000E+00
  0.00000000E+00  0.00000000E+00  0.00000000E+00
  0.00000000E+00  0.00000000E+00  0.00000000E+00
  0.00000000E+00  0.00000000E+00  0.00000000E+00
  0.00000000E+00  0.00000000E+00  0.00000000E+00
  0.00000000E+00  0.00000000E+00  0.00000000E+00
  0.00000000E+00  0.00000000E+00  0.00000000E+00
  0.00000000E+00  0.00000000E+00  0.00000000E+00
  0.00000000E+00  0.00000000E+00  0.00000000E+00
  0.00000000E+00  0.00000000E+00  0.00000000E+00
  0.00000000E+00  0.00000000E+00  0.00000000E+00
  0.00000000E+00  0.00000000E+00  0.00000000E+00
  0.00000000E+00  0.00000000E+00  0.00000000E+00
  0.00000000E+00  0.00000000E+00  0.00000000E+00
  0.00000000E+00  0.00000000E+00  0.00000000E+00
  0.00000000E+00  0.00000000E+00  0.00000000E+00
  0.00000000E+00  0.00000000E+00  0.00000000E+00
  0.00000000E+00  0.00000000E+00  0.00000000E+00
  0.00000000E+00  0.00000000E+00  0.00000000E+00
  0.00000000E+00  0.00000000E+00  0.00000000E+00
  0.00000000E+00  0.00000000E+00  0.00000000E+00
  0.00000000E+00  0.00000000E+00  0.00000000E+00
  0.00000000E+00  0.00000000E+00  0.00000000E+00
  0.00000000E+00  0.00000000E+00  0.00000000E+00
  0.00000000E+00  0.00000000E+00  0.00000000E+00
  0.00000000E+00  0.00000000E+00  0.00000000E+00
  0.00000000E+00  0.00000000E+00  0.00000000E+00
  0.00000000E+00  0.00000000E+00  0.00000000E+00
  0.00000000E+00  0.00000000E+00  0.00000000E+00
  0.00000000E+00  0.00000000E+00  0.00000000E+00
  0.00000000E+00  0.00000000E+00  0.00000000E+00
  0.00000000E+00  0.00000000E+00  0.00000000E+00
  0.00000000E+00  0.00000000E+00  0.00000000E+00
  0.00000000E+00  0.00000000E+00  0.00000000E+00
  0.00000000E+00  0.00000000E+00  0.00000000E+00
  0.00000000E+00  0.00000000E+00  0.00000000E+00
  0.00000000E+00  0.00000000E+00  0.00000000E+00
  0.00000000E+00  0.00000000E+00  0.00000000E+00
  0.00000000E+00  0.00000000E+00  0.00000000E+00
  0.00000000E+00  0.00000000E+00  0.00000000E+00
  0.00000000E+00  0.00000000E+00  0.00000000E+00
  0.00000000E+00  0.00000000E+00  0.00000000E+00
