Ag  C  N Br                             
    1.000000000000000     
    11.7702790000000004    0.0000000000000000    0.0000000000000000
     0.0000000000000000   16.6456881000000010    0.0000000000000000
     0.0000000000000000    0.0000000000000000   22.4138546100000013
   Ag   C    N    Br
    64     4     2     4
Selective dynamics
Direct
  0.0000000000000000  0.2500000003003748  0.3346144663869595   F   F   F
  0.7499999974512050  0.7500000015018884  0.3346144663869595   F   F   F
  0.0000000000000000  0.5000000012015136  0.3346144663869595   F   F   F
  0.0000000000000000  0.7500000015018884  0.3346144663869595   F   F   F
  0.0000000000000000  0.0000000000000000  0.3346144663869595   F   F   F
  0.2499999991504041  0.2500000003003748  0.3346144663869595   F   F   F
  0.2499999991504041  0.5000000012015136  0.3346144663869595   F   F   F
  0.7499999974512050  0.0000000000000000  0.3346144663869595   F   F   F
  0.2499999991504041  0.7500000015018884  0.3346144663869595   F   F   F
  0.2499999991504041  0.0000000000000000  0.3346144663869595   F   F   F
  0.4999999983008081  0.2500000003003748  0.3346144663869595   F   F   F
  0.4999999983008081  0.5000000012015136  0.3346144663869595   F   F   F
  0.4999999983008081  0.7500000015018884  0.3346144663869595   F   F   F
  0.4999999983008081  0.0000000000000000  0.3346144663869595   F   F   F
  0.7499999974512050  0.2500000003003748  0.3346144663869595   F   F   F
  0.7499999974512050  0.5000000012015136  0.3346144663869595   F   F   F
  0.0004137805900615  0.2499041969099189  0.4627462788508860   T   T   T
 -0.0000647971116831  0.4999792823794438  0.4625381550851522   T   T   T
  0.9995552865059455  0.7500983257886013  0.4627553779642087   T   T   T
 -0.0000533287993274  0.0000179095772519  0.4626656182046018   T   T   T
  0.2499525690788822  0.2500467007780474  0.4626080283819776   T   T   T
  0.2504584154643114  0.4999968694535061  0.4619794862085536   T   T   T
  0.2489926577001423  0.7506099582497813  0.4620937433372660   T   T   T
  0.2499598187793932  0.0000132453645612  0.4626804598429542   T   T   T
  0.4995027293388919  0.2494720920490087  0.4620503563617974   T   T   T
  0.5000264880829783  0.4999766617130509  0.4627577331017545   T   T   T
  0.5005041925245403  0.7505303870372967  0.4620471463806090   T   T   T
  0.5000328788387306  0.0000193929137521  0.4626807253359271   T   T   T
  0.7509859964432918  0.2493839181624442  0.4620544051328737   T   T   T
  0.7495155430396900  0.4999478536270485  0.4620007010678180   T   T   T
  0.7500290912168985  0.7499603287993943  0.4625972074237280   T   T   T
  0.7500155041935685  0.0000404393290303  0.4627050216174683   T   T   T
  0.1249875887622110  0.1248360521866827  0.5213329921604205   T   T   T
  0.1253674722708149  0.3753576342358654  0.5214512445913599   T   T   T
  0.1238688088458944  0.6250775430225766  0.5211680576597564   T   T   T
  0.1247502008492377  0.8752108192643707  0.5214119373739196   T   T   T
  0.3749996164975067  0.1249096402649373  0.5212948233905590   T   T   T
  0.3748880910171566  0.3744461165060478  0.5217323166295625   T   T   T
  0.3740498015960716  0.6266495242691850  0.5198235235866525   T   T   T
  0.3748713802685886  0.8750370220703305  0.5212058491753898   T   T   T
  0.6250738234932944  0.1249671004456416  0.5212479325244602   T   T   T
  0.6258670610069940  0.3733371107268599  0.5198791377394542   T   T   T
  0.6251054454976198  0.6255593136129378  0.5217137029603988   T   T   T
  0.6249757490763832  0.8750926947725034  0.5212778621983710   T   T   T
  0.8752696314030446  0.1247981998192363  0.5214743603324009   T   T   T
  0.8761305014342616  0.3749000121022690  0.5212194347470247   T   T   T
  0.8746084661355257  0.6246521141868904  0.5214254752679608   T   T   T
  0.8749663686840712  0.8751739784219668  0.5213141237873858   T   T   T
  0.1249999995752020  0.1250000004505694  0.4002562266107219   F   F   F
  0.1249999995752020  0.3750000007509442  0.4002562266107219   F   F   F
  0.1249999995752020  0.6250000016520829  0.4002562266107219   F   F   F
  0.1249999995752020  0.8750000019524578  0.4002562266107219   F   F   F
  0.3749999987256061  0.1250000004505694  0.4002562266107219   F   F   F
  0.3749999987256061  0.3750000007509442  0.4002562266107219   F   F   F
  0.3749999987256061  0.6250000016520829  0.4002562266107219   F   F   F
  0.3749999987256061  0.8750000019524578  0.4002562266107219   F   F   F
  0.6249999978760030  0.1250000004505694  0.4002562266107219   F   F   F
  0.6249999978760030  0.3750000007509442  0.4002562266107219   F   F   F
  0.6249999978760030  0.6250000016520829  0.4002562266107219   F   F   F
  0.6249999978760030  0.8750000019524578  0.4002562266107219   F   F   F
  0.8749999970264071  0.1250000004505694  0.4002562266107219   F   F   F
  0.8749999970264071  0.3750000007509442  0.4002562266107219   F   F   F
  0.8749999970264071  0.6250000016520829  0.4002562266107219   F   F   F
  0.8749999970264071  0.8750000019524578  0.4002562266107219   F   F   F
  0.4561656982176288  0.5738520075439817  0.6460753487512378   T   T   T
  0.3859577588374336  0.5059276125920883  0.6441591685370961   T   T   T
  0.5439292650604574  0.4259369002879398  0.6462556677555614   T   T   T
  0.6141121427337705  0.4939209963248181  0.6441943236998615   T   T   T
  0.4310646423028632  0.4325329930634245  0.6433746246224781   T   T   T
  0.5690572965921481  0.5673080350744845  0.6432593628637775   T   T   T
  0.7749643121254333  0.4880763836387324  0.6385652904368362   T   T   T
  0.6023014969140432  0.3199927720001210  0.6522977395395592   T   T   T
  0.3977023259329948  0.6798006366281220  0.6517734396350857   T   T   T
  0.2251213303324879  0.5118954405615368  0.6384052822306305   T   T   T
 
  0.00000000E+00  0.00000000E+00  0.00000000E+00
  0.00000000E+00  0.00000000E+00  0.00000000E+00
  0.00000000E+00  0.00000000E+00  0.00000000E+00
  0.00000000E+00  0.00000000E+00  0.00000000E+00
  0.00000000E+00  0.00000000E+00  0.00000000E+00
  0.00000000E+00  0.00000000E+00  0.00000000E+00
  0.00000000E+00  0.00000000E+00  0.00000000E+00
  0.00000000E+00  0.00000000E+00  0.00000000E+00
  0.00000000E+00  0.00000000E+00  0.00000000E+00
  0.00000000E+00  0.00000000E+00  0.00000000E+00
  0.00000000E+00  0.00000000E+00  0.00000000E+00
  0.00000000E+00  0.00000000E+00  0.00000000E+00
  0.00000000E+00  0.00000000E+00  0.00000000E+00
  0.00000000E+00  0.00000000E+00  0.00000000E+00
  0.00000000E+00  0.00000000E+00  0.00000000E+00
  0.00000000E+00  0.00000000E+00  0.00000000E+00
  0.00000000E+00  0.00000000E+00  0.00000000E+00
  0.00000000E+00  0.00000000E+00  0.00000000E+00
  0.00000000E+00  0.00000000E+00  0.00000000E+00
  0.00000000E+00  0.00000000E+00  0.00000000E+00
  0.00000000E+00  0.00000000E+00  0.00000000E+00
  0.00000000E+00  0.00000000E+00  0.00000000E+00
  0.00000000E+00  0.00000000E+00  0.00000000E+00
  0.00000000E+00  0.00000000E+00  0.00000000E+00
  0.00000000E+00  0.00000000E+00  0.00000000E+00
  0.00000000E+00  0.00000000E+00  0.00000000E+00
  0.00000000E+00  0.00000000E+00  0.00000000E+00
  0.00000000E+00  0.00000000E+00  0.00000000E+00
  0.00000000E+00  0.00000000E+00  0.00000000E+00
  0.00000000E+00  0.00000000E+00  0.00000000E+00
  0.00000000E+00  0.00000000E+00  0.00000000E+00
  0.00000000E+00  0.00000000E+00  0.00000000E+00
  0.00000000E+00  0.00000000E+00  0.00000000E+00
  0.00000000E+00  0.00000000E+00  0.00000000E+00
  0.00000000E+00  0.00000000E+00  0.00000000E+00
  0.00000000E+00  0.00000000E+00  0.00000000E+00
  0.00000000E+00  0.00000000E+00  0.00000000E+00
  0.00000000E+00  0.00000000E+00  0.00000000E+00
  0.00000000E+00  0.00000000E+00  0.00000000E+00
  0.00000000E+00  0.00000000E+00  0.00000000E+00
  0.00000000E+00  0.00000000E+00  0.00000000E+00
  0.00000000E+00  0.00000000E+00  0.00000000E+00
  0.00000000E+00  0.00000000E+00  0.00000000E+00
  0.00000000E+00  0.00000000E+00  0.00000000E+00
  0.00000000E+00  0.00000000E+00  0.00000000E+00
  0.00000000E+00  0.00000000E+00  0.00000000E+00
  0.00000000E+00  0.00000000E+00  0.00000000E+00
  0.00000000E+00  0.00000000E+00  0.00000000E+00
  0.00000000E+00  0.00000000E+00  0.00000000E+00
  0.00000000E+00  0.00000000E+00  0.00000000E+00
  0.00000000E+00  0.00000000E+00  0.00000000E+00
  0.00000000E+00  0.00000000E+00  0.00000000E+00
  0.00000000E+00  0.00000000E+00  0.00000000E+00
  0.00000000E+00  0.00000000E+00  0.00000000E+00
  0.00000000E+00  0.00000000E+00  0.00000000E+00
  0.00000000E+00  0.00000000E+00  0.00000000E+00
  0.00000000E+00  0.00000000E+00  0.00000000E+00
  0.00000000E+00  0.00000000E+00  0.00000000E+00
  0.00000000E+00  0.00000000E+00  0.00000000E+00
  0.00000000E+00  0.00000000E+00  0.00000000E+00
  0.00000000E+00  0.00000000E+00  0.00000000E+00
  0.00000000E+00  0.00000000E+00  0.00000000E+00
  0.00000000E+00  0.00000000E+00  0.00000000E+00
  0.00000000E+00  0.00000000E+00  0.00000000E+00
  0.00000000E+00  0.00000000E+00  0.00000000E+00
  0.00000000E+00  0.00000000E+00  0.00000000E+00
  0.00000000E+00  0.00000000E+00  0.00000000E+00
  0.00000000E+00  0.00000000E+00  0.00000000E+00
  0.00000000E+00  0.00000000E+00  0.00000000E+00
  0.00000000E+00  0.00000000E+00  0.00000000E+00
  0.00000000E+00  0.00000000E+00  0.00000000E+00
  0.00000000E+00  0.00000000E+00  0.00000000E+00
  0.00000000E+00  0.00000000E+00  0.00000000E+00
  0.00000000E+00  0.00000000E+00  0.00000000E+00
