H2 Au48 C6 Cl4                          
    1.000000000000000     
    11.7981859999999994    0.0000000000000000    0.0000000000000000
    -5.8990929999999997   10.2175279999999997    0.0000000000000000
     0.0000000000000000    0.0000000000000000   17.8186919999999986
   H    Au   C    Cl
     2    48     6     4
Selective dynamics
Direct
  0.7458768315901736  0.5028234705074226  0.8020451706873573   T   T   T
  0.5027184684829180  0.7459869538552013  0.8022620198712715   T   T   T
  0.0833330000000032  0.1666669999999968  0.3367250000000013   F   F   F
  0.0833330000000032  0.4166669999999968  0.3367250000000013   F   F   F
  0.0833330000000032  0.6666669999999968  0.3367250000000013   F   F   F
  0.0833330000000032  0.9166669999999968  0.3367250000000013   F   F   F
  0.3333330000000032  0.1666669999999968  0.3367250000000013   F   F   F
  0.3333330000000032  0.4166669999999968  0.3367250000000013   F   F   F
  0.3333330000000032  0.6666669999999968  0.3367250000000013   F   F   F
  0.3333330000000032  0.9166669999999968  0.3367250000000013   F   F   F
  0.5833330000000032  0.1666669999999968  0.3367250000000013   F   F   F
  0.5833330000000032  0.4166669999999968  0.3367250000000013   F   F   F
  0.5833330000000032  0.6666669999999968  0.3367250000000013   F   F   F
  0.5833330000000032  0.9166669999999968  0.3367250000000013   F   F   F
  0.8333330000000032  0.1666669999999968  0.3367250000000013   F   F   F
  0.8333330000000032  0.4166669999999968  0.3367250000000013   F   F   F
  0.8333330000000032  0.6666669999999968  0.3367250000000013   F   F   F
  0.8333330000000032  0.9166669999999968  0.3367250000000013   F   F   F
  0.2499034102753157  0.2498789109558217  0.6080661041668520   T   T   T
  0.2495201428856646  0.4999578676263212  0.6077936125767138   T   T   T
  0.2505970237479289  0.7501251921895431  0.6085302454535508   T   T   T
  0.2501688940880129  0.0001001614473353  0.6080928251865174   T   T   T
  0.5001887576478836  0.2494015747246721  0.6077954100712262   T   T   T
  0.5001748408073254  0.5001378752275940  0.6059700031321498   T   T   T
  0.4999017093158074  0.7503442323047622  0.6082178577634778   T   T   T
  0.5001416129582026  0.9996689976637541  0.6085091600218249   T   T   T
  0.7502660879167635  0.2504676722081243  0.6084616987627172   T   T   T
  0.7503267905461826  0.4999288838906466  0.6082363533433934   T   T   T
  0.7501436297303883  0.7501097845041187  0.6059517070180291   T   T   T
  0.7503127844840876  0.0007665266453927  0.6078028817263004   T   T   T
  0.0000349240845310  0.2502350723706996  0.6081515086832781   T   T   T
  0.9998052924224154  0.4999986920963906  0.6084375874279431   T   T   T
  0.0008856119396015  0.7500901338381851  0.6077992601865247   T   T   T
  0.0004191077910534  0.0003948587834373  0.6080469926621745   T   T   T
  0.1667950219710406  0.0834127991701976  0.4724601528774102   T   T   T
  0.1668155543086201  0.3334304748164811  0.4724160609538828   T   T   T
  0.1665429538956715  0.5832289654839542  0.4725365221518842   T   T   T
  0.1669586633536753  0.8333025392171010  0.4724676872051319   T   T   T
  0.4168674384180378  0.0832202779058093  0.4724729775028180   T   T   T
  0.4165453266148305  0.3329112609193245  0.4721173552884039   T   T   T
  0.4166636009437710  0.5837527113766185  0.4720729179204568   T   T   T
  0.4167549347240467  0.8334200484525240  0.4724278433823272   T   T   T
  0.6669558466058945  0.0836501053185117  0.4725360548664881   T   T   T
  0.6668081706877800  0.3334732888813861  0.4724268935416376   T   T   T
  0.6670724375182999  0.5831125656977250  0.4717003016721861   T   T   T
  0.6664321493188083  0.8335252779587847  0.4720749177861805   T   T   T
  0.9167417704568877  0.0833524232082326  0.4724190693349613   T   T   T
  0.9167523802551756  0.3334086886293690  0.4724341220316077   T   T   T
  0.9167016286750140  0.5833746114976393  0.4724316699804589   T   T   T
  0.9172743525403035  0.8336313437877436  0.4721159967750808   T   T   T
  0.6924578981305771  0.5561775042259427  0.8033661088075945   T   T   T
  0.5556892353162013  0.4870387475945961  0.8043420892891220   T   T   T
  0.4868615218410142  0.5558807669591417  0.8044219985989614   T   T   T
  0.5560614934047763  0.6925792080541484  0.8034513555677947   T   T   T
  0.6927331680882176  0.7617682905676801  0.8044385652430535   T   T   T
  0.7615739446535770  0.6929245978399123  0.8043570810758780   T   T   T
  0.4745460236781156  0.3187806397731521  0.8053466475664877   T   T   T
  0.3186454782976469  0.4746901473823257  0.8054873673967862   T   T   T
  0.7740304250174148  0.9300708937548094  0.8055226943532787   T   T   T
  0.9299475189734423  0.7741784182893028  0.8053835469399147   T   T   T
 
  0.00000000E+00  0.00000000E+00  0.00000000E+00
  0.00000000E+00  0.00000000E+00  0.00000000E+00
  0.00000000E+00  0.00000000E+00  0.00000000E+00
  0.00000000E+00  0.00000000E+00  0.00000000E+00
  0.00000000E+00  0.00000000E+00  0.00000000E+00
  0.00000000E+00  0.00000000E+00  0.00000000E+00
  0.00000000E+00  0.00000000E+00  0.00000000E+00
  0.00000000E+00  0.00000000E+00  0.00000000E+00
  0.00000000E+00  0.00000000E+00  0.00000000E+00
  0.00000000E+00  0.00000000E+00  0.00000000E+00
  0.00000000E+00  0.00000000E+00  0.00000000E+00
  0.00000000E+00  0.00000000E+00  0.00000000E+00
  0.00000000E+00  0.00000000E+00  0.00000000E+00
  0.00000000E+00  0.00000000E+00  0.00000000E+00
  0.00000000E+00  0.00000000E+00  0.00000000E+00
  0.00000000E+00  0.00000000E+00  0.00000000E+00
  0.00000000E+00  0.00000000E+00  0.00000000E+00
  0.00000000E+00  0.00000000E+00  0.00000000E+00
  0.00000000E+00  0.00000000E+00  0.00000000E+00
  0.00000000E+00  0.00000000E+00  0.00000000E+00
  0.00000000E+00  0.00000000E+00  0.00000000E+00
  0.00000000E+00  0.00000000E+00  0.00000000E+00
  0.00000000E+00  0.00000000E+00  0.00000000E+00
  0.00000000E+00  0.00000000E+00  0.00000000E+00
  0.00000000E+00  0.00000000E+00  0.00000000E+00
  0.00000000E+00  0.00000000E+00  0.00000000E+00
  0.00000000E+00  0.00000000E+00  0.00000000E+00
  0.00000000E+00  0.00000000E+00  0.00000000E+00
  0.00000000E+00  0.00000000E+00  0.00000000E+00
  0.00000000E+00  0.00000000E+00  0.00000000E+00
  0.00000000E+00  0.00000000E+00  0.00000000E+00
  0.00000000E+00  0.00000000E+00  0.00000000E+00
  0.00000000E+00  0.00000000E+00  0.00000000E+00
  0.00000000E+00  0.00000000E+00  0.00000000E+00
  0.00000000E+00  0.00000000E+00  0.00000000E+00
  0.00000000E+00  0.00000000E+00  0.00000000E+00
  0.00000000E+00  0.00000000E+00  0.00000000E+00
  0.00000000E+00  0.00000000E+00  0.00000000E+00
  0.00000000E+00  0.00000000E+00  0.00000000E+00
  0.00000000E+00  0.00000000E+00  0.00000000E+00
  0.00000000E+00  0.00000000E+00  0.00000000E+00
  0.00000000E+00  0.00000000E+00  0.00000000E+00
  0.00000000E+00  0.00000000E+00  0.00000000E+00
  0.00000000E+00  0.00000000E+00  0.00000000E+00
  0.00000000E+00  0.00000000E+00  0.00000000E+00
  0.00000000E+00  0.00000000E+00  0.00000000E+00
  0.00000000E+00  0.00000000E+00  0.00000000E+00
  0.00000000E+00  0.00000000E+00  0.00000000E+00
  0.00000000E+00  0.00000000E+00  0.00000000E+00
  0.00000000E+00  0.00000000E+00  0.00000000E+00
  0.00000000E+00  0.00000000E+00  0.00000000E+00
  0.00000000E+00  0.00000000E+00  0.00000000E+00
  0.00000000E+00  0.00000000E+00  0.00000000E+00
  0.00000000E+00  0.00000000E+00  0.00000000E+00
  0.00000000E+00  0.00000000E+00  0.00000000E+00
  0.00000000E+00  0.00000000E+00  0.00000000E+00
  0.00000000E+00  0.00000000E+00  0.00000000E+00
  0.00000000E+00  0.00000000E+00  0.00000000E+00
  0.00000000E+00  0.00000000E+00  0.00000000E+00
  0.00000000E+00  0.00000000E+00  0.00000000E+00
