Pd  C  H  F                             
    1.000000000000000     
    11.1817229999999999    0.0000000000000000    0.0000000000000000
     0.0000000000000000   15.8133443000000007    0.0000000000000000
     0.0000000000000000    0.0000000000000000   22.1931461100000007
   Pd   C    H    F 
    64     6     4     2
Selective dynamics
Direct
  0.2499999991056825  0.0000000000000000  0.3379421720033022   F   F   F
  0.9999999964227371  0.4999999987352481  0.3379421720033022   F   F   F
  0.2499999991056825  0.2499999996838085  0.3379421720033022   F   F   F
  0.2499999991056825  0.4999999987352481  0.3379421720033022   F   F   F
  0.2499999991056825  0.7499999984190566  0.3379421720033022   F   F   F
  0.4999999982113650  0.0000000000000000  0.3379421720033022   F   F   F
  0.4999999982113650  0.2499999996838085  0.3379421720033022   F   F   F
  0.9999999964227371  0.7499999984190566  0.3379421720033022   F   F   F
  0.4999999982113650  0.4999999987352481  0.3379421720033022   F   F   F
  0.4999999982113650  0.7499999984190566  0.3379421720033022   F   F   F
  0.7499999973170475  0.0000000000000000  0.3379421720033022   F   F   F
  0.7499999973170475  0.2499999996838085  0.3379421720033022   F   F   F
  0.7499999973170475  0.4999999987352481  0.3379421720033022   F   F   F
  0.7499999973170475  0.7499999984190566  0.3379421720033022   F   F   F
  0.0000000000000000  0.0000000000000000  0.3379421720033022   F   F   F
  0.9999999964227371  0.2499999996838085  0.3379421720033022   F   F   F
  0.2491903433012117  0.0000864454973472  0.4654382687947647   T   T   T
  0.2506824509833596  0.2523629781952930  0.4658560338504341   T   T   T
  0.2463700430909761  0.4999953821752754  0.4628845150073876   T   T   T
  0.2511751626314431  0.7466939895051052  0.4664650109715286   T   T   T
  0.4999137212168353  0.0000773946557551  0.4653155810784302   T   T   T
  0.5006728211328624  0.2523420841875735  0.4658275692098065   T   T   T
  0.5000188332423237  0.5000109039324923  0.4598428702261452   T   T   T
  0.4993083611528952  0.7476368187763525  0.4658437221029451   T   T   T
  0.7506957416425114 -0.0000360983192786  0.4654615174752984   T   T   T
  0.7488329764079666  0.2532913901178066  0.4664596036024848   T   T   T
  0.7536160333195207  0.5000049549455171  0.4628509554234959   T   T   T
  0.7493089740274883  0.7476436685611583  0.4658702578646265   T   T   T
  0.9999712646187040  0.0000004049786364  0.4658415231502327   T   T   T
  0.9997389867845423  0.2512817558271269  0.4652116748660702   T   T   T
  0.0000093408903670  0.5000361984108438  0.4651829566381108   T   T   T
  0.0003046537412404  0.7486934084617102  0.4652358767798819   T   T   T
  0.1251106030437002  0.1271793789695170  0.5233804927941021   T   T   T
  0.1243603949579747  0.3756506172578239  0.5244914020307070   T   T   T
  0.1253511139254462  0.6240930430000238  0.5249296693739346   T   T   T
  0.1260257460326532  0.8727265016627782  0.5232925690498275   T   T   T
  0.3753354963539958  0.1259515909965979  0.5232136155223240   T   T   T
  0.3744141168798685  0.3833759485372512  0.5250742222679310   T   T   T
  0.3755983556735092  0.6140666442281216  0.5277859564893191   T   T   T
  0.3753731769258326  0.8746677589669907  0.5235228443069172   T   T   T
  0.6245768425071446  0.1253285430127141  0.5235545168030530   T   T   T
  0.6243876475080476  0.3858803722014938  0.5277214772309626   T   T   T
  0.6255718743344461  0.6166264880005200  0.5250760272247028   T   T   T
  0.6245993097625980  0.8741648130674524  0.5231617547657841   T   T   T
  0.8739954081199226  0.1272591607946991  0.5233013310467853   T   T   T
  0.8745859413645474  0.3759069256031203  0.5249043756916351   T   T   T
  0.8756206966372413  0.6243351089238125  0.5245154530929920   T   T   T
  0.8748472404832845  0.8728240976923443  0.5233785310783774   T   T   T
  0.1249999995528412  0.1249999995257198  0.4009217677339905   F   F   F
  0.1249999995528412  0.3749999992095283  0.4009217677339905   F   F   F
  0.1249999995528412  0.6249999982609609  0.4009217677339905   F   F   F
  0.1249999995528412  0.8749999979447765  0.4009217677339905   F   F   F
  0.3749999986585237  0.1249999995257198  0.4009217677339905   F   F   F
  0.3749999986585237  0.3749999992095283  0.4009217677339905   F   F   F
  0.3749999986585237  0.6249999982609609  0.4009217677339905   F   F   F
  0.3749999986585237  0.8749999979447765  0.4009217677339905   F   F   F
  0.6249999977642062  0.1249999995257198  0.4009217677339905   F   F   F
  0.6249999977642062  0.3749999992095283  0.4009217677339905   F   F   F
  0.6249999977642062  0.6249999982609609  0.4009217677339905   F   F   F
  0.6249999977642062  0.8749999979447765  0.4009217677339905   F   F   F
  0.8749999968698887  0.1249999995257198  0.4009217677339905   F   F   F
  0.8749999968698887  0.3749999992095283  0.4009217677339905   F   F   F
  0.8749999968698887  0.6249999982609609  0.4009217677339905   F   F   F
  0.8749999968698887  0.8749999979447765  0.4009217677339905   F   F   F
  0.6035533310298251  0.5558802731981569  0.6062057737635090   T   T   T
  0.6197789828692999  0.4631752501606321  0.6073327138957456   T   T   T
  0.5170684869993265  0.4089816030752000  0.6113091182094691   T   T   T
  0.3964953750184563  0.4440396555436231  0.6062107311784952   T   T   T
  0.3803320532741616  0.5367449606257798  0.6073461752853310   T   T   T
  0.4830658195731019  0.5909520688845267  0.6113121361017418   T   T   T
  0.7027115884671004  0.4435668270766231  0.6294578204151351   T   T   T
  0.5242892314931860  0.3485336581665590  0.6348306878619087   T   T   T
  0.2974450503385456  0.5563544698639529  0.6294692343602554   T   T   T
  0.4758438967844196  0.6513870813848445  0.6348534011232196   T   T   T
  0.6861656989650960  0.5956114189065361  0.6445750357055363   T   T   T
  0.3140379886617041  0.4043488995765671  0.6445814361048366   T   T   T
 
  0.00000000E+00  0.00000000E+00  0.00000000E+00
  0.00000000E+00  0.00000000E+00  0.00000000E+00
  0.00000000E+00  0.00000000E+00  0.00000000E+00
  0.00000000E+00  0.00000000E+00  0.00000000E+00
  0.00000000E+00  0.00000000E+00  0.00000000E+00
  0.00000000E+00  0.00000000E+00  0.00000000E+00
  0.00000000E+00  0.00000000E+00  0.00000000E+00
  0.00000000E+00  0.00000000E+00  0.00000000E+00
  0.00000000E+00  0.00000000E+00  0.00000000E+00
  0.00000000E+00  0.00000000E+00  0.00000000E+00
  0.00000000E+00  0.00000000E+00  0.00000000E+00
  0.00000000E+00  0.00000000E+00  0.00000000E+00
  0.00000000E+00  0.00000000E+00  0.00000000E+00
  0.00000000E+00  0.00000000E+00  0.00000000E+00
  0.00000000E+00  0.00000000E+00  0.00000000E+00
  0.00000000E+00  0.00000000E+00  0.00000000E+00
  0.00000000E+00  0.00000000E+00  0.00000000E+00
  0.00000000E+00  0.00000000E+00  0.00000000E+00
  0.00000000E+00  0.00000000E+00  0.00000000E+00
  0.00000000E+00  0.00000000E+00  0.00000000E+00
  0.00000000E+00  0.00000000E+00  0.00000000E+00
  0.00000000E+00  0.00000000E+00  0.00000000E+00
  0.00000000E+00  0.00000000E+00  0.00000000E+00
  0.00000000E+00  0.00000000E+00  0.00000000E+00
  0.00000000E+00  0.00000000E+00  0.00000000E+00
  0.00000000E+00  0.00000000E+00  0.00000000E+00
  0.00000000E+00  0.00000000E+00  0.00000000E+00
  0.00000000E+00  0.00000000E+00  0.00000000E+00
  0.00000000E+00  0.00000000E+00  0.00000000E+00
  0.00000000E+00  0.00000000E+00  0.00000000E+00
  0.00000000E+00  0.00000000E+00  0.00000000E+00
  0.00000000E+00  0.00000000E+00  0.00000000E+00
  0.00000000E+00  0.00000000E+00  0.00000000E+00
  0.00000000E+00  0.00000000E+00  0.00000000E+00
  0.00000000E+00  0.00000000E+00  0.00000000E+00
  0.00000000E+00  0.00000000E+00  0.00000000E+00
  0.00000000E+00  0.00000000E+00  0.00000000E+00
  0.00000000E+00  0.00000000E+00  0.00000000E+00
  0.00000000E+00  0.00000000E+00  0.00000000E+00
  0.00000000E+00  0.00000000E+00  0.00000000E+00
  0.00000000E+00  0.00000000E+00  0.00000000E+00
  0.00000000E+00  0.00000000E+00  0.00000000E+00
  0.00000000E+00  0.00000000E+00  0.00000000E+00
  0.00000000E+00  0.00000000E+00  0.00000000E+00
  0.00000000E+00  0.00000000E+00  0.00000000E+00
  0.00000000E+00  0.00000000E+00  0.00000000E+00
  0.00000000E+00  0.00000000E+00  0.00000000E+00
  0.00000000E+00  0.00000000E+00  0.00000000E+00
  0.00000000E+00  0.00000000E+00  0.00000000E+00
  0.00000000E+00  0.00000000E+00  0.00000000E+00
  0.00000000E+00  0.00000000E+00  0.00000000E+00
  0.00000000E+00  0.00000000E+00  0.00000000E+00
  0.00000000E+00  0.00000000E+00  0.00000000E+00
  0.00000000E+00  0.00000000E+00  0.00000000E+00
  0.00000000E+00  0.00000000E+00  0.00000000E+00
  0.00000000E+00  0.00000000E+00  0.00000000E+00
  0.00000000E+00  0.00000000E+00  0.00000000E+00
  0.00000000E+00  0.00000000E+00  0.00000000E+00
  0.00000000E+00  0.00000000E+00  0.00000000E+00
  0.00000000E+00  0.00000000E+00  0.00000000E+00
  0.00000000E+00  0.00000000E+00  0.00000000E+00
  0.00000000E+00  0.00000000E+00  0.00000000E+00
  0.00000000E+00  0.00000000E+00  0.00000000E+00
  0.00000000E+00  0.00000000E+00  0.00000000E+00
  0.00000000E+00  0.00000000E+00  0.00000000E+00
  0.00000000E+00  0.00000000E+00  0.00000000E+00
  0.00000000E+00  0.00000000E+00  0.00000000E+00
  0.00000000E+00  0.00000000E+00  0.00000000E+00
  0.00000000E+00  0.00000000E+00  0.00000000E+00
  0.00000000E+00  0.00000000E+00  0.00000000E+00
  0.00000000E+00  0.00000000E+00  0.00000000E+00
  0.00000000E+00  0.00000000E+00  0.00000000E+00
  0.00000000E+00  0.00000000E+00  0.00000000E+00
  0.00000000E+00  0.00000000E+00  0.00000000E+00
  0.00000000E+00  0.00000000E+00  0.00000000E+00
  0.00000000E+00  0.00000000E+00  0.00000000E+00
